10

N       7.466000000000000      6.932000000000000      3.864000000000000
C       8.141999999999999      7.499000000000000      3.125000000000000
C       8.962000000000000      8.222000000000000      2.180000000000000
C       9.919000000000000      9.179000000000000      2.847000000000000
C      10.641999999999999      9.999000000000001      1.902000000000000
N      11.209000000000000     10.675000000000001      1.163000000000000
H       9.414000000000000      9.759000000000000      3.453000000000000
H      10.557000000000000      8.664999999999999      3.383000000000000
H       8.382000000000000      8.727000000000000      1.574000000000000
H       9.476000000000001      7.584000000000000      1.644000000000000
