9

S       7.201786000000000    124.747370000000004    808.609439999999950
F       7.448086000000000    123.464392000000004    807.615107999999964
O       5.959648000000000    124.434220999999994    809.269089000000008
O       8.416092000000001    124.815966000000003    809.376859999999965
N       7.173579000000000    125.968469999999996    807.595564999999965
S       5.938833000000000    126.305764999999994    806.656701999999996
F       4.872370000000000    126.987905999999995    807.702040000000011
O       5.217245000000000    125.180425000000000    806.119087000000036
O       6.304362000000000    127.394485000000003    805.791111999999998
