 Entering Gaussian System, Link 0=g16
 Input=/Users/srak/Desktop/imolcraft/vsite_positiondiff/distance_scan/cn__Li_dist_0__1.30.gjf
 Output=/Users/srak/Desktop/imolcraft/vsite_positiondiff/distance_scan/cn__Li_dist_0__1.30.log
 Initial command:
 /Applications/g16/l1.exe "/Users/srak/g16_scratch/Gau-74208.inp" -scrdir="/Users/srak/g16_scratch/"
 Entering Link 1 = /Applications/g16/l1.exe PID=     74209.
  
 Copyright (c) 1988-2021, Gaussian, Inc.  All Rights Reserved.
  
 This is part of the Gaussian(R) 16 program.  It is based on
 the Gaussian(R) 09 system (copyright 2009, Gaussian, Inc.),
 the Gaussian(R) 03 system (copyright 2003, Gaussian, Inc.),
 the Gaussian(R) 98 system (copyright 1998, Gaussian, Inc.),
 the Gaussian(R) 94 system (copyright 1995, Gaussian, Inc.),
 the Gaussian 92(TM) system (copyright 1992, Gaussian, Inc.),
 the Gaussian 90(TM) system (copyright 1990, Gaussian, Inc.),
 the Gaussian 88(TM) system (copyright 1988, Gaussian, Inc.),
 the Gaussian 86(TM) system (copyright 1986, Carnegie Mellon
 University), and the Gaussian 82(TM) system (copyright 1983,
 Carnegie Mellon University). Gaussian is a federally registered
 trademark of Gaussian, Inc.
  
 This software contains proprietary and confidential information,
 including trade secrets, belonging to Gaussian, Inc.
  
 This software is provided under written license and may be
 used, copied, transmitted, or stored only in accord with that
 written license.
  
 The following legend is applicable only to US Government
 contracts under FAR:
  
                    RESTRICTED RIGHTS LEGEND
  
 Use, reproduction and disclosure by the US Government is
 subject to restrictions as set forth in subparagraphs (a)
 and (c) of the Commercial Computer Software - Restricted
 Rights clause in FAR 52.227-19.
  
 Gaussian, Inc.
 340 Quinnipiac St., Bldg. 40, Wallingford CT 06492
  
  
 ---------------------------------------------------------------
 Warning -- This program may not be used in any manner that
 competes with the business of Gaussian, Inc. or will provide
 assistance to any competitor of Gaussian, Inc.  The licensee
 of this program is prohibited from giving any competitor of
 Gaussian, Inc. access to this program.  By using this program,
 the user acknowledges that Gaussian, Inc. is engaged in the
 business of creating and licensing software in the field of
 computational chemistry and represents and warrants to the
 licensee that it is not a competitor of Gaussian, Inc. and that
 it will not use this program in any manner prohibited above.
 ---------------------------------------------------------------
  

 Cite this work as:
 Gaussian 16, Revision C.02,
 M. J. Frisch, G. W. Trucks, H. B. Schlegel, G. E. Scuseria, 
 M. A. Robb, J. R. Cheeseman, G. Scalmani, V. Barone, 
 G. A. Petersson, H. Nakatsuji, X. Li, M. Caricato, A. V. Marenich, 
 J. Bloino, B. G. Janesko, R. Gomperts, B. Mennucci, H. P. Hratchian, 
 J. V. Ortiz, A. F. Izmaylov, J. L. Sonnenberg, D. Williams-Young, 
 F. Ding, F. Lipparini, F. Egidi, J. Goings, B. Peng, A. Petrone, 
 T. Henderson, D. Ranasinghe, V. G. Zakrzewski, J. Gao, N. Rega, 
 G. Zheng, W. Liang, M. Hada, M. Ehara, K. Toyota, R. Fukuda, 
 J. Hasegawa, M. Ishida, T. Nakajima, Y. Honda, O. Kitao, H. Nakai, 
 T. Vreven, K. Throssell, J. A. Montgomery, Jr., J. E. Peralta, 
 F. Ogliaro, M. J. Bearpark, J. J. Heyd, E. N. Brothers, K. N. Kudin, 
 V. N. Staroverov, T. A. Keith, R. Kobayashi, J. Normand, 
 K. Raghavachari, A. P. Rendell, J. C. Burant, S. S. Iyengar, 
 J. Tomasi, M. Cossi, J. M. Millam, M. Klene, C. Adamo, R. Cammi, 
 J. W. Ochterski, R. L. Martin, K. Morokuma, O. Farkas, 
 J. B. Foresman, and D. J. Fox, Gaussian, Inc., Wallingford CT, 2019.
 
 *********************************************
 Gaussian 16:  Apple M1-G16RevC.02  7-Dec-2021
                   7-Aug-2025 
 *********************************************
 -----------------------------------
 #p opt=modredundant wb97xd/6-31g(d)
 -----------------------------------
 1/18=120,19=15,26=3,38=1/1,3;
 2/9=110,12=2,17=6,18=5,40=1/2;
 3/5=1,6=6,7=1,11=2,25=1,30=1,71=1,74=-58/1,2,3;
 4//1;
 5/5=2,38=5/2;
 6/7=2,8=2,9=2,10=2,28=1/1;
 7//1,2,3,16;
 1/18=20,19=15,26=3/3(2);
 2/9=110/2;
 99//99;
 2/9=110/2;
 3/5=1,6=6,7=1,11=2,25=1,30=1,71=1,74=-58/1,2,3;
 4/5=5,16=3,69=1/1;
 5/5=2,38=5/2;
 7//1,2,3,16;
 1/18=20,19=15,26=3/3(-5);
 2/9=110/2;
 6/7=2,8=2,9=2,10=2,19=2,28=1/1;
 99/9=1/99;
 Leave Link    1 at Thu Aug  7 18:43:47 2025, MaxMem=           0 cpu:               0.0 elap:               0.0
 (Enter /Applications/g16/l101.exe)
 ------------------------------
 Gaussian input prepared by ASE
 ------------------------------
 Symbolic Z-matrix:
 Charge =  1 Multiplicity = 1
 N                     3.26138  -0.17795  -0.00026 
 C                     2.16825   0.1978   -0.0001 
 C                     0.77172   0.63135  -0.00002 
 C                    -0.14817  -0.61537   0.00005 
 C                    -1.55931  -0.25213   0.00014 
 N                    -2.67851   0.04159   0.00025 
 H                     0.03617  -1.23636  -0.88395 
 H                     0.03626  -1.23634   0.88405 
 H                     0.58708   1.24681  -0.88559 
 H                     0.58719   1.24682   0.88556 
 Li                   -3.9477    0.32297  -0.00007 
 
 The following ModRedundant input section has been read:
 B       6      11 F                                                           
 
 ITRead=  0  0  0  0  0  0  0  0  0  0  0
 MicOpt= -1 -1 -1 -1 -1 -1 -1 -1 -1 -1 -1
 NAtoms=     11 NQM=       11 NQMF=       0 NMMI=      0 NMMIF=      0
                NMic=       0 NMicF=      0.
                    Isotopes and Nuclear Properties:
 (Nuclear quadrupole moments (NQMom) in fm**2, nuclear magnetic moments (NMagM)
  in nuclear magnetons)

  Atom         1           2           3           4           5           6           7           8           9          10
 IAtWgt=          14          12          12          12          12          14           1           1           1           1
 AtmWgt=  14.0030740  12.0000000  12.0000000  12.0000000  12.0000000  14.0030740   1.0078250   1.0078250   1.0078250   1.0078250
 NucSpn=           2           0           0           0           0           2           1           1           1           1
 AtZEff=  -0.0000000  -0.0000000  -0.0000000  -0.0000000  -0.0000000  -0.0000000  -0.0000000  -0.0000000  -0.0000000  -0.0000000
 NQMom=    2.0440000   0.0000000   0.0000000   0.0000000   0.0000000   2.0440000   0.0000000   0.0000000   0.0000000   0.0000000
 NMagM=    0.4037610   0.0000000   0.0000000   0.0000000   0.0000000   0.4037610   2.7928460   2.7928460   2.7928460   2.7928460
 AtZNuc=   7.0000000   6.0000000   6.0000000   6.0000000   6.0000000   7.0000000   1.0000000   1.0000000   1.0000000   1.0000000

  Atom        11
 IAtWgt=           7
 AtmWgt=   7.0160045
 NucSpn=           3
 AtZEff=  -0.0000000
 NQMom=   -4.0100000
 NMagM=    3.2564240
 AtZNuc=   3.0000000
 Leave Link  101 at Thu Aug  7 18:43:47 2025, MaxMem=   104857600 cpu:               0.0 elap:               0.0
 (Enter /Applications/g16/l103.exe)

 GradGradGradGradGradGradGradGradGradGradGradGradGradGradGradGradGradGrad
 Berny optimization.
 Initialization pass.
                           ----------------------------
                           !    Initial Parameters    !
                           ! (Angstroms and Degrees)  !
 --------------------------                            --------------------------
 ! Name  Definition              Value          Derivative Info.                !
 --------------------------------------------------------------------------------
 ! R1    R(1,2)                  1.1559         estimate D2E/DX2                !
 ! R2    R(2,3)                  1.4623         estimate D2E/DX2                !
 ! R3    R(3,4)                  1.5493         estimate D2E/DX2                !
 ! R4    R(3,9)                  1.0941         estimate D2E/DX2                !
 ! R5    R(3,10)                 1.0941         estimate D2E/DX2                !
 ! R6    R(4,5)                  1.4571         estimate D2E/DX2                !
 ! R7    R(4,7)                  1.0959         estimate D2E/DX2                !
 ! R8    R(4,8)                  1.0959         estimate D2E/DX2                !
 ! R9    R(5,6)                  1.1571         estimate D2E/DX2                !
 ! R10   R(6,11)                 1.3            Frozen                          !
 ! A1    A(2,3,4)              109.1752         estimate D2E/DX2                !
 ! A2    A(2,3,9)              109.1414         estimate D2E/DX2                !
 ! A3    A(2,3,10)             109.1416         estimate D2E/DX2                !
 ! A4    A(4,3,9)              110.6389         estimate D2E/DX2                !
 ! A5    A(4,3,10)             110.6388         estimate D2E/DX2                !
 ! A6    A(9,3,10)             108.0721         estimate D2E/DX2                !
 ! A7    A(3,4,5)              111.9869         estimate D2E/DX2                !
 ! A8    A(3,4,7)              110.8583         estimate D2E/DX2                !
 ! A9    A(3,4,8)              110.8583         estimate D2E/DX2                !
 ! A10   A(5,4,7)              107.7095         estimate D2E/DX2                !
 ! A11   A(5,4,8)              107.708          estimate D2E/DX2                !
 ! A12   A(7,4,8)              107.5331         estimate D2E/DX2                !
 ! A13   L(1,2,3,7,-1)         178.4189         estimate D2E/DX2                !
 ! A14   L(4,5,6,10,-1)        179.7531         estimate D2E/DX2                !
 ! A15   L(5,6,11,9,-1)        181.9968         estimate D2E/DX2                !
 ! A16   L(1,2,3,7,-2)         179.1579         estimate D2E/DX2                !
 ! A17   L(4,5,6,10,-2)        179.8631         estimate D2E/DX2                !
 ! A18   L(5,6,11,9,-2)        178.427          estimate D2E/DX2                !
 ! D1    D(2,3,4,5)            179.9996         estimate D2E/DX2                !
 ! D2    D(2,3,4,7)            -59.6756         estimate D2E/DX2                !
 ! D3    D(2,3,4,8)             59.6767         estimate D2E/DX2                !
 ! D4    D(9,3,4,5)            -59.8712         estimate D2E/DX2                !
 ! D5    D(9,3,4,7)             60.4536         estimate D2E/DX2                !
 ! D6    D(9,3,4,8)            179.8059         estimate D2E/DX2                !
 ! D7    D(10,3,4,5)            59.8702         estimate D2E/DX2                !
 ! D8    D(10,3,4,7)          -179.805          estimate D2E/DX2                !
 ! D9    D(10,3,4,8)           -60.4527         estimate D2E/DX2                !
 --------------------------------------------------------------------------------
 Trust Radius=3.00D-01 FncErr=1.00D-07 GrdErr=1.00D-06 EigMax=2.50D+02 EigMin=1.00D-04
 Number of steps in this run=     47 maximum allowed number of steps=    100.
 GradGradGradGradGradGradGradGradGradGradGradGradGradGradGradGradGradGrad

 Leave Link  103 at Thu Aug  7 18:43:47 2025, MaxMem=   104857600 cpu:               0.0 elap:               0.0
 (Enter /Applications/g16/l202.exe)
                          Input orientation:                          
 ---------------------------------------------------------------------
 Center     Atomic      Atomic             Coordinates (Angstroms)
 Number     Number       Type             X           Y           Z
 ---------------------------------------------------------------------
      1          7           0        3.261377   -0.177950   -0.000257
      2          6           0        2.168255    0.197798   -0.000099
      3          6           0        0.771723    0.631345   -0.000018
      4          6           0       -0.148168   -0.615365    0.000048
      5          6           0       -1.559306   -0.252126    0.000139
      6          7           0       -2.678514    0.041587    0.000246
      7          1           0        0.036165   -1.236365   -0.883952
      8          1           0        0.036258   -1.236341    0.884046
      9          1           0        0.587083    1.246809   -0.885586
     10          1           0        0.587187    1.246824    0.885560
     11          3           0       -3.947697    0.322967   -0.000065
 ---------------------------------------------------------------------
                    Distance matrix (angstroms):
                    1          2          3          4          5
     1  N    0.000000
     2  C    1.155899   0.000000
     3  C    2.617888   1.462281   0.000000
     4  C    3.437489   2.455005   1.549350   0.000000
     5  C    4.821254   3.754616   2.492833   1.457139   0.000000
     6  N    5.943947   4.849286   3.500279   2.614237   1.157106
     7  H    3.507585   2.717320   2.193337   1.095936   2.072648
     8  H    3.507645   2.717329   2.193337   1.095936   2.072630
     9  H    3.156833   2.093948   1.094129   2.189208   2.763748
    10  H    3.156888   2.093949   1.094128   2.189207   2.763739
    11  Li   7.226456   6.117233   4.729484   3.913679   2.456653
                    6          7          8          9         10
     6  N    0.000000
     7  H    3.128010   0.000000
     8  H    3.127969   1.767998   0.000000
     9  H    3.591849   2.543554   3.098554   0.000000
    10  H    3.591821   3.098552   2.543547   1.771146   0.000000
    11  Li   1.300000   4.368516   4.368637   4.711885   4.712008
                   11
    11  Li   0.000000
 Stoichiometry    C4H4LiN2(1+)
 Framework group  C1[X(C4H4LiN2)]
 Deg. of freedom    27
 Full point group                 C1      NOp   1
 Largest Abelian subgroup         C1      NOp   1
 Largest concise Abelian subgroup C1      NOp   1
                         Standard orientation:                         
 ---------------------------------------------------------------------
 Center     Atomic      Atomic             Coordinates (Angstroms)
 Number     Number       Type             X           Y           Z
 ---------------------------------------------------------------------
      1          7           0        3.240868   -0.191092   -0.000262
      2          6           0        2.149787    0.190543   -0.000104
      3          6           0        0.755612    0.631610   -0.000023
      4          6           0       -0.170985   -0.610123    0.000043
      5          6           0       -1.580145   -0.239284    0.000134
      6          7           0       -2.697753    0.060457    0.000241
      7          1           0        0.009998   -1.232108   -0.883957
      8          1           0        0.010091   -1.232084    0.884041
      9          1           0        0.574292    1.248061   -0.885591
     10          1           0        0.574396    1.248075    0.885555
     11          3           0       -3.965401    0.348674   -0.000070
 ---------------------------------------------------------------------
 Rotational constants (GHZ):          23.9188962           1.1095869           1.0746274
 Leave Link  202 at Thu Aug  7 18:43:47 2025, MaxMem=   104857600 cpu:               0.0 elap:               0.0
 (Enter /Applications/g16/l301.exe)
 Standard basis: 6-31G(d) (6D, 7F)
 Ernie: Thresh=  0.10000D-02 Tol=  0.10000D-05 Strict=F.
 There are   113 symmetry adapted cartesian basis functions of A   symmetry.
 There are   113 symmetry adapted basis functions of A   symmetry.
   113 basis functions,   212 primitive gaussians,   113 cartesian basis functions
    22 alpha electrons       22 beta electrons
       nuclear repulsion energy       200.4104567898 Hartrees.
 IExCor= 4639 DFT=T Ex+Corr=wB97XD ExCW=0 ScaHFX=  1.000000
 ScaDFX=  1.000000  1.000000  1.000000  1.000000 ScalE2=  1.000000  1.000000
 IRadAn=      5 IRanWt=     -1 IRanGd=            0 ICorTp=0 IEmpDi=121
 HFx  wShort=  0.000000 wLong=  0.200000 cFull=  0.222036 cShort=  0.000000 cLong=  0.777964
 DFx  wShort=  0.000000 wLong=  0.200000 cFull=  0.000000 cShort=  0.000000 cLong=  1.000000
 NAtoms=   11 NActive=   11 NUniq=   11 SFac= 1.00D+00 NAtFMM=   60 NAOKFM=F Big=F
 Integral buffers will be    131072 words long.
 Raffenetti 2 integral format.
 Two-electron integral symmetry is turned on.
 R6Disp:  Grimme-D2 Dispersion energy=       -0.0048114243 Hartrees.
 Nuclear repulsion after empirical dispersion term =      200.4056453654 Hartrees.
 Leave Link  301 at Thu Aug  7 18:43:47 2025, MaxMem=   104857600 cpu:               0.0 elap:               0.0
 (Enter /Applications/g16/l302.exe)
 NPDir=0 NMtPBC=     1 NCelOv=     1 NCel=       1 NClECP=     1 NCelD=      1
         NCelK=      1 NCelE2=     1 NClLst=     1 CellRange=     0.0.
 One-electron integrals computed using PRISM.
 One-electron integral symmetry used in STVInt
 NBasis=   113 RedAO= T EigKep=  7.81D-04  NBF=   113
 NBsUse=   113 1.00D-06 EigRej= -1.00D+00 NBFU=   113
 Precomputing XC quadrature grid using
 IXCGrd= 4 IRadAn=           5 IRanWt=          -1 IRanGd=           0 AccXCQ= 0.00D+00.
 Generated NRdTot=       0 NPtTot=           0 NUsed=           0 NTot=          32
 NSgBfM=   113   113   113   113   113 MxSgAt=    11 MxSgA2=    11.
 Leave Link  302 at Thu Aug  7 18:43:47 2025, MaxMem=   104857600 cpu:               0.1 elap:               0.1
 (Enter /Applications/g16/l303.exe)
 DipDrv:  MaxL=1.
 Leave Link  303 at Thu Aug  7 18:43:47 2025, MaxMem=   104857600 cpu:               0.0 elap:               0.0
 (Enter /Applications/g16/l401.exe)
 ExpMin= 3.60D-02 ExpMax= 4.17D+03 ExpMxC= 6.27D+02 IAcc=3 IRadAn=         5 AccDes= 0.00D+00
 Harris functional with IExCor= 4639 and IRadAn=       5 diagonalized for initial guess.
 HarFok:  IExCor= 4639 AccDes= 0.00D+00 IRadAn=         5 IDoV= 1 UseB2=F ITyADJ=14
 ICtDFT=  3500011 ScaDFX=  1.000000  1.000000  1.000000  1.000000
 FoFCou: FMM=F IPFlag=           0 FMFlag=      100000 FMFlg1=           0
         NFxFlg=           0 DoJE=T BraDBF=F KetDBF=T FulRan=T
         wScrn=  0.000000 ICntrl=       500 IOpCl=  0 I1Cent=   200000004 NGrid=           0
         NMat0=    1 NMatS0=      1 NMatT0=    0 NMatD0=    1 NMtDS0=    0 NMtDT0=    0
 Petite list used in FoFCou.
 Harris En= -259.678449556432    
 JPrj=0 DoOrth=F DoCkMO=F.
 Leave Link  401 at Thu Aug  7 18:43:47 2025, MaxMem=   104857600 cpu:               0.6 elap:               0.6
 (Enter /Applications/g16/l502.exe)
 Keep R1 ints in memory in canonical form, NReq=43174005.
 FoFCou: FMM=F IPFlag=           0 FMFlag=           0 FMFlg1=           0
         NFxFlg=           0 DoJE=F BraDBF=F KetDBF=F FulRan=T
         wScrn=  0.000000 ICntrl=       600 IOpCl=  0 I1Cent=           0 NGrid=           0
         NMat0=    1 NMatS0=   6441 NMatT0=    0 NMatD0=    1 NMtDS0=    0 NMtDT0=    0
 Symmetry not used in FoFCou.
 Two-electron integral symmetry not used.
 Closed shell SCF:
 Using DIIS extrapolation, IDIIS=  1040.
 NGot=   104857600 LenX=    63336875 LenY=    63323665
 Requested convergence on RMS density matrix=1.00D-08 within 128 cycles.
 Requested convergence on MAX density matrix=1.00D-06.
 Requested convergence on             energy=1.00D-06.
 No special actions if energy rises.

 Cycle   1  Pass 1  IDiag  1:
 E= -271.310746683692    
 DIIS: error= 5.84D-02 at cycle   1 NSaved=   1.
 NSaved= 1 IEnMin= 1 EnMin= -271.310746683692     IErMin= 1 ErrMin= 5.84D-02
 ErrMax= 5.84D-02  0.00D+00 EMaxC= 1.00D-01 BMatC= 2.98D-01 BMatP= 2.98D-01
 IDIUse=3 WtCom= 4.16D-01 WtEn= 5.84D-01
 Coeff-Com:  0.100D+01
 Coeff-En:   0.100D+01
 Coeff:      0.100D+01
 Gap=     0.433 Goal=   None    Shift=    0.000
 GapD=    0.433 DampG=2.000 DampE=0.500 DampFc=1.0000 IDamp=-1.
 RMSDP=6.92D-03 MaxDP=1.29D-01              OVMax= 2.04D-01

 Cycle   2  Pass 1  IDiag  1:
 E= -271.255062934456     Delta-E=        0.055683749236 Rises=F Damp=F
 DIIS: error= 3.97D-02 at cycle   2 NSaved=   2.
 NSaved= 2 IEnMin= 1 EnMin= -271.310746683692     IErMin= 2 ErrMin= 3.97D-02
 ErrMax= 3.97D-02  0.00D+00 EMaxC= 1.00D-01 BMatC= 2.11D-01 BMatP= 2.98D-01
 IDIUse=3 WtCom= 6.03D-01 WtEn= 3.97D-01
 Coeff-Com:  0.442D+00 0.558D+00
 Coeff-En:   0.602D+00 0.398D+00
 Coeff:      0.505D+00 0.495D+00
 Gap=     0.368 Goal=   None    Shift=    0.000
 RMSDP=3.66D-03 MaxDP=1.04D-01 DE= 5.57D-02 OVMax= 1.43D-01

 Cycle   3  Pass 1  IDiag  1:
 E= -271.410271466459     Delta-E=       -0.155208532003 Rises=F Damp=F
 DIIS: error= 1.28D-02 at cycle   3 NSaved=   3.
 NSaved= 3 IEnMin= 3 EnMin= -271.410271466459     IErMin= 3 ErrMin= 1.28D-02
 ErrMax= 1.28D-02  0.00D+00 EMaxC= 1.00D-01 BMatC= 2.24D-02 BMatP= 2.11D-01
 IDIUse=3 WtCom= 8.72D-01 WtEn= 1.28D-01
 Coeff-Com:  0.191D-01 0.246D+00 0.735D+00
 Coeff-En:   0.000D+00 0.886D-01 0.911D+00
 Coeff:      0.166D-01 0.226D+00 0.758D+00
 Gap=     0.382 Goal=   None    Shift=    0.000
 RMSDP=1.08D-03 MaxDP=3.35D-02 DE=-1.55D-01 OVMax= 4.47D-02

 Cycle   4  Pass 1  IDiag  1:
 E= -271.428216125762     Delta-E=       -0.017944659303 Rises=F Damp=F
 DIIS: error= 1.87D-03 at cycle   4 NSaved=   4.
 NSaved= 4 IEnMin= 4 EnMin= -271.428216125762     IErMin= 4 ErrMin= 1.87D-03
 ErrMax= 1.87D-03  0.00D+00 EMaxC= 1.00D-01 BMatC= 8.09D-04 BMatP= 2.24D-02
 IDIUse=3 WtCom= 9.81D-01 WtEn= 1.87D-02
 Coeff-Com:  0.476D-03 0.592D-01 0.283D+00 0.658D+00
 Coeff-En:   0.000D+00 0.000D+00 0.000D+00 0.100D+01
 Coeff:      0.467D-03 0.581D-01 0.277D+00 0.664D+00
 Gap=     0.385 Goal=   None    Shift=    0.000
 RMSDP=3.00D-04 MaxDP=9.26D-03 DE=-1.79D-02 OVMax= 7.94D-03

 Cycle   5  Pass 1  IDiag  1:
 E= -271.428800475018     Delta-E=       -0.000584349257 Rises=F Damp=F
 DIIS: error= 1.01D-03 at cycle   5 NSaved=   5.
 NSaved= 5 IEnMin= 5 EnMin= -271.428800475018     IErMin= 5 ErrMin= 1.01D-03
 ErrMax= 1.01D-03  0.00D+00 EMaxC= 1.00D-01 BMatC= 1.02D-04 BMatP= 8.09D-04
 IDIUse=3 WtCom= 9.90D-01 WtEn= 1.01D-02
 Coeff-Com: -0.817D-03 0.115D-01 0.927D-01 0.376D+00 0.521D+00
 Coeff-En:   0.000D+00 0.000D+00 0.000D+00 0.357D-02 0.996D+00
 Coeff:     -0.809D-03 0.114D-01 0.918D-01 0.372D+00 0.526D+00
 Gap=     0.385 Goal=   None    Shift=    0.000
 RMSDP=7.84D-05 MaxDP=2.16D-03 DE=-5.84D-04 OVMax= 3.79D-03

 Cycle   6  Pass 1  IDiag  1:
 E= -271.428882744338     Delta-E=       -0.000082269320 Rises=F Damp=F
 DIIS: error= 2.62D-04 at cycle   6 NSaved=   6.
 NSaved= 6 IEnMin= 6 EnMin= -271.428882744338     IErMin= 6 ErrMin= 2.62D-04
 ErrMax= 2.62D-04  0.00D+00 EMaxC= 1.00D-01 BMatC= 6.50D-06 BMatP= 1.02D-04
 IDIUse=3 WtCom= 9.97D-01 WtEn= 2.62D-03
 Coeff-Com: -0.351D-03-0.571D-02-0.885D-02 0.443D-01 0.223D+00 0.747D+00
 Coeff-En:   0.000D+00 0.000D+00 0.000D+00 0.000D+00 0.000D+00 0.100D+01
 Coeff:     -0.350D-03-0.569D-02-0.883D-02 0.442D-01 0.223D+00 0.748D+00
 Gap=     0.386 Goal=   None    Shift=    0.000
 RMSDP=4.18D-05 MaxDP=1.74D-03 DE=-8.23D-05 OVMax= 7.21D-04

 Cycle   7  Pass 1  IDiag  1:
 E= -271.428888720701     Delta-E=       -0.000005976363 Rises=F Damp=F
 DIIS: error= 4.13D-05 at cycle   7 NSaved=   7.
 NSaved= 7 IEnMin= 7 EnMin= -271.428888720701     IErMin= 7 ErrMin= 4.13D-05
 ErrMax= 4.13D-05  0.00D+00 EMaxC= 1.00D-01 BMatC= 2.13D-07 BMatP= 6.50D-06
 IDIUse=1 WtCom= 1.00D+00 WtEn= 0.00D+00
 Coeff-Com:  0.702D-05-0.238D-02-0.839D-02-0.156D-01 0.209D-01 0.186D+00
 Coeff-Com:  0.820D+00
 Coeff:      0.702D-05-0.238D-02-0.839D-02-0.156D-01 0.209D-01 0.186D+00
 Coeff:      0.820D+00
 Gap=     0.386 Goal=   None    Shift=    0.000
 RMSDP=9.70D-06 MaxDP=3.68D-04 DE=-5.98D-06 OVMax= 1.46D-04

 Cycle   8  Pass 1  IDiag  1:
 E= -271.428888981137     Delta-E=       -0.000000260436 Rises=F Damp=F
 DIIS: error= 9.92D-06 at cycle   8 NSaved=   8.
 NSaved= 8 IEnMin= 8 EnMin= -271.428888981137     IErMin= 8 ErrMin= 9.92D-06
 ErrMax= 9.92D-06  0.00D+00 EMaxC= 1.00D-01 BMatC= 1.47D-08 BMatP= 2.13D-07
 IDIUse=1 WtCom= 1.00D+00 WtEn= 0.00D+00
 Coeff-Com: -0.229D-05-0.989D-04-0.105D-02-0.706D-02-0.140D-01-0.182D-01
 Coeff-Com:  0.190D+00 0.850D+00
 Coeff:     -0.229D-05-0.989D-04-0.105D-02-0.706D-02-0.140D-01-0.182D-01
 Coeff:      0.190D+00 0.850D+00
 Gap=     0.385 Goal=   None    Shift=    0.000
 RMSDP=2.84D-06 MaxDP=1.09D-04 DE=-2.60D-07 OVMax= 4.24D-05

 Cycle   9  Pass 1  IDiag  1:
 E= -271.428889002217     Delta-E=       -0.000000021080 Rises=F Damp=F
 DIIS: error= 1.99D-06 at cycle   9 NSaved=   9.
 NSaved= 9 IEnMin= 9 EnMin= -271.428889002217     IErMin= 9 ErrMin= 1.99D-06
 ErrMax= 1.99D-06  0.00D+00 EMaxC= 1.00D-01 BMatC= 4.97D-10 BMatP= 1.47D-08
 IDIUse=1 WtCom= 1.00D+00 WtEn= 0.00D+00
 Coeff-Com:  0.518D-06 0.110D-03 0.307D-03 0.155D-04-0.270D-02-0.112D-01
 Coeff-Com: -0.261D-01 0.787D-01 0.961D+00
 Coeff:      0.518D-06 0.110D-03 0.307D-03 0.155D-04-0.270D-02-0.112D-01
 Coeff:     -0.261D-01 0.787D-01 0.961D+00
 Gap=     0.385 Goal=   None    Shift=    0.000
 RMSDP=5.27D-07 MaxDP=1.12D-05 DE=-2.11D-08 OVMax= 1.37D-05

 Cycle  10  Pass 1  IDiag  1:
 E= -271.428889003378     Delta-E=       -0.000000001161 Rises=F Damp=F
 DIIS: error= 7.52D-07 at cycle  10 NSaved=  10.
 NSaved=10 IEnMin=10 EnMin= -271.428889003378     IErMin=10 ErrMin= 7.52D-07
 ErrMax= 7.52D-07  0.00D+00 EMaxC= 1.00D-01 BMatC= 4.51D-11 BMatP= 4.97D-10
 IDIUse=1 WtCom= 1.00D+00 WtEn= 0.00D+00
 Coeff-Com:  0.141D-05 0.287D-04 0.110D-03 0.342D-03 0.161D-03-0.104D-02
 Coeff-Com: -0.129D-01-0.283D-01 0.130D+00 0.912D+00
 Coeff:      0.141D-05 0.287D-04 0.110D-03 0.342D-03 0.161D-03-0.104D-02
 Coeff:     -0.129D-01-0.283D-01 0.130D+00 0.912D+00
 Gap=     0.385 Goal=   None    Shift=    0.000
 RMSDP=1.50D-07 MaxDP=3.21D-06 DE=-1.16D-09 OVMax= 5.65D-06

 Cycle  11  Pass 1  IDiag  1:
 E= -271.428889003493     Delta-E=       -0.000000000115 Rises=F Damp=F
 DIIS: error= 2.72D-07 at cycle  11 NSaved=  11.
 NSaved=11 IEnMin=11 EnMin= -271.428889003493     IErMin=11 ErrMin= 2.72D-07
 ErrMax= 2.72D-07  0.00D+00 EMaxC= 1.00D-01 BMatC= 5.51D-12 BMatP= 4.51D-11
 IDIUse=1 WtCom= 1.00D+00 WtEn= 0.00D+00
 Coeff-Com:  0.744D-07-0.622D-05-0.145D-04 0.253D-04 0.226D-03 0.867D-03
 Coeff-Com:  0.125D-02-0.931D-02-0.869D-01 0.986D-01 0.995D+00
 Coeff:      0.744D-07-0.622D-05-0.145D-04 0.253D-04 0.226D-03 0.867D-03
 Coeff:      0.125D-02-0.931D-02-0.869D-01 0.986D-01 0.995D+00
 Gap=     0.385 Goal=   None    Shift=    0.000
 RMSDP=5.08D-08 MaxDP=1.45D-06 DE=-1.15D-10 OVMax= 2.70D-06

 Cycle  12  Pass 1  IDiag  1:
 E= -271.428889003513     Delta-E=       -0.000000000020 Rises=F Damp=F
 DIIS: error= 1.00D-07 at cycle  12 NSaved=  12.
 NSaved=12 IEnMin=12 EnMin= -271.428889003513     IErMin=12 ErrMin= 1.00D-07
 ErrMax= 1.00D-07  0.00D+00 EMaxC= 1.00D-01 BMatC= 4.00D-13 BMatP= 5.51D-12
 IDIUse=1 WtCom= 1.00D+00 WtEn= 0.00D+00
 Coeff-Com: -0.157D-06-0.201D-05-0.671D-05-0.256D-04-0.227D-04 0.228D-04
 Coeff-Com:  0.733D-03 0.294D-02-0.181D-02-0.969D-01-0.109D+00 0.120D+01
 Coeff:     -0.157D-06-0.201D-05-0.671D-05-0.256D-04-0.227D-04 0.228D-04
 Coeff:      0.733D-03 0.294D-02-0.181D-02-0.969D-01-0.109D+00 0.120D+01
 Gap=     0.385 Goal=   None    Shift=    0.000
 RMSDP=1.92D-08 MaxDP=5.23D-07 DE=-2.00D-11 OVMax= 1.10D-06

 Cycle  13  Pass 1  IDiag  1:
 E= -271.428889003517     Delta-E=       -0.000000000003 Rises=F Damp=F
 DIIS: error= 1.48D-08 at cycle  13 NSaved=  13.
 NSaved=13 IEnMin=13 EnMin= -271.428889003517     IErMin=13 ErrMin= 1.48D-08
 ErrMax= 1.48D-08  0.00D+00 EMaxC= 1.00D-01 BMatC= 3.30D-14 BMatP= 4.00D-13
 IDIUse=1 WtCom= 1.00D+00 WtEn= 0.00D+00
 Coeff-Com: -0.443D-07-0.263D-06-0.124D-05-0.535D-05-0.893D-05-0.243D-04
 Coeff-Com:  0.889D-04 0.990D-03 0.377D-02-0.230D-01-0.680D-01 0.231D+00
 Coeff-Com:  0.855D+00
 Coeff:     -0.443D-07-0.263D-06-0.124D-05-0.535D-05-0.893D-05-0.243D-04
 Coeff:      0.889D-04 0.990D-03 0.377D-02-0.230D-01-0.680D-01 0.231D+00
 Coeff:      0.855D+00
 Gap=     0.385 Goal=   None    Shift=    0.000
 RMSDP=2.99D-09 MaxDP=6.25D-08 DE=-3.41D-12 OVMax= 1.51D-07

 SCF Done:  E(RwB97XD) =  -271.428889004     A.U. after   13 cycles
            NFock= 13  Conv=0.30D-08     -V/T= 2.0059
 KE= 2.698383871001D+02 PE=-1.024111475354D+03 EE= 2.824385538847D+02
 Leave Link  502 at Thu Aug  7 18:43:56 2025, MaxMem=   104857600 cpu:               8.3 elap:               8.4
 (Enter /Applications/g16/l601.exe)
 Copying SCF densities to generalized density rwf, IOpCl= 0 IROHF=0.

 **********************************************************************

            Population analysis using the SCF Density.

 **********************************************************************

 Orbital symmetries:
       Occupied  (A) (A) (A) (A) (A) (A) (A) (A) (A) (A) (A) (A)
                 (A) (A) (A) (A) (A) (A) (A) (A) (A) (A)
       Virtual   (A) (A) (A) (A) (A) (A) (A) (A) (A) (A) (A) (A)
                 (A) (A) (A) (A) (A) (A) (A) (A) (A) (A) (A) (A)
                 (A) (A) (A) (A) (A) (A) (A) (A) (A) (A) (A) (A)
                 (A) (A) (A) (A) (A) (A) (A) (A) (A) (A) (A) (A)
                 (A) (A) (A) (A) (A) (A) (A) (A) (A) (A) (A) (A)
                 (A) (A) (A) (A) (A) (A) (A) (A) (A) (A) (A) (A)
                 (A) (A) (A) (A) (A) (A) (A) (A) (A) (A) (A) (A)
                 (A) (A) (A) (A) (A) (A) (A)
 The electronic state is 1-A.
 Alpha  occ. eigenvalues --  -14.66527 -14.58528 -10.60719 -10.54504 -10.52122
 Alpha  occ. eigenvalues --  -10.47099  -2.31641  -1.25456  -1.14178  -1.10583
 Alpha  occ. eigenvalues --   -0.98860  -0.81856  -0.77243  -0.76394  -0.73101
 Alpha  occ. eigenvalues --   -0.70477  -0.69034  -0.65499  -0.64224  -0.57031
 Alpha  occ. eigenvalues --   -0.54415  -0.54016
 Alpha virt. eigenvalues --   -0.15466  -0.14894  -0.13387  -0.07338  -0.06388
 Alpha virt. eigenvalues --   -0.06256  -0.01905  -0.01231   0.03959   0.04506
 Alpha virt. eigenvalues --    0.04869   0.05645   0.08254   0.10201   0.10219
 Alpha virt. eigenvalues --    0.12295   0.14036   0.14323   0.25021   0.27424
 Alpha virt. eigenvalues --    0.33297   0.35516   0.35531   0.38904   0.41729
 Alpha virt. eigenvalues --    0.46172   0.46948   0.47945   0.53313   0.53491
 Alpha virt. eigenvalues --    0.54482   0.60324   0.60805   0.63766   0.65820
 Alpha virt. eigenvalues --    0.69623   0.73746   0.76316   0.76712   0.77097
 Alpha virt. eigenvalues --    0.80734   0.83356   0.85431   0.88373   0.92051
 Alpha virt. eigenvalues --    0.93148   0.96658   0.99193   1.02273   1.09282
 Alpha virt. eigenvalues --    1.23729   1.28425   1.29544   1.31112   1.37252
 Alpha virt. eigenvalues --    1.38394   1.41838   1.44882   1.47147   1.50405
 Alpha virt. eigenvalues --    1.60938   1.65572   1.68273   1.76063   1.76303
 Alpha virt. eigenvalues --    1.81168   1.85423   1.87345   1.88546   1.90860
 Alpha virt. eigenvalues --    1.93606   1.96927   2.12192   2.12224   2.16171
 Alpha virt. eigenvalues --    2.25096   2.34568   2.57088   2.64529   2.69719
 Alpha virt. eigenvalues --    2.71963   2.75575   2.78612   3.08589   3.22147
 Alpha virt. eigenvalues --    3.99131   4.02369   4.08883   4.16609   4.45777
 Alpha virt. eigenvalues --    4.67610
          Condensed to atoms (all electrons):
               1          2          3          4          5          6
     1  N    6.621737   0.853757  -0.080769  -0.000687  -0.000043  -0.000000
     2  C    0.853757   4.604975   0.277191  -0.036755   0.003038  -0.000049
     3  C   -0.080769   0.277191   5.233015   0.292959  -0.028767  -0.000454
     4  C   -0.000687  -0.036755   0.292959   5.360028   0.271918  -0.112955
     5  C   -0.000043   0.003038  -0.028767   0.271918   5.346280  -0.172920
     6  N   -0.000000  -0.000049  -0.000454  -0.112955  -0.172920   7.579583
     7  H    0.000326  -0.001728  -0.024958   0.369360  -0.030111  -0.000759
     8  H    0.000326  -0.001729  -0.024957   0.369345  -0.030102  -0.000757
     9  H   -0.000553  -0.026712   0.377313  -0.033029  -0.003104   0.000417
    10  H   -0.000552  -0.026710   0.377310  -0.033027  -0.003106   0.000417
    11  Li  -0.000018   0.000058   0.000766  -0.011905  -0.231722   0.453032
               7          8          9         10         11
     1  N    0.000326   0.000326  -0.000553  -0.000552  -0.000018
     2  C   -0.001728  -0.001729  -0.026712  -0.026710   0.000058
     3  C   -0.024958  -0.024957   0.377313   0.377310   0.000766
     4  C    0.369360   0.369345  -0.033029  -0.033027  -0.011905
     5  C   -0.030111  -0.030102  -0.003104  -0.003106  -0.231722
     6  N   -0.000759  -0.000757   0.000417   0.000417   0.453032
     7  H    0.396215  -0.015620  -0.002178   0.002590   0.000363
     8  H   -0.015620   0.396217   0.002590  -0.002177   0.000361
     9  H   -0.002178   0.002590   0.435585  -0.019973   0.000470
    10  H    0.002590  -0.002177  -0.019973   0.435584   0.000470
    11  Li   0.000363   0.000361   0.000470   0.000470   2.199800
 Mulliken charges:
               1
     1  N   -0.393525
     2  C    0.354664
     3  C   -0.398649
     4  C   -0.435253
     5  C    0.878638
     6  N   -0.745553
     7  H    0.306500
     8  H    0.306503
     9  H    0.269174
    10  H    0.269176
    11  Li   0.588325
 Sum of Mulliken charges =   1.00000
 Mulliken charges with hydrogens summed into heavy atoms:
               1
     1  N   -0.393525
     2  C    0.354664
     3  C    0.139701
     4  C    0.177751
     5  C    0.878638
     6  N   -0.745553
    11  Li   0.588325
 Electronic spatial extent (au):  <R**2>=            876.2961
 Charge=              1.0000 electrons
 Dipole moment (field-independent basis, Debye):
    X=            -14.5660    Y=              1.1273    Z=             -0.0004  Tot=             14.6096
 Quadrupole moment (field-independent basis, Debye-Ang):
   XX=              6.7745   YY=            -30.4617   ZZ=            -32.3087
   XY=             -2.6968   XZ=              0.0039   YZ=             -0.0005
 Traceless Quadrupole moment (field-independent basis, Debye-Ang):
   XX=             25.4398   YY=            -11.7964   ZZ=            -13.6434
   XY=             -2.6968   XZ=              0.0039   YZ=             -0.0005
 Octapole moment (field-independent basis, Debye-Ang**2):
  XXX=           -290.4614  YYY=              0.9115  ZZZ=             -0.0005  XYY=             -7.2098
  XXY=             28.4180  XXZ=             -0.0061  XZZ=             -5.1310  YZZ=              0.0508
  YYZ=             -0.0002  XYZ=              0.0003
 Hexadecapole moment (field-independent basis, Debye-Ang**3):
 XXXX=           -140.5285 YYYY=            -78.6903 ZZZZ=            -41.7075 XXXY=            -83.4513
 XXXZ=              0.0800 YYYX=             -5.3309 YYYZ=              0.0004 ZZZX=              0.0322
 ZZZY=              0.0001 XXYY=           -164.0237 XXZZ=           -166.1233 YYZZ=            -16.4556
 XXYZ=             -0.0035 YYXZ=              0.0111 ZZXY=             -1.2604
 N-N= 2.004056453654D+02 E-N=-1.024111475059D+03  KE= 2.698383871001D+02
 No NMR shielding tensors so no spin-rotation constants.
 Leave Link  601 at Thu Aug  7 18:43:56 2025, MaxMem=   104857600 cpu:               0.0 elap:               0.0
 (Enter /Applications/g16/l701.exe)
 ... and contract with generalized density number  0.
 Compute integral first derivatives.
 R6Disp: Adding Grimme-D2 dispersion energy 1st derivatives to the gradient.
 Leave Link  701 at Thu Aug  7 18:43:56 2025, MaxMem=   104857600 cpu:               0.0 elap:               0.0
 (Enter /Applications/g16/l702.exe)
 L702 exits ... SP integral derivatives will be done elsewhere.
 Leave Link  702 at Thu Aug  7 18:43:56 2025, MaxMem=   104857600 cpu:               0.0 elap:               0.0
 (Enter /Applications/g16/l703.exe)
 Integral derivatives from FoFJK, PRISM(SPDF).
 Compute integral first derivatives, UseDBF=F ICtDFT=           0.
 Calling FoFJK, ICntrl=      2127 FMM=F ISym2X=0 I1Cent= 0 IOpClX= 0 NMat=1 NMatS=1 NMatT=0.
 FoFJK:  IHMeth= 1 ICntrl=    2127 DoSepK=T KAlg= 0 I1Cent=           0 FoldK=F
 IRaf=         1 NMat=       1 IRICut=       1 DoRegI=T DoRafI=F ISym2E= 0 IDoP0=0 IntGTp=1.
 FoFCou: FMM=F IPFlag=           0 FMFlag=      100000 FMFlg1=         800
         NFxFlg=           0 DoJE=F BraDBF=F KetDBF=F FulRan=T
         wScrn=  0.000000 ICntrl=      2527 IOpCl=  0 I1Cent=           0 NGrid=           0
         NMat0=    1 NMatS0=      1 NMatT0=    0 NMatD0=    1 NMtDS0=    0 NMtDT0=    0
 Symmetry not used in FoFCou.
 Leave Link  703 at Thu Aug  7 18:43:58 2025, MaxMem=   104857600 cpu:               2.5 elap:               2.6
 (Enter /Applications/g16/l716.exe)
 Dipole        =-5.73072117D+00 4.43508938D-01-1.46005245D-04
 ***** Axes restored to original set *****
 -------------------------------------------------------------------
 Center     Atomic                   Forces (Hartrees/Bohr)
 Number     Number              X              Y              Z
 -------------------------------------------------------------------
      1        7          -0.000129137    0.000030386    0.000003017
      2        6          -0.000224535   -0.000293184   -0.000006126
      3        6           0.000347661    0.001117864    0.000002753
      4        6          -0.002148105    0.000723997   -0.000000205
      5        6           0.012242704   -0.003764045    0.000002730
      6        7           0.329918852   -0.072419529    0.000078235
      7        1          -0.000424213   -0.000247372   -0.000370379
      8        1          -0.000423641   -0.000247489    0.000370359
      9        1           0.000003008    0.000007951   -0.000033191
     10        1           0.000001783    0.000008506    0.000033647
     11        3          -0.339164377    0.075082915   -0.000080840
 -------------------------------------------------------------------
 Cartesian Forces:  Max     0.339164377 RMS     0.084375144
 Leave Link  716 at Thu Aug  7 18:43:58 2025, MaxMem=   104857600 cpu:               0.0 elap:               0.0
 (Enter /Applications/g16/l103.exe)

 GradGradGradGradGradGradGradGradGradGradGradGradGradGradGradGradGradGrad
 Berny optimization.
 FormGI is forming the generalized inverse of G from B-inverse, IUseBI=4.
 Internal  Forces:  Max     0.347375568 RMS     0.057133082
 Search for a local minimum.
 Step number   1 out of a maximum of   47
 All quantities printed in internal units (Hartrees-Bohrs-Radians)
 RMS Force = .17095D-02 SwitMx=.10000D-02 MixMth= 1
 Mixed Optimization -- RFO/linear search
 Second derivative matrix not updated -- first step.
 ITU=  0
     Eigenvalues ---    0.00230   0.01265   0.01265   0.04905   0.04905
     Eigenvalues ---    0.05319   0.05645   0.05725   0.05800   0.08705
     Eigenvalues ---    0.08705   0.16000   0.16000   0.16000   0.16000
     Eigenvalues ---    0.22259   0.22339   0.27706   0.34136   0.34136
     Eigenvalues ---    0.34340   0.34340   0.36680   0.37325   1.29707
     Eigenvalues ---    1.305151000.000001000.000001000.000001000.00000
     Eigenvalues --- 1000.000001000.000001000.000001000.000001000.00000
     Eigenvalues --- 1000.000001000.00000
 RFO step:  Lambda=-1.14771064D-04 EMin= 2.30000000D-03
 Linear search not attempted -- first point.
 Iteration  1 RMS(Cart)=  0.00311442 RMS(Int)=  0.00000617
 Iteration  2 RMS(Cart)=  0.00000897 RMS(Int)=  0.00000337
 Iteration  3 RMS(Cart)=  0.00000000 RMS(Int)=  0.00000337
 Iteration  1 RMS(Cart)=  0.00000000 RMS(Int)=  0.00000000
 ITry= 1 IFail=0 DXMaxC= 9.12D-03 DCOld= 1.00D+10 DXMaxT= 3.00D-01 DXLimC= 3.00D+00 Rises=F
 Variable       Old X    -DE/DX   Delta X   Delta X   Delta X     New X
                                 (Linear)    (Quad)   (Total)
    R1        2.18433  -0.00013   0.00000  -0.00010  -0.00010   2.18423
    R2        2.76331  -0.00026   0.00000  -0.00071  -0.00071   2.76260
    R3        2.92785   0.00070   0.00000   0.00253   0.00253   2.93038
    R4        2.06760   0.00003   0.00000   0.00009   0.00009   2.06770
    R5        2.06760   0.00003   0.00000   0.00009   0.00009   2.06770
    R6        2.75359  -0.00318   0.00000  -0.00851  -0.00851   2.74508
    R7        2.07102   0.00037   0.00000   0.00108   0.00108   2.07210
    R8        2.07102   0.00037   0.00000   0.00108   0.00108   2.07210
    R9        2.18661   0.00962   0.00000   0.00741   0.00741   2.19403
   R10        2.45664   0.34738   0.00000   0.00000   0.00000   2.45664
    A1        1.90547  -0.00074   0.00000  -0.00357  -0.00357   1.90189
    A2        1.90488   0.00026   0.00000   0.00067   0.00067   1.90554
    A3        1.90488   0.00026   0.00000   0.00068   0.00068   1.90556
    A4        1.93101   0.00012   0.00000   0.00073   0.00073   1.93174
    A5        1.93101   0.00012   0.00000   0.00073   0.00073   1.93174
    A6        1.88621  -0.00000   0.00000   0.00083   0.00083   1.88705
    A7        1.95454   0.00019   0.00000  -0.00002  -0.00002   1.95452
    A8        1.93484   0.00039   0.00000   0.00304   0.00304   1.93788
    A9        1.93484   0.00039   0.00000   0.00304   0.00304   1.93788
   A10        1.87988  -0.00044   0.00000  -0.00388  -0.00388   1.87600
   A11        1.87986  -0.00044   0.00000  -0.00387  -0.00387   1.87599
   A12        1.87681  -0.00016   0.00000   0.00139   0.00137   1.87818
   A13        3.11400  -0.00002   0.00000  -0.00170  -0.00170   3.11229
   A14        3.13728  -0.00021   0.00000  -0.00425  -0.00425   3.13303
   A15        3.17644   0.00024   0.00000   0.00281   0.00281   3.17925
   A16        3.12689  -0.00001   0.00000  -0.00106  -0.00106   3.12583
   A17        3.13920  -0.00008   0.00000  -0.00154  -0.00154   3.13766
   A18        3.11414  -0.00006   0.00000  -0.00072  -0.00072   3.11341
    D1        3.14159   0.00000   0.00000   0.00003   0.00003  -3.14157
    D2       -1.04154  -0.00016   0.00000  -0.00282  -0.00283  -1.04436
    D3        1.04155   0.00016   0.00000   0.00288   0.00288   1.04444
    D4       -1.04495  -0.00008   0.00000  -0.00097  -0.00097  -1.04592
    D5        1.05511  -0.00023   0.00000  -0.00383  -0.00383   1.05128
    D6        3.13820   0.00008   0.00000   0.00188   0.00188   3.14009
    D7        1.04493   0.00008   0.00000   0.00102   0.00102   1.04595
    D8       -3.13819  -0.00008   0.00000  -0.00184  -0.00184  -3.14003
    D9       -1.05510   0.00023   0.00000   0.00386   0.00387  -1.05123
         Item               Value     Threshold  Converged?
 Maximum Force            0.009618     0.000450     NO 
 RMS     Force            0.001710     0.000300     NO 
 Maximum Displacement     0.009124     0.001800     NO 
 RMS     Displacement     0.003116     0.001200     NO 
 Predicted change in Energy=-5.741356D-05
 Lowest energy point so far.  Saving SCF results.
 GradGradGradGradGradGradGradGradGradGradGradGradGradGradGradGradGradGrad

 Leave Link  103 at Thu Aug  7 18:43:58 2025, MaxMem=   104857600 cpu:               0.0 elap:               0.0
 (Enter /Applications/g16/l202.exe)
                          Input orientation:                          
 ---------------------------------------------------------------------
 Center     Atomic      Atomic             Coordinates (Angstroms)
 Number     Number       Type             X           Y           Z
 ---------------------------------------------------------------------
      1          7           0        3.258453   -0.181230    0.000380
      2          6           0        2.166736    0.198418    0.000096
      3          6           0        0.771289    0.634185   -0.000156
      4          6           0       -0.147022   -0.615353   -0.000193
      5          6           0       -1.554478   -0.255887   -0.000478
      6          7           0       -2.676740    0.041630    0.000032
      7          1           0        0.034438   -1.237059   -0.884997
      8          1           0        0.034111   -1.236872    0.884810
      9          1           0        0.586930    1.249248   -0.886121
     10          1           0        0.586639    1.249406    0.885638
     11          3           0       -3.945992    0.322695    0.001051
 ---------------------------------------------------------------------
                    Distance matrix (angstroms):
                    1          2          3          4          5
     1  N    0.000000
     2  C    1.155845   0.000000
     3  C    2.617420   1.461905   0.000000
     4  C    3.433034   2.452693   1.550691   0.000000
     5  C    4.813510   3.748844   2.490265   1.452635   0.000000
     6  N    5.939376   4.846013   3.498575   2.613637   1.161029
     7  H    3.506129   2.718580   2.197145   1.096506   2.066332
     8  H    3.506135   2.718616   2.197147   1.096506   2.066321
     9  H    3.157402   2.094138   1.094177   2.190957   2.763227
    10  H    3.157371   2.094150   1.094177   2.190955   2.763239
    11  Li   7.222048   6.113992   4.727554   3.913069   2.460508
                    6          7          8          9         10
     6  N    0.000000
     7  H    3.125510   0.000000
     8  H    3.125078   1.769808   0.000000
     9  H    3.590982   2.546953   3.102032   0.000000
    10  H    3.590636   3.102029   2.546934   1.771759   0.000000
    11  Li   1.300000   4.365976   4.365146   4.710940   4.710206
                   11
    11  Li   0.000000
 Stoichiometry    C4H4LiN2(1+)
 Framework group  C1[X(C4H4LiN2)]
 Deg. of freedom    27
 Full point group                 C1      NOp   1
 RotChk:  IX=2 Diff= 1.07D-04
 Largest Abelian subgroup         C1      NOp   1
 Largest concise Abelian subgroup C1      NOp   1
                         Standard orientation:                         
 ---------------------------------------------------------------------
 Center     Atomic      Atomic             Coordinates (Angstroms)
 Number     Number       Type             X           Y           Z
 ---------------------------------------------------------------------
      1          7           0        3.237575   -0.193633    0.000358
      2          6           0        2.147891    0.191812    0.000074
      3          6           0        0.754779    0.634988   -0.000178
      4          6           0       -0.170159   -0.609653   -0.000215
      5          6           0       -1.575685   -0.242713   -0.000500
      6          7           0       -2.696350    0.060764    0.000010
      7          1           0        0.007995   -1.232314   -0.885019
      8          1           0        0.007668   -1.232126    0.884788
      9          1           0        0.573690    1.251022   -0.886143
     10          1           0        0.573401    1.251182    0.885616
     11          3           0       -3.964091    0.348570    0.001029
 ---------------------------------------------------------------------
 Rotational constants (GHZ):          23.8017818           1.1114400           1.0761471
 Leave Link  202 at Thu Aug  7 18:43:58 2025, MaxMem=   104857600 cpu:               0.0 elap:               0.0
 (Enter /Applications/g16/l301.exe)
 Standard basis: 6-31G(d) (6D, 7F)
 Ernie: Thresh=  0.10000D-02 Tol=  0.10000D-05 Strict=F.
 There are   113 symmetry adapted cartesian basis functions of A   symmetry.
 There are   113 symmetry adapted basis functions of A   symmetry.
   113 basis functions,   212 primitive gaussians,   113 cartesian basis functions
    22 alpha electrons       22 beta electrons
       nuclear repulsion energy       200.4286985301 Hartrees.
 IExCor= 4639 DFT=T Ex+Corr=wB97XD ExCW=0 ScaHFX=  1.000000
 ScaDFX=  1.000000  1.000000  1.000000  1.000000 ScalE2=  1.000000  1.000000
 IRadAn=      5 IRanWt=     -1 IRanGd=            0 ICorTp=0 IEmpDi=121
 HFx  wShort=  0.000000 wLong=  0.200000 cFull=  0.222036 cShort=  0.000000 cLong=  0.777964
 DFx  wShort=  0.000000 wLong=  0.200000 cFull=  0.000000 cShort=  0.000000 cLong=  1.000000
 NAtoms=   11 NActive=   11 NUniq=   11 SFac= 1.00D+00 NAtFMM=   60 NAOKFM=F Big=F
 Integral buffers will be    131072 words long.
 Raffenetti 2 integral format.
 Two-electron integral symmetry is turned on.
 R6Disp:  Grimme-D2 Dispersion energy=       -0.0048167777 Hartrees.
 Nuclear repulsion after empirical dispersion term =      200.4238817525 Hartrees.
 Leave Link  301 at Thu Aug  7 18:43:58 2025, MaxMem=   104857600 cpu:               0.0 elap:               0.0
 (Enter /Applications/g16/l302.exe)
 NPDir=0 NMtPBC=     1 NCelOv=     1 NCel=       1 NClECP=     1 NCelD=      1
         NCelK=      1 NCelE2=     1 NClLst=     1 CellRange=     0.0.
 One-electron integrals computed using PRISM.
 One-electron integral symmetry used in STVInt
 NBasis=   113 RedAO= T EigKep=  7.81D-04  NBF=   113
 NBsUse=   113 1.00D-06 EigRej= -1.00D+00 NBFU=   113
 Precomputing XC quadrature grid using
 IXCGrd= 4 IRadAn=           5 IRanWt=          -1 IRanGd=           0 AccXCQ= 0.00D+00.
 Generated NRdTot=       0 NPtTot=           0 NUsed=           0 NTot=          32
 NSgBfM=   113   113   113   113   113 MxSgAt=    11 MxSgA2=    11.
 Leave Link  302 at Thu Aug  7 18:43:59 2025, MaxMem=   104857600 cpu:               0.1 elap:               0.1
 (Enter /Applications/g16/l303.exe)
 DipDrv:  MaxL=1.
 Leave Link  303 at Thu Aug  7 18:43:59 2025, MaxMem=   104857600 cpu:               0.0 elap:               0.0
 (Enter /Applications/g16/l401.exe)
 Initial guess from the checkpoint file:  "/Users/srak/g16_scratch/Gau-74209.chk"
 B after Tr=     0.000000    0.000000    0.000000
         Rot=    1.000000   -0.000039    0.000031   -0.000021 Ang=  -0.01 deg.
 Guess basis will be translated and rotated to current coordinates.
 JPrj=2 DoOrth=T DoCkMO=T.
 Leave Link  401 at Thu Aug  7 18:43:59 2025, MaxMem=   104857600 cpu:               0.0 elap:               0.0
 (Enter /Applications/g16/l502.exe)
 Keep R1 ints in memory in canonical form, NReq=43174005.
 FoFCou: FMM=F IPFlag=           0 FMFlag=           0 FMFlg1=           0
         NFxFlg=           0 DoJE=F BraDBF=F KetDBF=F FulRan=T
         wScrn=  0.000000 ICntrl=       600 IOpCl=  0 I1Cent=           0 NGrid=           0
         NMat0=    1 NMatS0=   6441 NMatT0=    0 NMatD0=    1 NMtDS0=    0 NMtDT0=    0
 Symmetry not used in FoFCou.
 Two-electron integral symmetry not used.
 Closed shell SCF:
 Using DIIS extrapolation, IDIIS=  1040.
 NGot=   104857600 LenX=    63336875 LenY=    63323665
 Requested convergence on RMS density matrix=1.00D-08 within 128 cycles.
 Requested convergence on MAX density matrix=1.00D-06.
 Requested convergence on             energy=1.00D-06.
 No special actions if energy rises.

 Cycle   1  Pass 1  IDiag  1:
 E= -271.428912541812    
 DIIS: error= 2.57D-04 at cycle   1 NSaved=   1.
 NSaved= 1 IEnMin= 1 EnMin= -271.428912541812     IErMin= 1 ErrMin= 2.57D-04
 ErrMax= 2.57D-04  0.00D+00 EMaxC= 1.00D-01 BMatC= 2.32D-05 BMatP= 2.32D-05
 IDIUse=3 WtCom= 9.97D-01 WtEn= 2.57D-03
 Coeff-Com:  0.100D+01
 Coeff-En:   0.100D+01
 Coeff:      0.100D+01
 Gap=     1.154 Goal=   None    Shift=    0.000
 RMSDP=1.16D-04 MaxDP=4.32D-03              OVMax= 1.23D-03

 Cycle   2  Pass 1  IDiag  1:
 E= -271.428944935147     Delta-E=       -0.000032393335 Rises=F Damp=F
 DIIS: error= 1.10D-04 at cycle   2 NSaved=   2.
 NSaved= 2 IEnMin= 2 EnMin= -271.428944935147     IErMin= 2 ErrMin= 1.10D-04
 ErrMax= 1.10D-04  0.00D+00 EMaxC= 1.00D-01 BMatC= 1.71D-06 BMatP= 2.32D-05
 IDIUse=3 WtCom= 9.99D-01 WtEn= 1.10D-03
 Coeff-Com:  0.429D-01 0.957D+00
 Coeff-En:   0.000D+00 0.100D+01
 Coeff:      0.428D-01 0.957D+00
 Gap=     0.385 Goal=   None    Shift=    0.000
 RMSDP=1.86D-05 MaxDP=3.58D-04 DE=-3.24D-05 OVMax= 5.09D-04

 Cycle   3  Pass 1  IDiag  1:
 E= -271.428946505512     Delta-E=       -0.000001570365 Rises=F Damp=F
 DIIS: error= 6.83D-05 at cycle   3 NSaved=   3.
 NSaved= 3 IEnMin= 3 EnMin= -271.428946505512     IErMin= 3 ErrMin= 6.83D-05
 ErrMax= 6.83D-05  0.00D+00 EMaxC= 1.00D-01 BMatC= 7.02D-07 BMatP= 1.71D-06
 IDIUse=1 WtCom= 1.00D+00 WtEn= 0.00D+00
 Coeff-Com: -0.440D-01 0.355D+00 0.689D+00
 Coeff:     -0.440D-01 0.355D+00 0.689D+00
 Gap=     0.385 Goal=   None    Shift=    0.000
 RMSDP=8.78D-06 MaxDP=2.52D-04 DE=-1.57D-06 OVMax= 2.90D-04

 Cycle   4  Pass 1  IDiag  1:
 E= -271.428946964906     Delta-E=       -0.000000459394 Rises=F Damp=F
 DIIS: error= 4.79D-05 at cycle   4 NSaved=   4.
 NSaved= 4 IEnMin= 4 EnMin= -271.428946964906     IErMin= 4 ErrMin= 4.79D-05
 ErrMax= 4.79D-05  0.00D+00 EMaxC= 1.00D-01 BMatC= 2.53D-07 BMatP= 7.02D-07
 IDIUse=1 WtCom= 1.00D+00 WtEn= 0.00D+00
 Coeff-Com: -0.270D-01 0.516D-01 0.400D+00 0.575D+00
 Coeff:     -0.270D-01 0.516D-01 0.400D+00 0.575D+00
 Gap=     0.385 Goal=   None    Shift=    0.000
 RMSDP=3.60D-06 MaxDP=9.60D-05 DE=-4.59D-07 OVMax= 1.51D-04

 Cycle   5  Pass 1  IDiag  1:
 E= -271.428947188752     Delta-E=       -0.000000223846 Rises=F Damp=F
 DIIS: error= 6.98D-06 at cycle   5 NSaved=   5.
 NSaved= 5 IEnMin= 5 EnMin= -271.428947188752     IErMin= 5 ErrMin= 6.98D-06
 ErrMax= 6.98D-06  0.00D+00 EMaxC= 1.00D-01 BMatC= 7.43D-09 BMatP= 2.53D-07
 IDIUse=1 WtCom= 1.00D+00 WtEn= 0.00D+00
 Coeff-Com: -0.285D-02-0.218D-01 0.427D-01 0.165D+00 0.817D+00
 Coeff:     -0.285D-02-0.218D-01 0.427D-01 0.165D+00 0.817D+00
 Gap=     0.385 Goal=   None    Shift=    0.000
 RMSDP=1.03D-06 MaxDP=1.94D-05 DE=-2.24D-07 OVMax= 3.96D-05

 Cycle   6  Pass 1  IDiag  1:
 E= -271.428947198797     Delta-E=       -0.000000010045 Rises=F Damp=F
 DIIS: error= 2.12D-06 at cycle   6 NSaved=   6.
 NSaved= 6 IEnMin= 6 EnMin= -271.428947198797     IErMin= 6 ErrMin= 2.12D-06
 ErrMax= 2.12D-06  0.00D+00 EMaxC= 1.00D-01 BMatC= 8.31D-10 BMatP= 7.43D-09
 IDIUse=1 WtCom= 1.00D+00 WtEn= 0.00D+00
 Coeff-Com:  0.252D-02-0.135D-01-0.404D-01-0.244D-01 0.228D+00 0.848D+00
 Coeff:      0.252D-02-0.135D-01-0.404D-01-0.244D-01 0.228D+00 0.848D+00
 Gap=     0.385 Goal=   None    Shift=    0.000
 RMSDP=4.92D-07 MaxDP=1.03D-05 DE=-1.00D-08 OVMax= 1.95D-05

 Cycle   7  Pass 1  IDiag  1:
 E= -271.428947199862     Delta-E=       -0.000000001065 Rises=F Damp=F
 DIIS: error= 1.83D-06 at cycle   7 NSaved=   7.
 NSaved= 7 IEnMin= 7 EnMin= -271.428947199862     IErMin= 7 ErrMin= 1.83D-06
 ErrMax= 1.83D-06  0.00D+00 EMaxC= 1.00D-01 BMatC= 3.32D-10 BMatP= 8.31D-10
 IDIUse=1 WtCom= 1.00D+00 WtEn= 0.00D+00
 Coeff-Com:  0.173D-02-0.541D-02-0.279D-01-0.318D-01 0.480D-01 0.486D+00
 Coeff-Com:  0.529D+00
 Coeff:      0.173D-02-0.541D-02-0.279D-01-0.318D-01 0.480D-01 0.486D+00
 Coeff:      0.529D+00
 Gap=     0.385 Goal=   None    Shift=    0.000
 RMSDP=1.66D-07 MaxDP=3.99D-06 DE=-1.07D-09 OVMax= 6.72D-06

 Cycle   8  Pass 1  IDiag  1:
 E= -271.428947200153     Delta-E=       -0.000000000291 Rises=F Damp=F
 DIIS: error= 4.19D-07 at cycle   8 NSaved=   8.
 NSaved= 8 IEnMin= 8 EnMin= -271.428947200153     IErMin= 8 ErrMin= 4.19D-07
 ErrMax= 4.19D-07  0.00D+00 EMaxC= 1.00D-01 BMatC= 2.22D-11 BMatP= 3.32D-10
 IDIUse=1 WtCom= 1.00D+00 WtEn= 0.00D+00
 Coeff-Com:  0.360D-03-0.110D-03-0.579D-02-0.104D-01-0.155D-01 0.750D-01
 Coeff-Com:  0.229D+00 0.727D+00
 Coeff:      0.360D-03-0.110D-03-0.579D-02-0.104D-01-0.155D-01 0.750D-01
 Coeff:      0.229D+00 0.727D+00
 Gap=     0.385 Goal=   None    Shift=    0.000
 RMSDP=5.10D-08 MaxDP=1.05D-06 DE=-2.91D-10 OVMax= 1.85D-06

 Cycle   9  Pass 1  IDiag  1:
 E= -271.428947200172     Delta-E=       -0.000000000019 Rises=F Damp=F
 DIIS: error= 6.13D-08 at cycle   9 NSaved=   9.
 NSaved= 9 IEnMin= 9 EnMin= -271.428947200172     IErMin= 9 ErrMin= 6.13D-08
 ErrMax= 6.13D-08  0.00D+00 EMaxC= 1.00D-01 BMatC= 7.64D-13 BMatP= 2.22D-11
 IDIUse=1 WtCom= 1.00D+00 WtEn= 0.00D+00
 Coeff-Com: -0.111D-03 0.575D-03 0.175D-02 0.128D-02-0.778D-02-0.336D-01
 Coeff-Com: -0.103D-01 0.141D+00 0.908D+00
 Coeff:     -0.111D-03 0.575D-03 0.175D-02 0.128D-02-0.778D-02-0.336D-01
 Coeff:     -0.103D-01 0.141D+00 0.908D+00
 Gap=     0.385 Goal=   None    Shift=    0.000
 RMSDP=1.46D-08 MaxDP=1.97D-07 DE=-1.92D-11 OVMax= 5.23D-07

 Cycle  10  Pass 1  IDiag  1:
 E= -271.428947200176     Delta-E=       -0.000000000003 Rises=F Damp=F
 DIIS: error= 1.39D-08 at cycle  10 NSaved=  10.
 NSaved=10 IEnMin=10 EnMin= -271.428947200176     IErMin=10 ErrMin= 1.39D-08
 ErrMax= 1.39D-08  0.00D+00 EMaxC= 1.00D-01 BMatC= 3.35D-14 BMatP= 7.64D-13
 IDIUse=1 WtCom= 1.00D+00 WtEn= 0.00D+00
 Coeff-Com: -0.305D-04 0.834D-04 0.485D-03 0.548D-03-0.492D-03-0.751D-02
 Coeff-Com: -0.107D-01-0.152D-01 0.126D+00 0.907D+00
 Coeff:     -0.305D-04 0.834D-04 0.485D-03 0.548D-03-0.492D-03-0.751D-02
 Coeff:     -0.107D-01-0.152D-01 0.126D+00 0.907D+00
 Gap=     0.385 Goal=   None    Shift=    0.000
 RMSDP=3.36D-09 MaxDP=4.34D-08 DE=-3.41D-12 OVMax= 1.17D-07

 SCF Done:  E(RwB97XD) =  -271.428947200     A.U. after   10 cycles
            NFock= 10  Conv=0.34D-08     -V/T= 2.0059
 KE= 2.698242828712D+02 PE=-1.024133365054D+03 EE= 2.824562532305D+02
 Leave Link  502 at Thu Aug  7 18:44:05 2025, MaxMem=   104857600 cpu:               6.7 elap:               6.8
 (Enter /Applications/g16/l701.exe)
 ... and contract with generalized density number  0.
 Compute integral first derivatives.
 R6Disp: Adding Grimme-D2 dispersion energy 1st derivatives to the gradient.
 Leave Link  701 at Thu Aug  7 18:44:05 2025, MaxMem=   104857600 cpu:               0.0 elap:               0.0
 (Enter /Applications/g16/l702.exe)
 L702 exits ... SP integral derivatives will be done elsewhere.
 Leave Link  702 at Thu Aug  7 18:44:05 2025, MaxMem=   104857600 cpu:               0.0 elap:               0.0
 (Enter /Applications/g16/l703.exe)
 Integral derivatives from FoFJK, PRISM(SPDF).
 Compute integral first derivatives, UseDBF=F ICtDFT=           0.
 Calling FoFJK, ICntrl=      2127 FMM=F ISym2X=0 I1Cent= 0 IOpClX= 0 NMat=1 NMatS=1 NMatT=0.
 FoFJK:  IHMeth= 1 ICntrl=    2127 DoSepK=T KAlg= 0 I1Cent=           0 FoldK=F
 IRaf=         1 NMat=       1 IRICut=       1 DoRegI=T DoRafI=F ISym2E= 0 IDoP0=0 IntGTp=1.
 FoFCou: FMM=F IPFlag=           0 FMFlag=      100000 FMFlg1=         800
         NFxFlg=           0 DoJE=F BraDBF=F KetDBF=F FulRan=T
         wScrn=  0.000000 ICntrl=      2527 IOpCl=  0 I1Cent=           0 NGrid=           0
         NMat0=    1 NMatS0=      1 NMatT0=    0 NMatD0=    1 NMtDS0=    0 NMtDT0=    0
 Symmetry not used in FoFCou.
 Leave Link  703 at Thu Aug  7 18:44:08 2025, MaxMem=   104857600 cpu:               2.8 elap:               2.9
 (Enter /Applications/g16/l716.exe)
 Dipole        =-5.71737684D+00 4.43447052D-01 1.02157162D-03
 ***** Axes restored to original set *****
 -------------------------------------------------------------------
 Center     Atomic                   Forces (Hartrees/Bohr)
 Number     Number              X              Y              Z
 -------------------------------------------------------------------
      1        7           0.000011353    0.000020102   -0.000002651
      2        6           0.000033473   -0.000153148    0.000007055
      3        6           0.000290683    0.000315250   -0.000005765
      4        6          -0.000925511    0.000065394   -0.000037770
      5        6           0.000673608    0.000034718    0.000069351
      6        7           0.338579960   -0.074914230   -0.000300602
      7        1           0.000209831   -0.000068329   -0.000020187
      8        1           0.000197584   -0.000068505    0.000021972
      9        1          -0.000093768   -0.000090856    0.000012566
     10        1          -0.000092050   -0.000091302   -0.000012469
     11        3          -0.338885164    0.074950906    0.000268501
 -------------------------------------------------------------------
 Cartesian Forces:  Max     0.338885164 RMS     0.085406540
 Leave Link  716 at Thu Aug  7 18:44:08 2025, MaxMem=   104857600 cpu:               0.0 elap:               0.0
 (Enter /Applications/g16/l103.exe)

 GradGradGradGradGradGradGradGradGradGradGradGradGradGradGradGradGradGrad
 Berny optimization.
 Using GEDIIS/GDIIS optimizer.
 FormGI is forming the generalized inverse of G from B-inverse, IUseBI=4.
 Internal  Forces:  Max     0.347074531 RMS     0.057058844
 Search for a local minimum.
 Step number   2 out of a maximum of   47
 All quantities printed in internal units (Hartrees-Bohrs-Radians)
 RMS Force = .12913D-03 SwitMx=.10000D-02 MixMth= 2
 Mixed Optimization -- En-DIIS/RFO-DIIS
 Update second derivatives using D2CorX and points    1    2
 DE= -5.82D-05 DEPred=-5.74D-05 R= 1.01D+00
 TightC=F SS=  1.41D+00  RLast= 1.70D-02 DXNew= 5.0454D-01 5.1115D-02
 Trust test= 1.01D+00 RLast= 1.70D-02 DXMaxT set to 3.00D-01
 ITU=  1  0
 Use linear search instead of GDIIS.
     Eigenvalues ---    0.00230   0.01265   0.01267   0.04903   0.04989
     Eigenvalues ---    0.05315   0.05666   0.05783   0.05974   0.08604
     Eigenvalues ---    0.08705   0.15910   0.16000   0.16000   0.16390
     Eigenvalues ---    0.22106   0.22264   0.27590   0.33901   0.34136
     Eigenvalues ---    0.34339   0.34340   0.35793   0.36752   1.26258
     Eigenvalues ---    1.305171000.000001000.000001000.000001000.00000
     Eigenvalues --- 1000.000001000.000001000.000001000.000001000.00000
     Eigenvalues --- 1000.000001000.00000
 RFO step:  Lambda=-5.44722121D-06 EMin= 2.30000280D-03
 Quartic linear search produced a step of  0.01649.
 Iteration  1 RMS(Cart)=  0.00411423 RMS(Int)=  0.00001145
 Iteration  2 RMS(Cart)=  0.00001517 RMS(Int)=  0.00000056
 Iteration  3 RMS(Cart)=  0.00000000 RMS(Int)=  0.00000056
 Iteration  1 RMS(Cart)=  0.00000000 RMS(Int)=  0.00000000
 ITry= 1 IFail=0 DXMaxC= 1.59D-02 DCOld= 1.00D+10 DXMaxT= 3.00D-01 DXLimC= 3.00D+00 Rises=F
 Variable       Old X    -DE/DX   Delta X   Delta X   Delta X     New X
                                 (Linear)    (Quad)   (Total)
    R1        2.18423   0.00000  -0.00000  -0.00000  -0.00000   2.18423
    R2        2.76260   0.00008  -0.00001   0.00020   0.00019   2.76279
    R3        2.93038   0.00009   0.00004   0.00041   0.00045   2.93083
    R4        2.06770  -0.00005   0.00000  -0.00013  -0.00013   2.06757
    R5        2.06770  -0.00005   0.00000  -0.00013  -0.00013   2.06756
    R6        2.74508  -0.00034  -0.00014  -0.00119  -0.00133   2.74375
    R7        2.07210   0.00009   0.00002   0.00030   0.00032   2.07241
    R8        2.07210   0.00009   0.00002   0.00030   0.00032   2.07241
    R9        2.19403   0.00030   0.00012   0.00047   0.00059   2.19462
   R10        2.45664   0.34707   0.00000   0.00000  -0.00000   2.45664
    A1        1.90189  -0.00012  -0.00006  -0.00058  -0.00064   1.90126
    A2        1.90554   0.00013   0.00001   0.00091   0.00093   1.90647
    A3        1.90556   0.00013   0.00001   0.00088   0.00089   1.90645
    A4        1.93174  -0.00012   0.00001  -0.00084  -0.00083   1.93091
    A5        1.93174  -0.00012   0.00001  -0.00085  -0.00084   1.93090
    A6        1.88705   0.00011   0.00001   0.00054   0.00056   1.88760
    A7        1.95452   0.00002  -0.00000   0.00054   0.00054   1.95506
    A8        1.93788  -0.00014   0.00005  -0.00107  -0.00102   1.93686
    A9        1.93788  -0.00013   0.00005  -0.00104  -0.00099   1.93688
   A10        1.87600   0.00013  -0.00006   0.00141   0.00135   1.87735
   A11        1.87599   0.00012  -0.00006   0.00125   0.00119   1.87718
   A12        1.87818   0.00002   0.00002  -0.00102  -0.00100   1.87718
   A13        3.11229   0.00005  -0.00003   0.00360   0.00357   3.11586
   A14        3.13303   0.00033  -0.00007   0.00662   0.00655   3.13958
   A15        3.17925   0.00020   0.00005   0.00242   0.00247   3.18172
   A16        3.12583   0.00002  -0.00002   0.00167   0.00166   3.12749
   A17        3.13766   0.00005  -0.00003   0.00089   0.00087   3.13853
   A18        3.11341  -0.00006  -0.00001  -0.00072  -0.00073   3.11268
    D1       -3.14157  -0.00000   0.00000  -0.00022  -0.00022   3.14140
    D2       -1.04436   0.00008  -0.00005   0.00121   0.00116  -1.04320
    D3        1.04444  -0.00008   0.00005  -0.00147  -0.00142   1.04302
    D4       -1.04592   0.00001  -0.00002   0.00002   0.00000  -1.04591
    D5        1.05128   0.00009  -0.00006   0.00145   0.00139   1.05267
    D6        3.14009  -0.00007   0.00003  -0.00123  -0.00120   3.13889
    D7        1.04595  -0.00001   0.00002  -0.00041  -0.00039   1.04556
    D8       -3.14003   0.00007  -0.00003   0.00102   0.00099  -3.13904
    D9       -1.05123  -0.00009   0.00006  -0.00165  -0.00159  -1.05282
         Item               Value     Threshold  Converged?
 Maximum Force            0.000340     0.000450     YES
 RMS     Force            0.000129     0.000300     YES
 Maximum Displacement     0.015915     0.001800     NO 
 RMS     Displacement     0.004111     0.001200     NO 
 Predicted change in Energy=-2.739958D-06
 Lowest energy point so far.  Saving SCF results.
 GradGradGradGradGradGradGradGradGradGradGradGradGradGradGradGradGradGrad

 Leave Link  103 at Thu Aug  7 18:44:08 2025, MaxMem=   104857600 cpu:               0.0 elap:               0.0
 (Enter /Applications/g16/l202.exe)
                          Input orientation:                          
 ---------------------------------------------------------------------
 Center     Atomic      Atomic             Coordinates (Angstroms)
 Number     Number       Type             X           Y           Z
 ---------------------------------------------------------------------
      1          7           0        3.259350   -0.183858   -0.000270
      2          6           0        2.167331    0.194917   -0.000308
      3          6           0        0.773106    0.634918   -0.000005
      4          6           0       -0.148312   -0.612629    0.000175
      5          6           0       -1.554423   -0.250760    0.000739
      6          7           0       -2.678297    0.041856   -0.000425
      7          1           0        0.032983   -1.234666   -0.884639
      8          1           0        0.033470   -1.234802    0.884794
      9          1           0        0.589098    1.249993   -0.885950
     10          1           0        0.589491    1.249943    0.886055
     11          3           0       -3.949434    0.314273   -0.000106
 ---------------------------------------------------------------------
                    Distance matrix (angstroms):
                    1          2          3          4          5
     1  N    0.000000
     2  C    1.155844   0.000000
     3  C    2.617595   1.462007   0.000000
     4  C    3.434531   2.452414   1.550930   0.000000
     5  C    4.814238   3.748344   2.490345   1.451929   0.000000
     6  N    5.941936   4.848045   3.501986   2.613269   1.161343
     7  H    3.506530   2.716835   2.196749   1.096674   2.066839
     8  H    3.506297   2.716775   2.196766   1.096674   2.066712
     9  H    3.157626   2.094843   1.094109   2.190514   2.762817
    10  H    3.157452   2.094827   1.094108   2.190505   2.762655
    11  Li   7.225974   6.117929   4.733412   3.912502   2.460759
                    6          7          8          9         10
     6  N    0.000000
     7  H    3.124481   0.000000
     8  H    3.125244   1.769433   0.000000
     9  H    3.594387   2.546134   3.101365   0.000000
    10  H    3.594963   3.101346   2.546197   1.772005   0.000000
    11  Li   1.300000   4.363628   4.364196   4.717898   4.718326
                   11
    11  Li   0.000000
 Stoichiometry    C4H4LiN2(1+)
 Framework group  C1[X(C4H4LiN2)]
 Deg. of freedom    27
 Full point group                 C1      NOp   1
 RotChk:  IX=0 Diff= 4.53D-04
 Largest Abelian subgroup         C1      NOp   1
 Largest concise Abelian subgroup C1      NOp   1
                         Standard orientation:                         
 ---------------------------------------------------------------------
 Center     Atomic      Atomic             Coordinates (Angstroms)
 Number     Number       Type             X           Y           Z
 ---------------------------------------------------------------------
      1          7           0        3.238607   -0.195493   -0.000182
      2          6           0        2.148540    0.188863   -0.000161
      3          6           0        0.756584    0.635990    0.000208
      4          6           0       -0.171204   -0.606827    0.000048
      5          6           0       -1.575445   -0.237770    0.000656
      6          7           0       -2.697807    0.060592   -0.000470
      7          1           0        0.006936   -1.229563   -0.884916
      8          1           0        0.007364   -1.230142    0.884517
      9          1           0        0.575755    1.252219   -0.885590
     10          1           0        0.576089    1.251726    0.886415
     11          3           0       -3.967534    0.339508   -0.000124
 ---------------------------------------------------------------------
 Rotational constants (GHZ):          23.9245560           1.1103148           1.0753404
 Leave Link  202 at Thu Aug  7 18:44:08 2025, MaxMem=   104857600 cpu:               0.0 elap:               0.0
 (Enter /Applications/g16/l301.exe)
 Standard basis: 6-31G(d) (6D, 7F)
 Ernie: Thresh=  0.10000D-02 Tol=  0.10000D-05 Strict=F.
 There are   113 symmetry adapted cartesian basis functions of A   symmetry.
 There are   113 symmetry adapted basis functions of A   symmetry.
   113 basis functions,   212 primitive gaussians,   113 cartesian basis functions
    22 alpha electrons       22 beta electrons
       nuclear repulsion energy       200.4092861156 Hartrees.
 IExCor= 4639 DFT=T Ex+Corr=wB97XD ExCW=0 ScaHFX=  1.000000
 ScaDFX=  1.000000  1.000000  1.000000  1.000000 ScalE2=  1.000000  1.000000
 IRadAn=      5 IRanWt=     -1 IRanGd=            0 ICorTp=0 IEmpDi=121
 HFx  wShort=  0.000000 wLong=  0.200000 cFull=  0.222036 cShort=  0.000000 cLong=  0.777964
 DFx  wShort=  0.000000 wLong=  0.200000 cFull=  0.000000 cShort=  0.000000 cLong=  1.000000
 NAtoms=   11 NActive=   11 NUniq=   11 SFac= 1.00D+00 NAtFMM=   60 NAOKFM=F Big=F
 Integral buffers will be    131072 words long.
 Raffenetti 2 integral format.
 Two-electron integral symmetry is turned on.
 R6Disp:  Grimme-D2 Dispersion energy=       -0.0048149772 Hartrees.
 Nuclear repulsion after empirical dispersion term =      200.4044711384 Hartrees.
 Leave Link  301 at Thu Aug  7 18:44:08 2025, MaxMem=   104857600 cpu:               0.0 elap:               0.0
 (Enter /Applications/g16/l302.exe)
 NPDir=0 NMtPBC=     1 NCelOv=     1 NCel=       1 NClECP=     1 NCelD=      1
         NCelK=      1 NCelE2=     1 NClLst=     1 CellRange=     0.0.
 One-electron integrals computed using PRISM.
 One-electron integral symmetry used in STVInt
 NBasis=   113 RedAO= T EigKep=  7.78D-04  NBF=   113
 NBsUse=   113 1.00D-06 EigRej= -1.00D+00 NBFU=   113
 Precomputing XC quadrature grid using
 IXCGrd= 4 IRadAn=           5 IRanWt=          -1 IRanGd=           0 AccXCQ= 0.00D+00.
 Generated NRdTot=       0 NPtTot=           0 NUsed=           0 NTot=          32
 NSgBfM=   113   113   113   113   113 MxSgAt=    11 MxSgA2=    11.
 Leave Link  302 at Thu Aug  7 18:44:08 2025, MaxMem=   104857600 cpu:               0.1 elap:               0.1
 (Enter /Applications/g16/l303.exe)
 DipDrv:  MaxL=1.
 Leave Link  303 at Thu Aug  7 18:44:08 2025, MaxMem=   104857600 cpu:               0.0 elap:               0.0
 (Enter /Applications/g16/l401.exe)
 Initial guess from the checkpoint file:  "/Users/srak/g16_scratch/Gau-74209.chk"
 B after Tr=     0.000000   -0.000000   -0.000000
         Rot=    1.000000   -0.000036   -0.000005    0.000057 Ang=  -0.01 deg.
 Guess basis will be translated and rotated to current coordinates.
 JPrj=2 DoOrth=T DoCkMO=T.
 Leave Link  401 at Thu Aug  7 18:44:08 2025, MaxMem=   104857600 cpu:               0.0 elap:               0.0
 (Enter /Applications/g16/l502.exe)
 Keep R1 ints in memory in canonical form, NReq=43174005.
 FoFCou: FMM=F IPFlag=           0 FMFlag=           0 FMFlg1=           0
         NFxFlg=           0 DoJE=F BraDBF=F KetDBF=F FulRan=T
         wScrn=  0.000000 ICntrl=       600 IOpCl=  0 I1Cent=           0 NGrid=           0
         NMat0=    1 NMatS0=   6441 NMatT0=    0 NMatD0=    1 NMtDS0=    0 NMtDT0=    0
 Symmetry not used in FoFCou.
 Two-electron integral symmetry not used.
 Closed shell SCF:
 Using DIIS extrapolation, IDIIS=  1040.
 NGot=   104857600 LenX=    63336875 LenY=    63323665
 Requested convergence on RMS density matrix=1.00D-08 within 128 cycles.
 Requested convergence on MAX density matrix=1.00D-06.
 Requested convergence on             energy=1.00D-06.
 No special actions if energy rises.

 Cycle   1  Pass 1  IDiag  1:
 E= -271.428916842586    
 DIIS: error= 3.68D-04 at cycle   1 NSaved=   1.
 NSaved= 1 IEnMin= 1 EnMin= -271.428916842586     IErMin= 1 ErrMin= 3.68D-04
 ErrMax= 3.68D-04  0.00D+00 EMaxC= 1.00D-01 BMatC= 1.84D-05 BMatP= 1.84D-05
 IDIUse=3 WtCom= 9.96D-01 WtEn= 3.68D-03
 Coeff-Com:  0.100D+01
 Coeff-En:   0.100D+01
 Coeff:      0.100D+01
 Gap=     1.156 Goal=   None    Shift=    0.000
 RMSDP=9.21D-05 MaxDP=2.03D-03              OVMax= 1.79D-03

 Cycle   2  Pass 1  IDiag  1:
 E= -271.428946277000     Delta-E=       -0.000029434414 Rises=F Damp=F
 DIIS: error= 6.58D-05 at cycle   2 NSaved=   2.
 NSaved= 2 IEnMin= 2 EnMin= -271.428946277000     IErMin= 2 ErrMin= 6.58D-05
 ErrMax= 6.58D-05  0.00D+00 EMaxC= 1.00D-01 BMatC= 8.42D-07 BMatP= 1.84D-05
 IDIUse=1 WtCom= 1.00D+00 WtEn= 0.00D+00
 Coeff-Com: -0.124D+00 0.112D+01
 Coeff:     -0.124D+00 0.112D+01
 Gap=     0.385 Goal=   None    Shift=    0.000
 RMSDP=1.80D-05 MaxDP=4.42D-04 DE=-2.94D-05 OVMax= 5.18D-04

 Cycle   3  Pass 1  IDiag  1:
 E= -271.428947889072     Delta-E=       -0.000001612072 Rises=F Damp=F
 DIIS: error= 1.94D-05 at cycle   3 NSaved=   3.
 NSaved= 3 IEnMin= 3 EnMin= -271.428947889072     IErMin= 3 ErrMin= 1.94D-05
 ErrMax= 1.94D-05  0.00D+00 EMaxC= 1.00D-01 BMatC= 6.17D-08 BMatP= 8.42D-07
 IDIUse=1 WtCom= 1.00D+00 WtEn= 0.00D+00
 Coeff-Com: -0.460D-01 0.170D+00 0.876D+00
 Coeff:     -0.460D-01 0.170D+00 0.876D+00
 Gap=     0.385 Goal=   None    Shift=    0.000
 RMSDP=4.02D-06 MaxDP=8.60D-05 DE=-1.61D-06 OVMax= 1.19D-04

 Cycle   4  Pass 1  IDiag  1:
 E= -271.428947972357     Delta-E=       -0.000000083285 Rises=F Damp=F
 DIIS: error= 1.14D-05 at cycle   4 NSaved=   4.
 NSaved= 4 IEnMin= 4 EnMin= -271.428947972357     IErMin= 4 ErrMin= 1.14D-05
 ErrMax= 1.14D-05  0.00D+00 EMaxC= 1.00D-01 BMatC= 1.77D-08 BMatP= 6.17D-08
 IDIUse=1 WtCom= 1.00D+00 WtEn= 0.00D+00
 Coeff-Com: -0.113D-01 0.103D-01 0.346D+00 0.655D+00
 Coeff:     -0.113D-01 0.103D-01 0.346D+00 0.655D+00
 Gap=     0.385 Goal=   None    Shift=    0.000
 RMSDP=1.38D-06 MaxDP=3.64D-05 DE=-8.33D-08 OVMax= 5.35D-05

 Cycle   5  Pass 1  IDiag  1:
 E= -271.428947986272     Delta-E=       -0.000000013915 Rises=F Damp=F
 DIIS: error= 6.75D-06 at cycle   5 NSaved=   5.
 NSaved= 5 IEnMin= 5 EnMin= -271.428947986272     IErMin= 5 ErrMin= 6.75D-06
 ErrMax= 6.75D-06  0.00D+00 EMaxC= 1.00D-01 BMatC= 5.93D-09 BMatP= 1.77D-08
 IDIUse=1 WtCom= 1.00D+00 WtEn= 0.00D+00
 Coeff-Com:  0.624D-02-0.441D-01-0.282D-01 0.383D+00 0.683D+00
 Coeff:      0.624D-02-0.441D-01-0.282D-01 0.383D+00 0.683D+00
 Gap=     0.385 Goal=   None    Shift=    0.000
 RMSDP=7.05D-07 MaxDP=1.79D-05 DE=-1.39D-08 OVMax= 2.29D-05

 Cycle   6  Pass 1  IDiag  1:
 E= -271.428947991981     Delta-E=       -0.000000005708 Rises=F Damp=F
 DIIS: error= 8.14D-07 at cycle   6 NSaved=   6.
 NSaved= 6 IEnMin= 6 EnMin= -271.428947991981     IErMin= 6 ErrMin= 8.14D-07
 ErrMax= 8.14D-07  0.00D+00 EMaxC= 1.00D-01 BMatC= 2.00D-10 BMatP= 5.93D-09
 IDIUse=1 WtCom= 1.00D+00 WtEn= 0.00D+00
 Coeff-Com:  0.325D-02-0.180D-01-0.351D-01 0.914D-01 0.241D+00 0.718D+00
 Coeff:      0.325D-02-0.180D-01-0.351D-01 0.914D-01 0.241D+00 0.718D+00
 Gap=     0.385 Goal=   None    Shift=    0.000
 RMSDP=1.58D-07 MaxDP=2.75D-06 DE=-5.71D-09 OVMax= 5.92D-06

 Cycle   7  Pass 1  IDiag  1:
 E= -271.428947992224     Delta-E=       -0.000000000243 Rises=F Damp=F
 DIIS: error= 2.96D-07 at cycle   7 NSaved=   7.
 NSaved= 7 IEnMin= 7 EnMin= -271.428947992224     IErMin= 7 ErrMin= 2.96D-07
 ErrMax= 2.96D-07  0.00D+00 EMaxC= 1.00D-01 BMatC= 1.45D-11 BMatP= 2.00D-10
 IDIUse=1 WtCom= 1.00D+00 WtEn= 0.00D+00
 Coeff-Com:  0.134D-03 0.145D-03-0.380D-02-0.187D-01-0.197D-01 0.148D+00
 Coeff-Com:  0.894D+00
 Coeff:      0.134D-03 0.145D-03-0.380D-02-0.187D-01-0.197D-01 0.148D+00
 Coeff:      0.894D+00
 Gap=     0.385 Goal=   None    Shift=    0.000
 RMSDP=6.64D-08 MaxDP=1.20D-06 DE=-2.43D-10 OVMax= 2.33D-06

 Cycle   8  Pass 1  IDiag  1:
 E= -271.428947992241     Delta-E=       -0.000000000018 Rises=F Damp=F
 DIIS: error= 2.90D-07 at cycle   8 NSaved=   8.
 NSaved= 8 IEnMin= 8 EnMin= -271.428947992241     IErMin= 8 ErrMin= 2.90D-07
 ErrMax= 2.90D-07  0.00D+00 EMaxC= 1.00D-01 BMatC= 9.23D-12 BMatP= 1.45D-11
 IDIUse=1 WtCom= 1.00D+00 WtEn= 0.00D+00
 Coeff-Com: -0.301D-03 0.217D-02 0.225D-02-0.217D-01-0.404D-01 0.155D-02
 Coeff-Com:  0.532D+00 0.525D+00
 Coeff:     -0.301D-03 0.217D-02 0.225D-02-0.217D-01-0.404D-01 0.155D-02
 Coeff:      0.532D+00 0.525D+00
 Gap=     0.385 Goal=   None    Shift=    0.000
 RMSDP=2.71D-08 MaxDP=6.51D-07 DE=-1.76D-11 OVMax= 1.24D-06

 Cycle   9  Pass 1  IDiag  1:
 E= -271.428947992254     Delta-E=       -0.000000000012 Rises=F Damp=F
 DIIS: error= 7.67D-08 at cycle   9 NSaved=   9.
 NSaved= 9 IEnMin= 9 EnMin= -271.428947992254     IErMin= 9 ErrMin= 7.67D-08
 ErrMax= 7.67D-08  0.00D+00 EMaxC= 1.00D-01 BMatC= 4.76D-13 BMatP= 9.23D-12
 IDIUse=1 WtCom= 1.00D+00 WtEn= 0.00D+00
 Coeff-Com: -0.126D-03 0.729D-03 0.161D-02-0.471D-02-0.115D-01-0.251D-01
 Coeff-Com:  0.470D-01 0.201D+00 0.791D+00
 Coeff:     -0.126D-03 0.729D-03 0.161D-02-0.471D-02-0.115D-01-0.251D-01
 Coeff:      0.470D-01 0.201D+00 0.791D+00
 Gap=     0.385 Goal=   None    Shift=    0.000
 RMSDP=8.51D-09 MaxDP=1.84D-07 DE=-1.24D-11 OVMax= 3.11D-07

 SCF Done:  E(RwB97XD) =  -271.428947992     A.U. after    9 cycles
            NFock=  9  Conv=0.85D-08     -V/T= 2.0060
 KE= 2.698231649192D+02 PE=-1.024093905432D+03 EE= 2.824373213823D+02
 Leave Link  502 at Thu Aug  7 18:44:14 2025, MaxMem=   104857600 cpu:               6.0 elap:               6.0
 (Enter /Applications/g16/l701.exe)
 ... and contract with generalized density number  0.
 Compute integral first derivatives.
 R6Disp: Adding Grimme-D2 dispersion energy 1st derivatives to the gradient.
 Leave Link  701 at Thu Aug  7 18:44:15 2025, MaxMem=   104857600 cpu:               0.0 elap:               0.0
 (Enter /Applications/g16/l702.exe)
 L702 exits ... SP integral derivatives will be done elsewhere.
 Leave Link  702 at Thu Aug  7 18:44:15 2025, MaxMem=   104857600 cpu:               0.0 elap:               0.0
 (Enter /Applications/g16/l703.exe)
 Integral derivatives from FoFJK, PRISM(SPDF).
 Compute integral first derivatives, UseDBF=F ICtDFT=           0.
 Calling FoFJK, ICntrl=      2127 FMM=F ISym2X=0 I1Cent= 0 IOpClX= 0 NMat=1 NMatS=1 NMatT=0.
 FoFJK:  IHMeth= 1 ICntrl=    2127 DoSepK=T KAlg= 0 I1Cent=           0 FoldK=F
 IRaf=         1 NMat=       1 IRICut=       1 DoRegI=T DoRafI=F ISym2E= 0 IDoP0=0 IntGTp=1.
 FoFCou: FMM=F IPFlag=           0 FMFlag=      100000 FMFlg1=         800
         NFxFlg=           0 DoJE=F BraDBF=F KetDBF=F FulRan=T
         wScrn=  0.000000 ICntrl=      2527 IOpCl=  0 I1Cent=           0 NGrid=           0
         NMat0=    1 NMatS0=      1 NMatT0=    0 NMatD0=    1 NMtDS0=    0 NMtDT0=    0
 Symmetry not used in FoFCou.
 Leave Link  703 at Thu Aug  7 18:44:17 2025, MaxMem=   104857600 cpu:               2.5 elap:               2.5
 (Enter /Applications/g16/l716.exe)
 Dipole        =-5.72059737D+00 4.33895191D-01 7.99575982D-04
 ***** Axes restored to original set *****
 -------------------------------------------------------------------
 Center     Atomic                   Forces (Hartrees/Bohr)
 Number     Number              X              Y              Z
 -------------------------------------------------------------------
      1        7          -0.000049831   -0.000111332   -0.000008895
      2        6           0.000073581    0.000261687    0.000016375
      3        6           0.000137223   -0.000064837   -0.000002521
      4        6          -0.000188201    0.000188051    0.000092986
      5        6          -0.000518876   -0.000427674   -0.000179867
      6        7           0.339840730   -0.072497125    0.000008225
      7        1          -0.000022423    0.000016092   -0.000003658
      8        1           0.000026048    0.000014222   -0.000001468
      9        1           0.000022652   -0.000020157    0.000002877
     10        1           0.000029417   -0.000017542   -0.000002198
     11        3          -0.339350320    0.072658614    0.000078143
 -------------------------------------------------------------------
 Cartesian Forces:  Max     0.339840730 RMS     0.085490768
 Leave Link  716 at Thu Aug  7 18:44:17 2025, MaxMem=   104857600 cpu:               0.0 elap:               0.0
 (Enter /Applications/g16/l103.exe)

 GradGradGradGradGradGradGradGradGradGradGradGradGradGradGradGradGradGrad
 Berny optimization.
 Using GEDIIS/GDIIS optimizer.
 FormGI is forming the generalized inverse of G from B-inverse, IUseBI=4.
 Internal  Forces:  Max     0.347041516 RMS     0.057053421
 Search for a local minimum.
 Step number   3 out of a maximum of   47
 All quantities printed in internal units (Hartrees-Bohrs-Radians)
 RMS Force = .13120D-03 SwitMx=.10000D-02 MixMth= 2
 Mixed Optimization -- En-DIIS/RFO-DIIS
 Swapping is turned off.
 Update second derivatives using D2CorX and points    1    2    3
 DE= -7.92D-07 DEPred=-2.74D-06 R= 2.89D-01
 Trust test= 2.89D-01 RLast= 9.44D-03 DXMaxT set to 3.00D-01
 ITU=  0  1  0
     Eigenvalues ---    0.00230   0.01263   0.01436   0.04871   0.05074
     Eigenvalues ---    0.05313   0.05673   0.05801   0.07524   0.08703
     Eigenvalues ---    0.09671   0.15479   0.16000   0.16060   0.16102
     Eigenvalues ---    0.21728   0.23990   0.27070   0.33260   0.34136
     Eigenvalues ---    0.34308   0.34340   0.34934   0.36774   1.30458
     Eigenvalues ---    1.309381000.000001000.000001000.000001000.00000
     Eigenvalues --- 1000.000001000.000001000.000001000.000001000.00000
     Eigenvalues --- 1000.000001000.00000
 En-DIIS/RFO-DIIS/Sim-DIIS IScMMF=       -3 using points:     3    2
 RFO step:  Lambda=-1.24882574D-04.
 NNeg= 0 NGDIIS= 2 SimSw=  2.50D-03 Rises=F DC= -7.92D-07 SmlDif=  1.00D-05
 NRisDI= 0 DoIntr=F SqrtH=F CThrHd= 10.0 CDAdj=  3.0
 RMS Error=  0.1814991721D-02 NUsed= 2 OKEnD=F EnDIS=F
 InvSVX:  RCond= 9.99D-05 Info=           0 Equed=N FErr=  4.63D-15 BErr=  1.94D-17
 DidBck=T Rises=F RFO-DIIS coefs:    0.58718    0.41282
 Iteration  1 RMS(Cart)=  0.00322047 RMS(Int)=  0.00001644
 Iteration  2 RMS(Cart)=  0.00001636 RMS(Int)=  0.00000004
 Iteration  3 RMS(Cart)=  0.00000000 RMS(Int)=  0.00000004
 Iteration  1 RMS(Cart)=  0.00000000 RMS(Int)=  0.00000000
 ITry= 1 IFail=0 DXMaxC= 1.45D-02 DCOld= 1.00D+10 DXMaxT= 3.00D-01 DXLimC= 3.00D+00 Rises=F
 Variable       Old X    -DE/DX   Delta X   Delta X   Delta X     New X
                                 (Linear)    (Quad)   (Total)
    R1        2.18423  -0.00001   0.00000  -0.00001  -0.00001   2.18422
    R2        2.76279  -0.00002  -0.00008   0.00013   0.00005   2.76284
    R3        2.93083   0.00017  -0.00019   0.00082   0.00063   2.93147
    R4        2.06757  -0.00002   0.00005  -0.00015  -0.00009   2.06747
    R5        2.06756  -0.00002   0.00005  -0.00015  -0.00009   2.06747
    R6        2.74375  -0.00004   0.00055  -0.00145  -0.00090   2.74285
    R7        2.07241  -0.00001  -0.00013   0.00030   0.00017   2.07258
    R8        2.07241  -0.00000  -0.00013   0.00030   0.00017   2.07259
    R9        2.19462  -0.00043  -0.00024   0.00048   0.00024   2.19486
   R10        2.45664   0.34704   0.00000   0.00000   0.00000   2.45664
    A1        1.90126   0.00010   0.00026  -0.00039  -0.00013   1.90112
    A2        1.90647  -0.00005  -0.00038   0.00071   0.00032   1.90679
    A3        1.90645  -0.00005  -0.00037   0.00066   0.00029   1.90674
    A4        1.93091  -0.00001   0.00034  -0.00077  -0.00043   1.93048
    A5        1.93090  -0.00000   0.00035  -0.00074  -0.00040   1.93050
    A6        1.88760   0.00001  -0.00023   0.00059   0.00036   1.88796
    A7        1.95506   0.00021  -0.00022   0.00110   0.00087   1.95594
    A8        1.93686  -0.00003   0.00042  -0.00103  -0.00061   1.93625
    A9        1.93688  -0.00007   0.00041  -0.00106  -0.00065   1.93624
   A10        1.87735  -0.00009  -0.00056   0.00088   0.00032   1.87767
   A11        1.87718  -0.00005  -0.00049   0.00109   0.00060   1.87777
   A12        1.87718   0.00002   0.00041  -0.00094  -0.00052   1.87666
   A13        3.11586  -0.00025  -0.00147  -0.00832  -0.00980   3.10607
   A14        3.13958  -0.00048  -0.00270   0.00020  -0.00250   3.13708
   A15        3.18172   0.00014  -0.00102   0.00329   0.00227   3.18399
   A16        3.12749  -0.00007  -0.00068  -0.00180  -0.00248   3.12501
   A17        3.13853  -0.00002  -0.00036   0.00054   0.00018   3.13871
   A18        3.11268  -0.00005   0.00030  -0.00102  -0.00072   3.11196
    D1        3.14140   0.00001   0.00009   0.00014   0.00023  -3.14156
    D2       -1.04320   0.00001  -0.00048   0.00129   0.00081  -1.04239
    D3        1.04302  -0.00003   0.00059  -0.00126  -0.00068   1.04234
    D4       -1.04591   0.00001  -0.00000   0.00028   0.00028  -1.04563
    D5        1.05267   0.00001  -0.00057   0.00143   0.00086   1.05353
    D6        3.13889  -0.00003   0.00049  -0.00112  -0.00062   3.13827
    D7        1.04556   0.00001   0.00016   0.00004   0.00020   1.04576
    D8       -3.13904   0.00001  -0.00041   0.00119   0.00078  -3.13826
    D9       -1.05282  -0.00002   0.00066  -0.00136  -0.00071  -1.05353
         Item               Value     Threshold  Converged?
 Maximum Force            0.000478     0.000450     NO 
 RMS     Force            0.000131     0.000300     YES
 Maximum Displacement     0.014493     0.001800     NO 
 RMS     Displacement     0.003223     0.001200     NO 
 Predicted change in Energy=-2.229713D-06
 Lowest energy point so far.  Saving SCF results.
 GradGradGradGradGradGradGradGradGradGradGradGradGradGradGradGradGradGrad

 Leave Link  103 at Thu Aug  7 18:44:17 2025, MaxMem=   104857600 cpu:               0.0 elap:               0.0
 (Enter /Applications/g16/l202.exe)
                          Input orientation:                          
 ---------------------------------------------------------------------
 Center     Atomic      Atomic             Coordinates (Angstroms)
 Number     Number       Type             X           Y           Z
 ---------------------------------------------------------------------
      1          7           0        3.255884   -0.191527   -0.001161
      2          6           0        2.167461    0.197445    0.000566
      3          6           0        0.773013    0.636822    0.000193
      4          6           0       -0.147876   -0.611531    0.000155
      5          6           0       -1.554053   -0.251829   -0.000256
      6          7           0       -2.677824    0.041684   -0.000869
      7          1           0        0.035228   -1.233634   -0.884349
      8          1           0        0.034876   -1.233417    0.884889
      9          1           0        0.588678    1.251355   -0.885999
     10          1           0        0.588336    1.251579    0.886158
     11          3           0       -3.949358    0.312235    0.000734
 ---------------------------------------------------------------------
                    Distance matrix (angstroms):
                    1          2          3          4          5
     1  N    0.000000
     2  C    1.155840   0.000000
     3  C    2.617406   1.462033   0.000000
     4  C    3.429575   2.452596   1.551265   0.000000
     5  C    4.810316   3.748535   2.490971   1.451455   0.000000
     6  N    5.938289   4.847788   3.501780   2.612916   1.161469
     7  H    3.498376   2.716151   2.196667   1.096762   2.066731
     8  H    3.499359   2.716121   2.196663   1.096766   2.066808
     9  H    3.158930   2.095061   1.094060   2.190462   2.763222
    10  H    3.160017   2.095020   1.094059   2.190477   2.763294
    11  Li   7.222832   6.117897   4.733513   3.912111   2.460824
                    6          7          8          9         10
     6  N    0.000000
     7  H    3.125320   0.000000
     8  H    3.125571   1.769238   0.000000
     9  H    3.593994   2.545875   3.101102   0.000000
    10  H    3.594227   3.101114   2.545884   1.772157   0.000000
    11  Li   1.300000   4.364632   4.364046   4.718264   4.717734
                   11
    11  Li   0.000000
 Stoichiometry    C4H4LiN2(1+)
 Framework group  C1[X(C4H4LiN2)]
 Deg. of freedom    27
 Full point group                 C1      NOp   1
 RotChk:  IX=0 Diff= 1.08D-03
 Largest Abelian subgroup         C1      NOp   1
 Largest concise Abelian subgroup C1      NOp   1
                         Standard orientation:                         
 ---------------------------------------------------------------------
 Center     Atomic      Atomic             Coordinates (Angstroms)
 Number     Number       Type             X           Y           Z
 ---------------------------------------------------------------------
      1          7           0        3.235503   -0.200977   -0.000795
      2          6           0        2.148898    0.193044    0.000748
      3          6           0        0.756504    0.638892    0.000162
      4          6           0       -0.170171   -0.605172    0.000526
      5          6           0       -1.574663   -0.238945   -0.000072
      6          7           0       -2.697058    0.059782   -0.000836
      7          1           0        0.010079   -1.228431   -0.883751
      8          1           0        0.009656   -1.227587    0.885487
      9          1           0        0.575060    1.253961   -0.886255
     10          1           0        0.574648    1.254812    0.885901
     11          3           0       -3.967323    0.336234    0.000618
 ---------------------------------------------------------------------
 Rotational constants (GHZ):          23.8533231           1.1112171           1.0760420
 Leave Link  202 at Thu Aug  7 18:44:17 2025, MaxMem=   104857600 cpu:               0.0 elap:               0.0
 (Enter /Applications/g16/l301.exe)
 Standard basis: 6-31G(d) (6D, 7F)
 Ernie: Thresh=  0.10000D-02 Tol=  0.10000D-05 Strict=F.
 There are   113 symmetry adapted cartesian basis functions of A   symmetry.
 There are   113 symmetry adapted basis functions of A   symmetry.
   113 basis functions,   212 primitive gaussians,   113 cartesian basis functions
    22 alpha electrons       22 beta electrons
       nuclear repulsion energy       200.4277224820 Hartrees.
 IExCor= 4639 DFT=T Ex+Corr=wB97XD ExCW=0 ScaHFX=  1.000000
 ScaDFX=  1.000000  1.000000  1.000000  1.000000 ScalE2=  1.000000  1.000000
 IRadAn=      5 IRanWt=     -1 IRanGd=            0 ICorTp=0 IEmpDi=121
 HFx  wShort=  0.000000 wLong=  0.200000 cFull=  0.222036 cShort=  0.000000 cLong=  0.777964
 DFx  wShort=  0.000000 wLong=  0.200000 cFull=  0.000000 cShort=  0.000000 cLong=  1.000000
 NAtoms=   11 NActive=   11 NUniq=   11 SFac= 1.00D+00 NAtFMM=   60 NAOKFM=F Big=F
 Integral buffers will be    131072 words long.
 Raffenetti 2 integral format.
 Two-electron integral symmetry is turned on.
 R6Disp:  Grimme-D2 Dispersion energy=       -0.0048170292 Hartrees.
 Nuclear repulsion after empirical dispersion term =      200.4229054528 Hartrees.
 Leave Link  301 at Thu Aug  7 18:44:17 2025, MaxMem=   104857600 cpu:               0.0 elap:               0.0
 (Enter /Applications/g16/l302.exe)
 NPDir=0 NMtPBC=     1 NCelOv=     1 NCel=       1 NClECP=     1 NCelD=      1
         NCelK=      1 NCelE2=     1 NClLst=     1 CellRange=     0.0.
 One-electron integrals computed using PRISM.
 One-electron integral symmetry used in STVInt
 NBasis=   113 RedAO= T EigKep=  7.81D-04  NBF=   113
 NBsUse=   113 1.00D-06 EigRej= -1.00D+00 NBFU=   113
 Precomputing XC quadrature grid using
 IXCGrd= 4 IRadAn=           5 IRanWt=          -1 IRanGd=           0 AccXCQ= 0.00D+00.
 Generated NRdTot=       0 NPtTot=           0 NUsed=           0 NTot=          32
 NSgBfM=   113   113   113   113   113 MxSgAt=    11 MxSgA2=    11.
 Leave Link  302 at Thu Aug  7 18:44:17 2025, MaxMem=   104857600 cpu:               0.1 elap:               0.1
 (Enter /Applications/g16/l303.exe)
 DipDrv:  MaxL=1.
 Leave Link  303 at Thu Aug  7 18:44:17 2025, MaxMem=   104857600 cpu:               0.0 elap:               0.0
 (Enter /Applications/g16/l401.exe)
 Initial guess from the checkpoint file:  "/Users/srak/g16_scratch/Gau-74209.chk"
 B after Tr=    -0.000000   -0.000000   -0.000000
         Rot=    1.000000    0.000164    0.000006   -0.000040 Ang=   0.02 deg.
 Guess basis will be translated and rotated to current coordinates.
 JPrj=2 DoOrth=T DoCkMO=T.
 Leave Link  401 at Thu Aug  7 18:44:17 2025, MaxMem=   104857600 cpu:               0.0 elap:               0.0
 (Enter /Applications/g16/l502.exe)
 Keep R1 ints in memory in canonical form, NReq=43174005.
 FoFCou: FMM=F IPFlag=           0 FMFlag=           0 FMFlg1=           0
         NFxFlg=           0 DoJE=F BraDBF=F KetDBF=F FulRan=T
         wScrn=  0.000000 ICntrl=       600 IOpCl=  0 I1Cent=           0 NGrid=           0
         NMat0=    1 NMatS0=   6441 NMatT0=    0 NMatD0=    1 NMtDS0=    0 NMtDT0=    0
 Symmetry not used in FoFCou.
 Two-electron integral symmetry not used.
 Closed shell SCF:
 Using DIIS extrapolation, IDIIS=  1040.
 NGot=   104857600 LenX=    63336875 LenY=    63323665
 Requested convergence on RMS density matrix=1.00D-08 within 128 cycles.
 Requested convergence on MAX density matrix=1.00D-06.
 Requested convergence on             energy=1.00D-06.
 No special actions if energy rises.

 Cycle   1  Pass 1  IDiag  1:
 E= -271.428894285770    
 DIIS: error= 6.64D-04 at cycle   1 NSaved=   1.
 NSaved= 1 IEnMin= 1 EnMin= -271.428894285770     IErMin= 1 ErrMin= 6.64D-04
 ErrMax= 6.64D-04  0.00D+00 EMaxC= 1.00D-01 BMatC= 3.12D-05 BMatP= 3.12D-05
 IDIUse=3 WtCom= 9.93D-01 WtEn= 6.64D-03
 Coeff-Com:  0.100D+01
 Coeff-En:   0.100D+01
 Coeff:      0.100D+01
 Gap=     1.156 Goal=   None    Shift=    0.000
 RMSDP=8.71D-05 MaxDP=1.97D-03              OVMax= 2.84D-03

 Cycle   2  Pass 1  IDiag  1:
 E= -271.428944195814     Delta-E=       -0.000049910044 Rises=F Damp=F
 DIIS: error= 1.04D-04 at cycle   2 NSaved=   2.
 NSaved= 2 IEnMin= 2 EnMin= -271.428944195814     IErMin= 2 ErrMin= 1.04D-04
 ErrMax= 1.04D-04  0.00D+00 EMaxC= 1.00D-01 BMatC= 1.34D-06 BMatP= 3.12D-05
 IDIUse=3 WtCom= 9.99D-01 WtEn= 1.04D-03
 Coeff-Com: -0.187D+00 0.119D+01
 Coeff-En:   0.000D+00 0.100D+01
 Coeff:     -0.187D+00 0.119D+01
 Gap=     0.385 Goal=   None    Shift=    0.000
 RMSDP=2.39D-05 MaxDP=5.45D-04 DE=-4.99D-05 OVMax= 1.14D-03

 Cycle   3  Pass 1  IDiag  1:
 E= -271.428947716942     Delta-E=       -0.000003521128 Rises=F Damp=F
 DIIS: error= 3.30D-05 at cycle   3 NSaved=   3.
 NSaved= 3 IEnMin= 3 EnMin= -271.428947716942     IErMin= 3 ErrMin= 3.30D-05
 ErrMax= 3.30D-05  0.00D+00 EMaxC= 1.00D-01 BMatC= 7.70D-08 BMatP= 1.34D-06
 IDIUse=1 WtCom= 1.00D+00 WtEn= 0.00D+00
 Coeff-Com: -0.211D-01 0.397D-01 0.981D+00
 Coeff:     -0.211D-01 0.397D-01 0.981D+00
 Gap=     0.385 Goal=   None    Shift=    0.000
 RMSDP=5.68D-06 MaxDP=1.33D-04 DE=-3.52D-06 OVMax= 3.09D-04

 Cycle   4  Pass 1  IDiag  1:
 E= -271.428947834063     Delta-E=       -0.000000117121 Rises=F Damp=F
 DIIS: error= 2.99D-05 at cycle   4 NSaved=   4.
 NSaved= 4 IEnMin= 4 EnMin= -271.428947834063     IErMin= 4 ErrMin= 2.99D-05
 ErrMax= 2.99D-05  0.00D+00 EMaxC= 1.00D-01 BMatC= 8.68D-08 BMatP= 7.70D-08
 IDIUse=1 WtCom= 1.00D+00 WtEn= 0.00D+00
 Coeff-Com:  0.985D-02-0.120D+00 0.585D+00 0.525D+00
 Coeff:      0.985D-02-0.120D+00 0.585D+00 0.525D+00
 Gap=     0.385 Goal=   None    Shift=    0.000
 RMSDP=2.63D-06 MaxDP=6.45D-05 DE=-1.17D-07 OVMax= 1.12D-04

 Cycle   5  Pass 1  IDiag  1:
 E= -271.428947912995     Delta-E=       -0.000000078932 Rises=F Damp=F
 DIIS: error= 6.77D-06 at cycle   5 NSaved=   5.
 NSaved= 5 IEnMin= 5 EnMin= -271.428947912995     IErMin= 5 ErrMin= 6.77D-06
 ErrMax= 6.77D-06  0.00D+00 EMaxC= 1.00D-01 BMatC= 5.79D-09 BMatP= 7.70D-08
 IDIUse=1 WtCom= 1.00D+00 WtEn= 0.00D+00
 Coeff-Com:  0.106D-01-0.711D-01 0.290D-01 0.214D+00 0.818D+00
 Coeff:      0.106D-01-0.711D-01 0.290D-01 0.214D+00 0.818D+00
 Gap=     0.385 Goal=   None    Shift=    0.000
 RMSDP=1.01D-06 MaxDP=2.07D-05 DE=-7.89D-08 OVMax= 5.04D-05

 Cycle   6  Pass 1  IDiag  1:
 E= -271.428947920226     Delta-E=       -0.000000007230 Rises=F Damp=F
 DIIS: error= 7.21D-07 at cycle   6 NSaved=   6.
 NSaved= 6 IEnMin= 6 EnMin= -271.428947920226     IErMin= 6 ErrMin= 7.21D-07
 ErrMax= 7.21D-07  0.00D+00 EMaxC= 1.00D-01 BMatC= 1.21D-10 BMatP= 5.79D-09
 IDIUse=1 WtCom= 1.00D+00 WtEn= 0.00D+00
 Coeff-Com:  0.132D-02-0.592D-02-0.186D-01 0.752D-02 0.116D+00 0.900D+00
 Coeff:      0.132D-02-0.592D-02-0.186D-01 0.752D-02 0.116D+00 0.900D+00
 Gap=     0.385 Goal=   None    Shift=    0.000
 RMSDP=1.90D-07 MaxDP=3.30D-06 DE=-7.23D-09 OVMax= 7.97D-06

 Cycle   7  Pass 1  IDiag  1:
 E= -271.428947920344     Delta-E=       -0.000000000118 Rises=F Damp=F
 DIIS: error= 7.76D-07 at cycle   7 NSaved=   7.
 NSaved= 7 IEnMin= 7 EnMin= -271.428947920344     IErMin= 6 ErrMin= 7.21D-07
 ErrMax= 7.76D-07  0.00D+00 EMaxC= 1.00D-01 BMatC= 7.84D-11 BMatP= 1.21D-10
 IDIUse=1 WtCom= 1.00D+00 WtEn= 0.00D+00
 Coeff-Com: -0.319D-03 0.369D-02-0.109D-01-0.168D-01-0.250D-01 0.484D+00
 Coeff-Com:  0.566D+00
 Coeff:     -0.319D-03 0.369D-02-0.109D-01-0.168D-01-0.250D-01 0.484D+00
 Coeff:      0.566D+00
 Gap=     0.385 Goal=   None    Shift=    0.000
 RMSDP=7.59D-08 MaxDP=2.05D-06 DE=-1.18D-10 OVMax= 2.64D-06

 Cycle   8  Pass 1  IDiag  1:
 E= -271.428947920409     Delta-E=       -0.000000000065 Rises=F Damp=F
 DIIS: error= 2.17D-07 at cycle   8 NSaved=   8.
 NSaved= 8 IEnMin= 8 EnMin= -271.428947920409     IErMin= 8 ErrMin= 2.17D-07
 ErrMax= 2.17D-07  0.00D+00 EMaxC= 1.00D-01 BMatC= 6.90D-12 BMatP= 7.84D-11
 IDIUse=1 WtCom= 1.00D+00 WtEn= 0.00D+00
 Coeff-Com: -0.298D-03 0.239D-02-0.270D-02-0.905D-02-0.271D-01 0.130D+00
 Coeff-Com:  0.279D+00 0.628D+00
 Coeff:     -0.298D-03 0.239D-02-0.270D-02-0.905D-02-0.271D-01 0.130D+00
 Coeff:      0.279D+00 0.628D+00
 Gap=     0.385 Goal=   None    Shift=    0.000
 RMSDP=2.52D-08 MaxDP=4.80D-07 DE=-6.53D-11 OVMax= 6.49D-07

 Cycle   9  Pass 1  IDiag  1:
 E= -271.428947920412     Delta-E=       -0.000000000002 Rises=F Damp=F
 DIIS: error= 4.17D-08 at cycle   9 NSaved=   9.
 NSaved= 9 IEnMin= 9 EnMin= -271.428947920412     IErMin= 9 ErrMin= 4.17D-08
 ErrMax= 4.17D-08  0.00D+00 EMaxC= 1.00D-01 BMatC= 2.54D-13 BMatP= 6.90D-12
 IDIUse=1 WtCom= 1.00D+00 WtEn= 0.00D+00
 Coeff-Com: -0.269D-04 0.770D-04 0.766D-03-0.365D-03-0.455D-02-0.263D-01
 Coeff-Com:  0.881D-03 0.151D+00 0.878D+00
 Coeff:     -0.269D-04 0.770D-04 0.766D-03-0.365D-03-0.455D-02-0.263D-01
 Coeff:      0.881D-03 0.151D+00 0.878D+00
 Gap=     0.385 Goal=   None    Shift=    0.000
 RMSDP=1.09D-08 MaxDP=2.73D-07 DE=-2.33D-12 OVMax= 2.80D-07

 Cycle  10  Pass 1  IDiag  1:
 E= -271.428947920412     Delta-E=        0.000000000000 Rises=F Damp=F
 DIIS: error= 8.14D-09 at cycle  10 NSaved=  10.
 NSaved=10 IEnMin= 9 EnMin= -271.428947920412     IErMin=10 ErrMin= 8.14D-09
 ErrMax= 8.14D-09  0.00D+00 EMaxC= 1.00D-01 BMatC= 1.01D-14 BMatP= 2.54D-13
 IDIUse=1 WtCom= 1.00D+00 WtEn= 0.00D+00
 Coeff-Com:  0.162D-04-0.145D-03 0.288D-03 0.554D-03 0.104D-02-0.112D-01
 Coeff-Com: -0.179D-01-0.233D-01 0.973D-01 0.953D+00
 Coeff:      0.162D-04-0.145D-03 0.288D-03 0.554D-03 0.104D-02-0.112D-01
 Coeff:     -0.179D-01-0.233D-01 0.973D-01 0.953D+00
 Gap=     0.385 Goal=   None    Shift=    0.000
 RMSDP=3.21D-09 MaxDP=8.51D-08 DE= 5.68D-14 OVMax= 9.39D-08

 SCF Done:  E(RwB97XD) =  -271.428947920     A.U. after   10 cycles
            NFock= 10  Conv=0.32D-08     -V/T= 2.0060
 KE= 2.698222836548D+02 PE=-1.024129530832D+03 EE= 2.824553938043D+02
 Leave Link  502 at Thu Aug  7 18:44:24 2025, MaxMem=   104857600 cpu:               6.4 elap:               6.5
 (Enter /Applications/g16/l701.exe)
 ... and contract with generalized density number  0.
 Compute integral first derivatives.
 R6Disp: Adding Grimme-D2 dispersion energy 1st derivatives to the gradient.
 Leave Link  701 at Thu Aug  7 18:44:24 2025, MaxMem=   104857600 cpu:               0.0 elap:               0.0
 (Enter /Applications/g16/l702.exe)
 L702 exits ... SP integral derivatives will be done elsewhere.
 Leave Link  702 at Thu Aug  7 18:44:24 2025, MaxMem=   104857600 cpu:               0.0 elap:               0.0
 (Enter /Applications/g16/l703.exe)
 Integral derivatives from FoFJK, PRISM(SPDF).
 Compute integral first derivatives, UseDBF=F ICtDFT=           0.
 Calling FoFJK, ICntrl=      2127 FMM=F ISym2X=0 I1Cent= 0 IOpClX= 0 NMat=1 NMatS=1 NMatT=0.
 FoFJK:  IHMeth= 1 ICntrl=    2127 DoSepK=T KAlg= 0 I1Cent=           0 FoldK=F
 IRaf=         1 NMat=       1 IRICut=       1 DoRegI=T DoRafI=F ISym2E= 0 IDoP0=0 IntGTp=1.
 FoFCou: FMM=F IPFlag=           0 FMFlag=      100000 FMFlg1=         800
         NFxFlg=           0 DoJE=F BraDBF=F KetDBF=F FulRan=T
         wScrn=  0.000000 ICntrl=      2527 IOpCl=  0 I1Cent=           0 NGrid=           0
         NMat0=    1 NMatS0=      1 NMatT0=    0 NMatD0=    1 NMtDS0=    0 NMtDT0=    0
 Symmetry not used in FoFCou.
 Leave Link  703 at Thu Aug  7 18:44:26 2025, MaxMem=   104857600 cpu:               2.5 elap:               2.6
 (Enter /Applications/g16/l716.exe)
 Dipole        =-5.71753309D+00 4.33927122D-01 2.60369662D-03
 ***** Axes restored to original set *****
 -------------------------------------------------------------------
 Center     Atomic                   Forces (Hartrees/Bohr)
 Number     Number              X              Y              Z
 -------------------------------------------------------------------
      1        7           0.000112339    0.000181649    0.000065636
      2        6          -0.000248892   -0.000367458   -0.000138257
      3        6           0.000045111    0.000156523    0.000071715
      4        6           0.000318459   -0.000092320    0.000016142
      5        6          -0.000902416    0.000010653   -0.000031881
      6        7           0.340173393   -0.072214710   -0.000392189
      7        1          -0.000043603    0.000035973    0.000029666
      8        1          -0.000046368    0.000036300   -0.000033975
      9        1           0.000031676    0.000040097    0.000010409
     10        1          -0.000001198    0.000044436   -0.000012965
     11        3          -0.339438499    0.072168858    0.000415699
 -------------------------------------------------------------------
 Cartesian Forces:  Max     0.340173393 RMS     0.085521804
 Leave Link  716 at Thu Aug  7 18:44:26 2025, MaxMem=   104857600 cpu:               0.0 elap:               0.0
 (Enter /Applications/g16/l103.exe)

 GradGradGradGradGradGradGradGradGradGradGradGradGradGradGradGradGradGrad
 Berny optimization.
 Using GEDIIS/GDIIS optimizer.
 FormGI is forming the generalized inverse of G from B-inverse, IUseBI=4.
 GSVD:  received Info=                   1 from GESDD.
 Internal  Forces:  Max     0.347025822 RMS     0.057050899
 Search for a local minimum.
 Step number   4 out of a maximum of   47
 All quantities printed in internal units (Hartrees-Bohrs-Radians)
 RMS Force = .15515D-03 SwitMx=.10000D-02 MixMth= 2
 Mixed Optimization -- En-DIIS/RFO-DIIS
 Swapping is turned off.
 Update second derivatives using D2CorX and points    1    2    3    4
 DE=  7.18D-08 DEPred=-2.23D-06 R=-3.22D-02
 Trust test=-3.22D-02 RLast= 1.10D-02 DXMaxT set to 1.50D-01
 ITU= -1  0  1  0
     Eigenvalues ---    0.00230   0.01256   0.02792   0.04883   0.05304
     Eigenvalues ---    0.05613   0.05800   0.06083   0.06963   0.08709
     Eigenvalues ---    0.09792   0.15785   0.16009   0.16028   0.16197
     Eigenvalues ---    0.20967   0.24088   0.26901   0.32930   0.34136
     Eigenvalues ---    0.34298   0.34341   0.34568   0.36947   1.26982
     Eigenvalues ---    1.305881000.000001000.000001000.000001000.00000
     Eigenvalues --- 1000.000001000.000001000.000001000.000001000.00000
     Eigenvalues --- 1000.000001000.00000
 En-DIIS/RFO-DIIS/Sim-DIIS IScMMF=       -3 using points:     4    3    2
 RFO step:  Lambda=-1.24482789D-04.
 NNeg= 0 NGDIIS= 3 SimSw=  2.50D-03 Rises=F DC=  7.18D-08 SmlDif=  1.00D-05
 NRisDI= 0 DoIntr=F SqrtH=F CThrHd= 10.0 CDAdj=  3.0
 RMS Error=  0.1278800340D-02 NUsed= 3 OKEnD=F EnDIS=F
 InvSVX:  RCond= 2.84D-05 Info=           0 Equed=N FErr=  2.39D-15 BErr=  8.43D-17
 DidBck=T Rises=F RFO-DIIS coefs:    0.54442    0.63430   -0.17872
 Iteration  1 RMS(Cart)=  0.00234717 RMS(Int)=  0.00000796
 Iteration  2 RMS(Cart)=  0.00000769 RMS(Int)=  0.00000012
 Iteration  3 RMS(Cart)=  0.00000000 RMS(Int)=  0.00000012
 Iteration  1 RMS(Cart)=  0.00000000 RMS(Int)=  0.00000000
 ITry= 1 IFail=0 DXMaxC= 9.90D-03 DCOld= 1.00D+10 DXMaxT= 1.50D-01 DXLimC= 3.00D+00 Rises=F
 Variable       Old X    -DE/DX   Delta X   Delta X   Delta X     New X
                                 (Linear)    (Quad)   (Total)
    R1        2.18422   0.00004   0.00000   0.00001   0.00001   2.18423
    R2        2.76284  -0.00007   0.00001  -0.00005  -0.00004   2.76280
    R3        2.93147   0.00001  -0.00021   0.00028   0.00007   2.93153
    R4        2.06747   0.00001   0.00002  -0.00003  -0.00001   2.06747
    R5        2.06747   0.00001   0.00002  -0.00002  -0.00000   2.06747
    R6        2.74285   0.00015   0.00017  -0.00002   0.00015   2.74300
    R7        2.07258  -0.00005  -0.00002  -0.00002  -0.00004   2.07254
    R8        2.07259  -0.00006  -0.00002  -0.00002  -0.00004   2.07254
    R9        2.19486  -0.00072  -0.00000  -0.00026  -0.00026   2.19460
   R10        2.45664   0.34703  -0.00000   0.00000  -0.00000   2.45664
    A1        1.90112  -0.00012  -0.00005  -0.00001  -0.00006   1.90106
    A2        1.90679   0.00000   0.00002  -0.00007  -0.00005   1.90674
    A3        1.90674   0.00004   0.00003   0.00001   0.00004   1.90678
    A4        1.93048   0.00008   0.00005   0.00001   0.00006   1.93054
    A5        1.93050   0.00006   0.00003   0.00002   0.00005   1.93055
    A6        1.88796  -0.00006  -0.00007   0.00003  -0.00004   1.88792
    A7        1.95594   0.00001  -0.00030   0.00044   0.00014   1.95608
    A8        1.93625   0.00002   0.00010  -0.00017  -0.00007   1.93617
    A9        1.93624   0.00002   0.00012  -0.00019  -0.00007   1.93616
   A10        1.87767  -0.00003   0.00009  -0.00012  -0.00003   1.87765
   A11        1.87777  -0.00003  -0.00006   0.00010   0.00005   1.87782
   A12        1.87666  -0.00000   0.00006  -0.00008  -0.00002   1.87664
   A13        3.10607   0.00048   0.00510   0.00183   0.00693   3.11300
   A14        3.13708  -0.00017   0.00231  -0.00406  -0.00175   3.13533
   A15        3.18399   0.00011  -0.00059   0.00117   0.00058   3.18457
   A16        3.12501   0.00004   0.00143  -0.00127   0.00016   3.12517
   A17        3.13871  -0.00004   0.00007  -0.00027  -0.00020   3.13851
   A18        3.11196  -0.00005   0.00020  -0.00043  -0.00023   3.11173
    D1       -3.14156   0.00001  -0.00014   0.00028   0.00014  -3.14142
    D2       -1.04239  -0.00001  -0.00016   0.00031   0.00015  -1.04224
    D3        1.04234   0.00002   0.00006  -0.00002   0.00003   1.04237
    D4       -1.04563  -0.00001  -0.00013   0.00020   0.00007  -1.04556
    D5        1.05353  -0.00003  -0.00014   0.00023   0.00009   1.05362
    D6        3.13827   0.00000   0.00007  -0.00011  -0.00003   3.13823
    D7        1.04576   0.00001  -0.00016   0.00025   0.00009   1.04585
    D8       -3.13826  -0.00001  -0.00018   0.00028   0.00011  -3.13816
    D9       -1.05353   0.00002   0.00004  -0.00005  -0.00001  -1.05354
         Item               Value     Threshold  Converged?
 Maximum Force            0.000723     0.000450     NO 
 RMS     Force            0.000155     0.000300     YES
 Maximum Displacement     0.009901     0.001800     NO 
 RMS     Displacement     0.002347     0.001200     NO 
 Predicted change in Energy=-2.010905D-06
 GradGradGradGradGradGradGradGradGradGradGradGradGradGradGradGradGradGrad

 Leave Link  103 at Thu Aug  7 18:44:26 2025, MaxMem=   104857600 cpu:               0.0 elap:               0.0
 (Enter /Applications/g16/l202.exe)
                          Input orientation:                          
 ---------------------------------------------------------------------
 Center     Atomic      Atomic             Coordinates (Angstroms)
 Number     Number       Type             X           Y           Z
 ---------------------------------------------------------------------
      1          7           0        3.257933   -0.186288    0.001027
      2          6           0        2.167126    0.195965   -0.000100
      3          6           0        0.772809    0.635686   -0.000259
      4          6           0       -0.148341   -0.612520   -0.000259
      5          6           0       -1.554578   -0.252730   -0.000645
      6          7           0       -2.677713    0.042668   -0.000578
      7          1           0        0.034688   -1.234613   -0.884757
      8          1           0        0.034439   -1.234418    0.884432
      9          1           0        0.588567    1.250319   -0.886397
     10          1           0        0.588376    1.250479    0.885731
     11          3           0       -3.948944    0.314636    0.001868
 ---------------------------------------------------------------------
                    Distance matrix (angstroms):
                    1          2          3          4          5
     1  N    0.000000
     2  C    1.155845   0.000000
     3  C    2.617534   1.462011   0.000000
     4  C    3.432838   2.452557   1.551301   0.000000
     5  C    4.812969   3.748654   2.491187   1.451534   0.000000
     6  N    5.940060   4.847264   3.501110   2.612852   1.161332
     7  H    3.503271   2.715965   2.196629   1.096739   2.066764
     8  H    3.502841   2.716017   2.196624   1.096742   2.066893
     9  H    3.158619   2.095002   1.094056   2.190534   2.763473
    10  H    3.158090   2.095030   1.094058   2.190546   2.763612
    11  Li   7.224264   6.117221   4.732655   3.912059   2.460671
                    6          7          8          9         10
     6  N    0.000000
     7  H    3.125754   0.000000
     8  H    3.125694   1.769189   0.000000
     9  H    3.593283   2.545913   3.101098   0.000000
    10  H    3.593284   3.101109   2.545891   1.772127   0.000000
    11  Li   1.300000   4.365272   4.364152   4.717363   4.716384
                   11
    11  Li   0.000000
 Stoichiometry    C4H4LiN2(1+)
 Framework group  C1[X(C4H4LiN2)]
 Deg. of freedom    27
 Full point group                 C1      NOp   1
 RotChk:  IX=2 Diff= 6.30D-04
 Largest Abelian subgroup         C1      NOp   1
 Largest concise Abelian subgroup C1      NOp   1
                         Standard orientation:                         
 ---------------------------------------------------------------------
 Center     Atomic      Atomic             Coordinates (Angstroms)
 Number     Number       Type             X           Y           Z
 ---------------------------------------------------------------------
      1          7           0        3.237384   -0.197052    0.001023
      2          6           0        2.148469    0.190554   -0.000104
      3          6           0        0.756328    0.637119   -0.000262
      4          6           0       -0.170941   -0.606548   -0.000263
      5          6           0       -1.575394   -0.239857   -0.000649
      6          7           0       -2.697065    0.061054   -0.000582
      7          1           0        0.009029   -1.229533   -0.884761
      8          1           0        0.008782   -1.229337    0.884428
      9          1           0        0.575107    1.252649   -0.886401
     10          1           0        0.574916    1.252809    0.885727
     11          3           0       -3.966945    0.339263    0.001865
 ---------------------------------------------------------------------
 Rotational constants (GHZ):          23.8762969           1.1108360           1.0757306
 Leave Link  202 at Thu Aug  7 18:44:26 2025, MaxMem=   104857600 cpu:               0.0 elap:               0.0
 (Enter /Applications/g16/l301.exe)
 Standard basis: 6-31G(d) (6D, 7F)
 Ernie: Thresh=  0.10000D-02 Tol=  0.10000D-05 Strict=F.
 There are   113 symmetry adapted cartesian basis functions of A   symmetry.
 There are   113 symmetry adapted basis functions of A   symmetry.
   113 basis functions,   212 primitive gaussians,   113 cartesian basis functions
    22 alpha electrons       22 beta electrons
       nuclear repulsion energy       200.4189807702 Hartrees.
 IExCor= 4639 DFT=T Ex+Corr=wB97XD ExCW=0 ScaHFX=  1.000000
 ScaDFX=  1.000000  1.000000  1.000000  1.000000 ScalE2=  1.000000  1.000000
 IRadAn=      5 IRanWt=     -1 IRanGd=            0 ICorTp=0 IEmpDi=121
 HFx  wShort=  0.000000 wLong=  0.200000 cFull=  0.222036 cShort=  0.000000 cLong=  0.777964
 DFx  wShort=  0.000000 wLong=  0.200000 cFull=  0.000000 cShort=  0.000000 cLong=  1.000000
 NAtoms=   11 NActive=   11 NUniq=   11 SFac= 1.00D+00 NAtFMM=   60 NAOKFM=F Big=F
 Integral buffers will be    131072 words long.
 Raffenetti 2 integral format.
 Two-electron integral symmetry is turned on.
 R6Disp:  Grimme-D2 Dispersion energy=       -0.0048161351 Hartrees.
 Nuclear repulsion after empirical dispersion term =      200.4141646351 Hartrees.
 Leave Link  301 at Thu Aug  7 18:44:26 2025, MaxMem=   104857600 cpu:               0.0 elap:               0.0
 (Enter /Applications/g16/l302.exe)
 NPDir=0 NMtPBC=     1 NCelOv=     1 NCel=       1 NClECP=     1 NCelD=      1
         NCelK=      1 NCelE2=     1 NClLst=     1 CellRange=     0.0.
 One-electron integrals computed using PRISM.
 One-electron integral symmetry used in STVInt
 NBasis=   113 RedAO= T EigKep=  7.80D-04  NBF=   113
 NBsUse=   113 1.00D-06 EigRej= -1.00D+00 NBFU=   113
 Precomputing XC quadrature grid using
 IXCGrd= 4 IRadAn=           5 IRanWt=          -1 IRanGd=           0 AccXCQ= 0.00D+00.
 Generated NRdTot=       0 NPtTot=           0 NUsed=           0 NTot=          32
 NSgBfM=   113   113   113   113   113 MxSgAt=    11 MxSgA2=    11.
 Leave Link  302 at Thu Aug  7 18:44:26 2025, MaxMem=   104857600 cpu:               0.1 elap:               0.1
 (Enter /Applications/g16/l303.exe)
 DipDrv:  MaxL=1.
 Leave Link  303 at Thu Aug  7 18:44:26 2025, MaxMem=   104857600 cpu:               0.0 elap:               0.0
 (Enter /Applications/g16/l401.exe)
 Initial guess from the checkpoint file:  "/Users/srak/g16_scratch/Gau-74209.chk"
 B after Tr=    -0.000000    0.000000    0.000000
         Rot=    1.000000   -0.000107    0.000032    0.000014 Ang=  -0.01 deg.
 Guess basis will be translated and rotated to current coordinates.
 JPrj=2 DoOrth=T DoCkMO=T.
 Leave Link  401 at Thu Aug  7 18:44:26 2025, MaxMem=   104857600 cpu:               0.0 elap:               0.0
 (Enter /Applications/g16/l502.exe)
 Keep R1 ints in memory in canonical form, NReq=43174005.
 FoFCou: FMM=F IPFlag=           0 FMFlag=           0 FMFlg1=           0
         NFxFlg=           0 DoJE=F BraDBF=F KetDBF=F FulRan=T
         wScrn=  0.000000 ICntrl=       600 IOpCl=  0 I1Cent=           0 NGrid=           0
         NMat0=    1 NMatS0=   6441 NMatT0=    0 NMatD0=    1 NMtDS0=    0 NMtDT0=    0
 Symmetry not used in FoFCou.
 Two-electron integral symmetry not used.
 Closed shell SCF:
 Using DIIS extrapolation, IDIIS=  1040.
 NGot=   104857600 LenX=    63336875 LenY=    63323665
 Requested convergence on RMS density matrix=1.00D-08 within 128 cycles.
 Requested convergence on MAX density matrix=1.00D-06.
 Requested convergence on             energy=1.00D-06.
 No special actions if energy rises.

 Cycle   1  Pass 1  IDiag  1:
 E= -271.428920738164    
 DIIS: error= 4.38D-04 at cycle   1 NSaved=   1.
 NSaved= 1 IEnMin= 1 EnMin= -271.428920738164     IErMin= 1 ErrMin= 4.38D-04
 ErrMax= 4.38D-04  0.00D+00 EMaxC= 1.00D-01 BMatC= 1.70D-05 BMatP= 1.70D-05
 IDIUse=3 WtCom= 9.96D-01 WtEn= 4.38D-03
 Coeff-Com:  0.100D+01
 Coeff-En:   0.100D+01
 Coeff:      0.100D+01
 Gap=     1.156 Goal=   None    Shift=    0.000
 RMSDP=5.69D-05 MaxDP=1.30D-03              OVMax= 1.99D-03

 Cycle   2  Pass 1  IDiag  1:
 E= -271.428947818541     Delta-E=       -0.000027080377 Rises=F Damp=F
 DIIS: error= 7.92D-05 at cycle   2 NSaved=   2.
 NSaved= 2 IEnMin= 2 EnMin= -271.428947818541     IErMin= 2 ErrMin= 7.92D-05
 ErrMax= 7.92D-05  0.00D+00 EMaxC= 1.00D-01 BMatC= 7.43D-07 BMatP= 1.70D-05
 IDIUse=1 WtCom= 1.00D+00 WtEn= 0.00D+00
 Coeff-Com: -0.183D+00 0.118D+01
 Coeff:     -0.183D+00 0.118D+01
 Gap=     0.385 Goal=   None    Shift=    0.000
 RMSDP=1.67D-05 MaxDP=3.62D-04 DE=-2.71D-05 OVMax= 8.03D-04

 Cycle   3  Pass 1  IDiag  1:
 E= -271.428949691580     Delta-E=       -0.000001873039 Rises=F Damp=F
 DIIS: error= 2.36D-05 at cycle   3 NSaved=   3.
 NSaved= 3 IEnMin= 3 EnMin= -271.428949691580     IErMin= 3 ErrMin= 2.36D-05
 ErrMax= 2.36D-05  0.00D+00 EMaxC= 1.00D-01 BMatC= 4.98D-08 BMatP= 7.43D-07
 IDIUse=1 WtCom= 1.00D+00 WtEn= 0.00D+00
 Coeff-Com: -0.297D-01 0.951D-01 0.935D+00
 Coeff:     -0.297D-01 0.951D-01 0.935D+00
 Gap=     0.385 Goal=   None    Shift=    0.000
 RMSDP=4.14D-06 MaxDP=9.15D-05 DE=-1.87D-06 OVMax= 2.07D-04

 Cycle   4  Pass 1  IDiag  1:
 E= -271.428949751848     Delta-E=       -0.000000060268 Rises=F Damp=F
 DIIS: error= 2.21D-05 at cycle   4 NSaved=   4.
 NSaved= 4 IEnMin= 4 EnMin= -271.428949751848     IErMin= 4 ErrMin= 2.21D-05
 ErrMax= 2.21D-05  0.00D+00 EMaxC= 1.00D-01 BMatC= 5.69D-08 BMatP= 4.98D-08
 IDIUse=1 WtCom= 1.00D+00 WtEn= 0.00D+00
 Coeff-Com:  0.574D-02-0.965D-01 0.568D+00 0.523D+00
 Coeff:      0.574D-02-0.965D-01 0.568D+00 0.523D+00
 Gap=     0.385 Goal=   None    Shift=    0.000
 RMSDP=2.04D-06 MaxDP=4.50D-05 DE=-6.03D-08 OVMax= 7.80D-05

 Cycle   5  Pass 1  IDiag  1:
 E= -271.428949803888     Delta-E=       -0.000000052040 Rises=F Damp=F
 DIIS: error= 4.49D-06 at cycle   5 NSaved=   5.
 NSaved= 5 IEnMin= 5 EnMin= -271.428949803888     IErMin= 5 ErrMin= 4.49D-06
 ErrMax= 4.49D-06  0.00D+00 EMaxC= 1.00D-01 BMatC= 3.23D-09 BMatP= 4.98D-08
 IDIUse=1 WtCom= 1.00D+00 WtEn= 0.00D+00
 Coeff-Com:  0.106D-01-0.708D-01 0.686D-02 0.193D+00 0.861D+00
 Coeff:      0.106D-01-0.708D-01 0.686D-02 0.193D+00 0.861D+00
 Gap=     0.385 Goal=   None    Shift=    0.000
 RMSDP=7.94D-07 MaxDP=1.54D-05 DE=-5.20D-08 OVMax= 4.11D-05

 Cycle   6  Pass 1  IDiag  1:
 E= -271.428949808273     Delta-E=       -0.000000004385 Rises=F Damp=F
 DIIS: error= 5.13D-07 at cycle   6 NSaved=   6.
 NSaved= 6 IEnMin= 6 EnMin= -271.428949808273     IErMin= 6 ErrMin= 5.13D-07
 ErrMax= 5.13D-07  0.00D+00 EMaxC= 1.00D-01 BMatC= 4.50D-11 BMatP= 3.23D-09
 IDIUse=1 WtCom= 1.00D+00 WtEn= 0.00D+00
 Coeff-Com:  0.908D-03-0.334D-02-0.184D-01-0.273D-02 0.711D-01 0.952D+00
 Coeff:      0.908D-03-0.334D-02-0.184D-01-0.273D-02 0.711D-01 0.952D+00
 Gap=     0.385 Goal=   None    Shift=    0.000
 RMSDP=1.33D-07 MaxDP=2.03D-06 DE=-4.39D-09 OVMax= 5.96D-06

 Cycle   7  Pass 1  IDiag  1:
 E= -271.428949808338     Delta-E=       -0.000000000065 Rises=F Damp=F
 DIIS: error= 3.39D-07 at cycle   7 NSaved=   7.
 NSaved= 7 IEnMin= 7 EnMin= -271.428949808338     IErMin= 7 ErrMin= 3.39D-07
 ErrMax= 3.39D-07  0.00D+00 EMaxC= 1.00D-01 BMatC= 2.08D-11 BMatP= 4.50D-11
 IDIUse=1 WtCom= 1.00D+00 WtEn= 0.00D+00
 Coeff-Com: -0.382D-03 0.375D-02-0.773D-02-0.154D-01-0.360D-01 0.434D+00
 Coeff-Com:  0.622D+00
 Coeff:     -0.382D-03 0.375D-02-0.773D-02-0.154D-01-0.360D-01 0.434D+00
 Coeff:      0.622D+00
 Gap=     0.385 Goal=   None    Shift=    0.000
 RMSDP=4.71D-08 MaxDP=8.48D-07 DE=-6.46D-11 OVMax= 1.14D-06

 Cycle   8  Pass 1  IDiag  1:
 E= -271.428949808356     Delta-E=       -0.000000000018 Rises=F Damp=F
 DIIS: error= 1.59D-07 at cycle   8 NSaved=   8.
 NSaved= 8 IEnMin= 8 EnMin= -271.428949808356     IErMin= 8 ErrMin= 1.59D-07
 ErrMax= 1.59D-07  0.00D+00 EMaxC= 1.00D-01 BMatC= 3.69D-12 BMatP= 2.08D-11
 IDIUse=1 WtCom= 1.00D+00 WtEn= 0.00D+00
 Coeff-Com: -0.297D-03 0.229D-02-0.160D-02-0.780D-02-0.285D-01 0.115D+00
 Coeff-Com:  0.337D+00 0.584D+00
 Coeff:     -0.297D-03 0.229D-02-0.160D-02-0.780D-02-0.285D-01 0.115D+00
 Coeff:      0.337D+00 0.584D+00
 Gap=     0.385 Goal=   None    Shift=    0.000
 RMSDP=1.74D-08 MaxDP=3.72D-07 DE=-1.78D-11 OVMax= 4.94D-07

 Cycle   9  Pass 1  IDiag  1:
 E= -271.428949808359     Delta-E=       -0.000000000003 Rises=F Damp=F
 DIIS: error= 2.58D-08 at cycle   9 NSaved=   9.
 NSaved= 9 IEnMin= 9 EnMin= -271.428949808359     IErMin= 9 ErrMin= 2.58D-08
 ErrMax= 2.58D-08  0.00D+00 EMaxC= 1.00D-01 BMatC= 1.67D-13 BMatP= 3.69D-12
 IDIUse=1 WtCom= 1.00D+00 WtEn= 0.00D+00
 Coeff-Com: -0.467D-04 0.244D-03 0.583D-03-0.651D-03-0.543D-02-0.212D-01
 Coeff-Com:  0.331D-01 0.192D+00 0.801D+00
 Coeff:     -0.467D-04 0.244D-03 0.583D-03-0.651D-03-0.543D-02-0.212D-01
 Coeff:      0.331D-01 0.192D+00 0.801D+00
 Gap=     0.385 Goal=   None    Shift=    0.000
 RMSDP=7.26D-09 MaxDP=1.70D-07 DE=-2.96D-12 OVMax= 1.61D-07

 SCF Done:  E(RwB97XD) =  -271.428949808     A.U. after    9 cycles
            NFock=  9  Conv=0.73D-08     -V/T= 2.0060
 KE= 2.698229694314D+02 PE=-1.024112758934D+03 EE= 2.824466750588D+02
 Leave Link  502 at Thu Aug  7 18:44:32 2025, MaxMem=   104857600 cpu:               5.7 elap:               5.8
 (Enter /Applications/g16/l701.exe)
 ... and contract with generalized density number  0.
 Compute integral first derivatives.
 R6Disp: Adding Grimme-D2 dispersion energy 1st derivatives to the gradient.
 Leave Link  701 at Thu Aug  7 18:44:32 2025, MaxMem=   104857600 cpu:               0.0 elap:               0.0
 (Enter /Applications/g16/l702.exe)
 L702 exits ... SP integral derivatives will be done elsewhere.
 Leave Link  702 at Thu Aug  7 18:44:32 2025, MaxMem=   104857600 cpu:               0.0 elap:               0.0
 (Enter /Applications/g16/l703.exe)
 Integral derivatives from FoFJK, PRISM(SPDF).
 Compute integral first derivatives, UseDBF=F ICtDFT=           0.
 Calling FoFJK, ICntrl=      2127 FMM=F ISym2X=0 I1Cent= 0 IOpClX= 0 NMat=1 NMatS=1 NMatT=0.
 FoFJK:  IHMeth= 1 ICntrl=    2127 DoSepK=T KAlg= 0 I1Cent=           0 FoldK=F
 IRaf=         1 NMat=       1 IRICut=       1 DoRegI=T DoRafI=F ISym2E= 0 IDoP0=0 IntGTp=1.
 FoFCou: FMM=F IPFlag=           0 FMFlag=      100000 FMFlg1=         800
         NFxFlg=           0 DoJE=F BraDBF=F KetDBF=F FulRan=T
         wScrn=  0.000000 ICntrl=      2527 IOpCl=  0 I1Cent=           0 NGrid=           0
         NMat0=    1 NMatS0=      1 NMatT0=    0 NMatD0=    1 NMtDS0=    0 NMtDT0=    0
 Symmetry not used in FoFCou.
 Leave Link  703 at Thu Aug  7 18:44:35 2025, MaxMem=   104857600 cpu:               2.5 elap:               2.5
 (Enter /Applications/g16/l716.exe)
 Dipole        =-5.71870923D+00 4.33525699D-01 2.47068029D-03
 ***** Axes restored to original set *****
 -------------------------------------------------------------------
 Center     Atomic                   Forces (Hartrees/Bohr)
 Number     Number              X              Y              Z
 -------------------------------------------------------------------
      1        7           0.000001314   -0.000008728   -0.000032230
      2        6          -0.000054960    0.000048567    0.000069628
      3        6          -0.000057414   -0.000052528   -0.000040328
      4        6           0.000223375   -0.000136282   -0.000026362
      5        6          -0.000488913    0.000095713    0.000037821
      6        7           0.339759355   -0.072601564   -0.000647993
      7        1          -0.000036145    0.000022908    0.000023331
      8        1          -0.000052622    0.000025811   -0.000024396
      9        1           0.000028380    0.000029463   -0.000001051
     10        1           0.000043499    0.000025051    0.000001559
     11        3          -0.339365870    0.072551590    0.000640020
 -------------------------------------------------------------------
 Cartesian Forces:  Max     0.339759355 RMS     0.085482855
 Leave Link  716 at Thu Aug  7 18:44:35 2025, MaxMem=   104857600 cpu:               0.0 elap:               0.0
 (Enter /Applications/g16/l103.exe)

 GradGradGradGradGradGradGradGradGradGradGradGradGradGradGradGradGradGrad
 Berny optimization.
 Using GEDIIS/GDIIS optimizer.
 FormGI is forming the generalized inverse of G from B-inverse, IUseBI=4.
 Internal  Forces:  Max     0.347034923 RMS     0.057052240
 Search for a local minimum.
 Step number   5 out of a maximum of   47
 All quantities printed in internal units (Hartrees-Bohrs-Radians)
 RMS Force = .76361D-04 SwitMx=.10000D-02 MixMth= 2
 Mixed Optimization -- En-DIIS/RFO-DIIS
 Swapping is turned off.
 Update second derivatives using D2CorX and points    1    2    3    4    5
 DE= -1.89D-06 DEPred=-2.01D-06 R= 9.39D-01
 TightC=F SS=  1.41D+00  RLast= 7.20D-03 DXNew= 2.5227D-01 2.1585D-02
 Trust test= 9.39D-01 RLast= 7.20D-03 DXMaxT set to 1.50D-01
 ITU=  1 -1  0  1  0
     Eigenvalues ---    0.00230   0.01333   0.03809   0.04971   0.05308
     Eigenvalues ---    0.05622   0.05820   0.06673   0.07269   0.08710
     Eigenvalues ---    0.10741   0.15986   0.16026   0.16080   0.17094
     Eigenvalues ---    0.22793   0.24337   0.27335   0.34129   0.34180
     Eigenvalues ---    0.34307   0.34345   0.35198   0.37109   1.27439
     Eigenvalues ---    1.305471000.000001000.000001000.000001000.00000
     Eigenvalues --- 1000.000001000.000001000.000001000.000001000.00000
     Eigenvalues --- 1000.000001000.00000
 En-DIIS/RFO-DIIS/Sim-DIIS IScMMF=       -3 using points:     5    4    3    2
 RFO step:  Lambda=-1.21005458D-04.
 NNeg= 0 NGDIIS= 4 SimSw=  2.50D-03 Rises=F DC= -1.89D-06 SmlDif=  1.00D-05
 NRisDI= 0 DoIntr=F SqrtH=F CThrHd= 10.0 CDAdj=  3.0
 RMS Error=  0.5955644871D-03 NUsed= 4 OKEnD=F EnDIS=F
 InvSVX:  RCond= 1.02D-05 Info=           0 Equed=N FErr=  3.72D-15 BErr=  3.42D-17
 DidBck=F Rises=F RFO-DIIS coefs:    0.89134    0.06684    0.13109   -0.08926
 Iteration  1 RMS(Cart)=  0.00073617 RMS(Int)=  0.00000092
 Iteration  2 RMS(Cart)=  0.00000103 RMS(Int)=  0.00000010
 Iteration  3 RMS(Cart)=  0.00000000 RMS(Int)=  0.00000010
 Iteration  1 RMS(Cart)=  0.00000000 RMS(Int)=  0.00000000
 ITry= 1 IFail=0 DXMaxC= 2.97D-03 DCOld= 1.00D+10 DXMaxT= 1.50D-01 DXLimC= 3.00D+00 Rises=F
 Variable       Old X    -DE/DX   Delta X   Delta X   Delta X     New X
                                 (Linear)    (Quad)   (Total)
    R1        2.18423   0.00000  -0.00000   0.00001   0.00000   2.18423
    R2        2.76280  -0.00006   0.00002  -0.00016  -0.00014   2.76266
    R3        2.93153   0.00001   0.00001   0.00015   0.00015   2.93169
    R4        2.06747   0.00001  -0.00001   0.00002   0.00001   2.06748
    R5        2.06747   0.00001  -0.00001   0.00001   0.00000   2.06747
    R6        2.74300   0.00010  -0.00010   0.00020   0.00011   2.74311
    R7        2.07254  -0.00004   0.00003  -0.00010  -0.00007   2.07247
    R8        2.07254  -0.00004   0.00003  -0.00011  -0.00008   2.07246
    R9        2.19460  -0.00039   0.00007  -0.00035  -0.00028   2.19432
   R10        2.45664   0.34703   0.00000   0.00000   0.00000   2.45664
    A1        1.90106   0.00001  -0.00005  -0.00002  -0.00007   1.90100
    A2        1.90674  -0.00003   0.00007  -0.00015  -0.00008   1.90666
    A3        1.90678  -0.00005   0.00006  -0.00028  -0.00022   1.90656
    A4        1.93054   0.00005  -0.00006   0.00027   0.00021   1.93075
    A5        1.93055   0.00005  -0.00006   0.00026   0.00020   1.93075
    A6        1.88792  -0.00004   0.00004  -0.00009  -0.00005   1.88787
    A7        1.95608  -0.00004  -0.00000  -0.00005  -0.00006   1.95602
    A8        1.93617   0.00003  -0.00006   0.00013   0.00007   1.93624
    A9        1.93616   0.00004  -0.00005   0.00013   0.00008   1.93624
   A10        1.87765  -0.00000   0.00011  -0.00013  -0.00002   1.87762
   A11        1.87782  -0.00002   0.00008  -0.00022  -0.00014   1.87768
   A12        1.87664  -0.00001  -0.00007   0.00013   0.00006   1.87671
   A13        3.11300  -0.00004  -0.00002  -0.00046  -0.00049   3.11251
   A14        3.13533   0.00004   0.00088  -0.00096  -0.00008   3.13526
   A15        3.18457   0.00010   0.00006   0.00146   0.00153   3.18610
   A16        3.12517   0.00005   0.00023   0.00263   0.00286   3.12803
   A17        3.13851  -0.00003   0.00009  -0.00059  -0.00050   3.13801
   A18        3.11173  -0.00005  -0.00001  -0.00063  -0.00064   3.11109
    D1       -3.14142  -0.00001  -0.00004  -0.00023  -0.00028   3.14149
    D2       -1.04224  -0.00002   0.00005  -0.00035  -0.00030  -1.04254
    D3        1.04237   0.00002  -0.00010  -0.00002  -0.00012   1.04226
    D4       -1.04556  -0.00001  -0.00002  -0.00027  -0.00029  -1.04585
    D5        1.05362  -0.00002   0.00008  -0.00038  -0.00031   1.05331
    D6        3.13823   0.00002  -0.00008  -0.00005  -0.00013   3.13811
    D7        1.04585   0.00001  -0.00005  -0.00003  -0.00009   1.04577
    D8       -3.13816  -0.00001   0.00004  -0.00015  -0.00010  -3.13826
    D9       -1.05354   0.00003  -0.00011   0.00018   0.00007  -1.05347
         Item               Value     Threshold  Converged?
 Maximum Force            0.000394     0.000450     YES
 RMS     Force            0.000076     0.000300     YES
 Maximum Displacement     0.002972     0.001800     NO 
 RMS     Displacement     0.000736     0.001200     YES
 Predicted change in Energy=-2.866057D-07
 Lowest energy point so far.  Saving SCF results.
 GradGradGradGradGradGradGradGradGradGradGradGradGradGradGradGradGradGrad

 Leave Link  103 at Thu Aug  7 18:44:35 2025, MaxMem=   104857600 cpu:               0.0 elap:               0.0
 (Enter /Applications/g16/l202.exe)
                          Input orientation:                          
 ---------------------------------------------------------------------
 Center     Atomic      Atomic             Coordinates (Angstroms)
 Number     Number       Type             X           Y           Z
 ---------------------------------------------------------------------
      1          7           0        3.257987   -0.186150   -0.000546
      2          6           0        2.167052    0.195745    0.000676
      3          6           0        0.772875    0.635665    0.000043
      4          6           0       -0.148434   -0.612523   -0.000038
      5          6           0       -1.554674   -0.252516   -0.000518
      6          7           0       -2.677555    0.043266   -0.000913
      7          1           0        0.034528   -1.234640   -0.884488
      8          1           0        0.034045   -1.234398    0.884678
      9          1           0        0.589115    1.250328   -0.886182
     10          1           0        0.588526    1.250650    0.885917
     11          3           0       -3.949102    0.313754    0.001432
 ---------------------------------------------------------------------
                    Distance matrix (angstroms):
                    1          2          3          4          5
     1  N    0.000000
     2  C    1.155847   0.000000
     3  C    2.617472   1.461937   0.000000
     4  C    3.433002   2.452504   1.551382   0.000000
     5  C    4.813118   3.748624   2.491255   1.451590   0.000000
     6  N    5.939974   4.847007   3.500915   2.612760   1.161185
     7  H    3.503052   2.716096   2.196723   1.096702   2.066768
     8  H    3.503747   2.715969   2.196722   1.096699   2.066807
     9  H    3.157641   2.094886   1.094062   2.190764   2.763833
    10  H    3.158518   2.094808   1.094059   2.190762   2.763798
    11  Li   7.224406   6.117293   4.732937   3.911913   2.460478
                    6          7          8          9         10
     6  N    0.000000
     7  H    3.125563   0.000000
     8  H    3.125616   1.769166   0.000000
     9  H    3.593304   2.546102   3.101276   0.000000
    10  H    3.593262   3.101276   2.546156   1.772099   0.000000
    11  Li   1.300000   4.364824   4.363756   4.718097   4.717007
                   11
    11  Li   0.000000
 Stoichiometry    C4H4LiN2(1+)
 Framework group  C1[X(C4H4LiN2)]
 Deg. of freedom    27
 Full point group                 C1      NOp   1
 RotChk:  IX=0 Diff= 5.69D-04
 Largest Abelian subgroup         C1      NOp   1
 Largest concise Abelian subgroup C1      NOp   1
                         Standard orientation:                         
 ---------------------------------------------------------------------
 Center     Atomic      Atomic             Coordinates (Angstroms)
 Number     Number       Type             X           Y           Z
 ---------------------------------------------------------------------
      1          7           0        3.237440   -0.196962   -0.000364
      2          6           0        2.148394    0.190284    0.000705
      3          6           0        0.756393    0.637043   -0.000104
      4          6           0       -0.171033   -0.606608    0.000318
      5          6           0       -1.575488   -0.239702   -0.000306
      6          7           0       -2.696904    0.061590   -0.000819
      7          1           0        0.008871   -1.229970   -0.883882
      8          1           0        0.008394   -1.229015    0.885284
      9          1           0        0.575650    1.252244   -0.886575
     10          1           0        0.575067    1.253281    0.885523
     11          3           0       -3.967108    0.338317    0.001418
 ---------------------------------------------------------------------
 Rotational constants (GHZ):          23.8831844           1.1108266           1.0757354
 Leave Link  202 at Thu Aug  7 18:44:35 2025, MaxMem=   104857600 cpu:               0.0 elap:               0.0
 (Enter /Applications/g16/l301.exe)
 Standard basis: 6-31G(d) (6D, 7F)
 Ernie: Thresh=  0.10000D-02 Tol=  0.10000D-05 Strict=F.
 There are   113 symmetry adapted cartesian basis functions of A   symmetry.
 There are   113 symmetry adapted basis functions of A   symmetry.
   113 basis functions,   212 primitive gaussians,   113 cartesian basis functions
    22 alpha electrons       22 beta electrons
       nuclear repulsion energy       200.4216461977 Hartrees.
 IExCor= 4639 DFT=T Ex+Corr=wB97XD ExCW=0 ScaHFX=  1.000000
 ScaDFX=  1.000000  1.000000  1.000000  1.000000 ScalE2=  1.000000  1.000000
 IRadAn=      5 IRanWt=     -1 IRanGd=            0 ICorTp=0 IEmpDi=121
 HFx  wShort=  0.000000 wLong=  0.200000 cFull=  0.222036 cShort=  0.000000 cLong=  0.777964
 DFx  wShort=  0.000000 wLong=  0.200000 cFull=  0.000000 cShort=  0.000000 cLong=  1.000000
 NAtoms=   11 NActive=   11 NUniq=   11 SFac= 1.00D+00 NAtFMM=   60 NAOKFM=F Big=F
 Integral buffers will be    131072 words long.
 Raffenetti 2 integral format.
 Two-electron integral symmetry is turned on.
 R6Disp:  Grimme-D2 Dispersion energy=       -0.0048160019 Hartrees.
 Nuclear repulsion after empirical dispersion term =      200.4168301959 Hartrees.
 Leave Link  301 at Thu Aug  7 18:44:35 2025, MaxMem=   104857600 cpu:               0.0 elap:               0.0
 (Enter /Applications/g16/l302.exe)
 NPDir=0 NMtPBC=     1 NCelOv=     1 NCel=       1 NClECP=     1 NCelD=      1
         NCelK=      1 NCelE2=     1 NClLst=     1 CellRange=     0.0.
 One-electron integrals computed using PRISM.
 One-electron integral symmetry used in STVInt
 NBasis=   113 RedAO= T EigKep=  7.80D-04  NBF=   113
 NBsUse=   113 1.00D-06 EigRej= -1.00D+00 NBFU=   113
 Precomputing XC quadrature grid using
 IXCGrd= 4 IRadAn=           5 IRanWt=          -1 IRanGd=           0 AccXCQ= 0.00D+00.
 Generated NRdTot=       0 NPtTot=           0 NUsed=           0 NTot=          32
 NSgBfM=   113   113   113   113   113 MxSgAt=    11 MxSgA2=    11.
 Leave Link  302 at Thu Aug  7 18:44:35 2025, MaxMem=   104857600 cpu:               0.1 elap:               0.1
 (Enter /Applications/g16/l303.exe)
 DipDrv:  MaxL=1.
 Leave Link  303 at Thu Aug  7 18:44:35 2025, MaxMem=   104857600 cpu:               0.0 elap:               0.0
 (Enter /Applications/g16/l401.exe)
 Initial guess from the checkpoint file:  "/Users/srak/g16_scratch/Gau-74209.chk"
 B after Tr=     0.000000   -0.000000   -0.000000
         Rot=    1.000000    0.000124   -0.000032    0.000009 Ang=   0.01 deg.
 Guess basis will be translated and rotated to current coordinates.
 JPrj=2 DoOrth=T DoCkMO=T.
 Leave Link  401 at Thu Aug  7 18:44:35 2025, MaxMem=   104857600 cpu:               0.0 elap:               0.0
 (Enter /Applications/g16/l502.exe)
 Keep R1 ints in memory in canonical form, NReq=43174005.
 FoFCou: FMM=F IPFlag=           0 FMFlag=           0 FMFlg1=           0
         NFxFlg=           0 DoJE=F BraDBF=F KetDBF=F FulRan=T
         wScrn=  0.000000 ICntrl=       600 IOpCl=  0 I1Cent=           0 NGrid=           0
         NMat0=    1 NMatS0=   6441 NMatT0=    0 NMatD0=    1 NMtDS0=    0 NMtDT0=    0
 Symmetry not used in FoFCou.
 Two-electron integral symmetry not used.
 Closed shell SCF:
 Using DIIS extrapolation, IDIIS=  1040.
 NGot=   104857600 LenX=    63336875 LenY=    63323665
 Requested convergence on RMS density matrix=1.00D-08 within 128 cycles.
 Requested convergence on MAX density matrix=1.00D-06.
 Requested convergence on             energy=1.00D-06.
 No special actions if energy rises.

 Cycle   1  Pass 1  IDiag  1:
 E= -271.428947172123    
 DIIS: error= 1.45D-04 at cycle   1 NSaved=   1.
 NSaved= 1 IEnMin= 1 EnMin= -271.428947172123     IErMin= 1 ErrMin= 1.45D-04
 ErrMax= 1.45D-04  0.00D+00 EMaxC= 1.00D-01 BMatC= 1.66D-06 BMatP= 1.66D-06
 IDIUse=3 WtCom= 9.99D-01 WtEn= 1.45D-03
 Coeff-Com:  0.100D+01
 Coeff-En:   0.100D+01
 Coeff:      0.100D+01
 Gap=     1.156 Goal=   None    Shift=    0.000
 RMSDP=1.79D-05 MaxDP=4.85D-04              OVMax= 6.00D-04

 Cycle   2  Pass 1  IDiag  1:
 E= -271.428949822489     Delta-E=       -0.000002650365 Rises=F Damp=F
 DIIS: error= 2.51D-05 at cycle   2 NSaved=   2.
 NSaved= 2 IEnMin= 2 EnMin= -271.428949822489     IErMin= 2 ErrMin= 2.51D-05
 ErrMax= 2.51D-05  0.00D+00 EMaxC= 1.00D-01 BMatC= 7.20D-08 BMatP= 1.66D-06
 IDIUse=1 WtCom= 1.00D+00 WtEn= 0.00D+00
 Coeff-Com: -0.177D+00 0.118D+01
 Coeff:     -0.177D+00 0.118D+01
 Gap=     0.385 Goal=   None    Shift=    0.000
 RMSDP=5.20D-06 MaxDP=1.31D-04 DE=-2.65D-06 OVMax= 2.37D-04

 Cycle   3  Pass 1  IDiag  1:
 E= -271.428950004999     Delta-E=       -0.000000182510 Rises=F Damp=F
 DIIS: error= 8.08D-06 at cycle   3 NSaved=   3.
 NSaved= 3 IEnMin= 3 EnMin= -271.428950004999     IErMin= 3 ErrMin= 8.08D-06
 ErrMax= 8.08D-06  0.00D+00 EMaxC= 1.00D-01 BMatC= 6.21D-09 BMatP= 7.20D-08
 IDIUse=1 WtCom= 1.00D+00 WtEn= 0.00D+00
 Coeff-Com: -0.413D-01 0.162D+00 0.880D+00
 Coeff:     -0.413D-01 0.162D+00 0.880D+00
 Gap=     0.385 Goal=   None    Shift=    0.000
 RMSDP=1.31D-06 MaxDP=2.18D-05 DE=-1.83D-07 OVMax= 5.80D-05

 Cycle   4  Pass 1  IDiag  1:
 E= -271.428950011556     Delta-E=       -0.000000006557 Rises=F Damp=F
 DIIS: error= 6.56D-06 at cycle   4 NSaved=   4.
 NSaved= 4 IEnMin= 4 EnMin= -271.428950011556     IErMin= 4 ErrMin= 6.56D-06
 ErrMax= 6.56D-06  0.00D+00 EMaxC= 1.00D-01 BMatC= 5.82D-09 BMatP= 6.21D-09
 IDIUse=1 WtCom= 1.00D+00 WtEn= 0.00D+00
 Coeff-Com:  0.106D-02-0.745D-01 0.525D+00 0.548D+00
 Coeff:      0.106D-02-0.745D-01 0.525D+00 0.548D+00
 Gap=     0.385 Goal=   None    Shift=    0.000
 RMSDP=6.78D-07 MaxDP=1.43D-05 DE=-6.56D-09 OVMax= 2.34D-05

 Cycle   5  Pass 1  IDiag  1:
 E= -271.428950016862     Delta-E=       -0.000000005306 Rises=F Damp=F
 DIIS: error= 1.51D-06 at cycle   5 NSaved=   5.
 NSaved= 5 IEnMin= 5 EnMin= -271.428950016862     IErMin= 5 ErrMin= 1.51D-06
 ErrMax= 1.51D-06  0.00D+00 EMaxC= 1.00D-01 BMatC= 4.14D-10 BMatP= 5.82D-09
 IDIUse=1 WtCom= 1.00D+00 WtEn= 0.00D+00
 Coeff-Com:  0.103D-01-0.740D-01 0.401D-01 0.227D+00 0.797D+00
 Coeff:      0.103D-01-0.740D-01 0.401D-01 0.227D+00 0.797D+00
 Gap=     0.385 Goal=   None    Shift=    0.000
 RMSDP=2.47D-07 MaxDP=3.83D-06 DE=-5.31D-09 OVMax= 1.16D-05

 Cycle   6  Pass 1  IDiag  1:
 E= -271.428950017360     Delta-E=       -0.000000000498 Rises=F Damp=F
 DIIS: error= 2.90D-07 at cycle   6 NSaved=   6.
 NSaved= 6 IEnMin= 6 EnMin= -271.428950017360     IErMin= 6 ErrMin= 2.90D-07
 ErrMax= 2.90D-07  0.00D+00 EMaxC= 1.00D-01 BMatC= 1.83D-11 BMatP= 4.14D-10
 IDIUse=1 WtCom= 1.00D+00 WtEn= 0.00D+00
 Coeff-Com:  0.310D-02-0.175D-01-0.228D-01 0.283D-01 0.232D+00 0.777D+00
 Coeff:      0.310D-02-0.175D-01-0.228D-01 0.283D-01 0.232D+00 0.777D+00
 Gap=     0.385 Goal=   None    Shift=    0.000
 RMSDP=4.98D-08 MaxDP=7.23D-07 DE=-4.98D-10 OVMax= 2.21D-06

 Cycle   7  Pass 1  IDiag  1:
 E= -271.428950017379     Delta-E=       -0.000000000019 Rises=F Damp=F
 DIIS: error= 8.55D-08 at cycle   7 NSaved=   7.
 NSaved= 7 IEnMin= 7 EnMin= -271.428950017379     IErMin= 7 ErrMin= 8.55D-08
 ErrMax= 8.55D-08  0.00D+00 EMaxC= 1.00D-01 BMatC= 2.06D-12 BMatP= 1.83D-11
 IDIUse=1 WtCom= 1.00D+00 WtEn= 0.00D+00
 Coeff-Com:  0.529D-04 0.120D-02-0.925D-02-0.104D-01-0.349D-02 0.242D+00
 Coeff-Com:  0.780D+00
 Coeff:      0.529D-04 0.120D-02-0.925D-02-0.104D-01-0.349D-02 0.242D+00
 Coeff:      0.780D+00
 Gap=     0.385 Goal=   None    Shift=    0.000
 RMSDP=1.82D-08 MaxDP=3.32D-07 DE=-1.92D-11 OVMax= 5.32D-07

 Cycle   8  Pass 1  IDiag  1:
 E= -271.428950017385     Delta-E=       -0.000000000006 Rises=F Damp=F
 DIIS: error= 7.52D-08 at cycle   8 NSaved=   8.
 NSaved= 8 IEnMin= 8 EnMin= -271.428950017385     IErMin= 8 ErrMin= 7.52D-08
 ErrMax= 7.52D-08  0.00D+00 EMaxC= 1.00D-01 BMatC= 8.27D-13 BMatP= 2.06D-12
 IDIUse=1 WtCom= 1.00D+00 WtEn= 0.00D+00
 Coeff-Com: -0.282D-03 0.241D-02-0.234D-02-0.857D-02-0.270D-01 0.541D-01
 Coeff-Com:  0.448D+00 0.533D+00
 Coeff:     -0.282D-03 0.241D-02-0.234D-02-0.857D-02-0.270D-01 0.541D-01
 Coeff:      0.448D+00 0.533D+00
 Gap=     0.385 Goal=   None    Shift=    0.000
 RMSDP=7.47D-09 MaxDP=1.71D-07 DE=-5.91D-12 OVMax= 2.29D-07

 SCF Done:  E(RwB97XD) =  -271.428950017     A.U. after    8 cycles
            NFock=  8  Conv=0.75D-08     -V/T= 2.0059
 KE= 2.698237582212D+02 PE=-1.024118956423D+03 EE= 2.824494179881D+02
 Leave Link  502 at Thu Aug  7 18:44:41 2025, MaxMem=   104857600 cpu:               5.5 elap:               5.6
 (Enter /Applications/g16/l701.exe)
 ... and contract with generalized density number  0.
 Compute integral first derivatives.
 R6Disp: Adding Grimme-D2 dispersion energy 1st derivatives to the gradient.
 Leave Link  701 at Thu Aug  7 18:44:41 2025, MaxMem=   104857600 cpu:               0.0 elap:               0.0
 (Enter /Applications/g16/l702.exe)
 L702 exits ... SP integral derivatives will be done elsewhere.
 Leave Link  702 at Thu Aug  7 18:44:41 2025, MaxMem=   104857600 cpu:               0.0 elap:               0.0
 (Enter /Applications/g16/l703.exe)
 Integral derivatives from FoFJK, PRISM(SPDF).
 Compute integral first derivatives, UseDBF=F ICtDFT=           0.
 Calling FoFJK, ICntrl=      2127 FMM=F ISym2X=0 I1Cent= 0 IOpClX= 0 NMat=1 NMatS=1 NMatT=0.
 FoFJK:  IHMeth= 1 ICntrl=    2127 DoSepK=T KAlg= 0 I1Cent=           0 FoldK=F
 IRaf=         1 NMat=       1 IRICut=       1 DoRegI=T DoRafI=F ISym2E= 0 IDoP0=0 IntGTp=1.
 FoFCou: FMM=F IPFlag=           0 FMFlag=      100000 FMFlg1=         800
         NFxFlg=           0 DoJE=F BraDBF=F KetDBF=F FulRan=T
         wScrn=  0.000000 ICntrl=      2527 IOpCl=  0 I1Cent=           0 NGrid=           0
         NMat0=    1 NMatS0=      1 NMatT0=    0 NMatD0=    1 NMtDS0=    0 NMtDT0=    0
 Symmetry not used in FoFCou.
 Leave Link  703 at Thu Aug  7 18:44:43 2025, MaxMem=   104857600 cpu:               2.4 elap:               2.4
 (Enter /Applications/g16/l716.exe)
 Dipole        =-5.71944875D+00 4.31544106D-01 3.29153428D-03
 ***** Axes restored to original set *****
 -------------------------------------------------------------------
 Center     Atomic                   Forces (Hartrees/Bohr)
 Number     Number              X              Y              Z
 -------------------------------------------------------------------
      1        7          -0.000010194   -0.000021429    0.000056654
      2        6           0.000017687    0.000053904   -0.000121891
      3        6          -0.000079239   -0.000078283    0.000064901
      4        6           0.000172830   -0.000066423   -0.000001142
      5        6          -0.000120123    0.000038889   -0.000010964
      6        7           0.339500622   -0.072149492   -0.000597209
      7        1          -0.000023612    0.000015648    0.000006724
      8        1          -0.000026037    0.000013751   -0.000006364
      9        1           0.000026072    0.000009366   -0.000004937
     10        1          -0.000004772    0.000016395    0.000003496
     11        3          -0.339453235    0.072167674    0.000610732
 -------------------------------------------------------------------
 Cartesian Forces:  Max     0.339500622 RMS     0.085440696
 Leave Link  716 at Thu Aug  7 18:44:43 2025, MaxMem=   104857600 cpu:               0.0 elap:               0.0
 (Enter /Applications/g16/l103.exe)

 GradGradGradGradGradGradGradGradGradGradGradGradGradGradGradGradGradGrad
 Berny optimization.
 Using GEDIIS/GDIIS optimizer.
 FormGI is forming the generalized inverse of G from B-inverse, IUseBI=4.
 Internal  Forces:  Max     0.347040274 RMS     0.057053079
 Search for a local minimum.
 Step number   6 out of a maximum of   47
 All quantities printed in internal units (Hartrees-Bohrs-Radians)
 RMS Force = .33852D-04 SwitMx=.10000D-02 MixMth= 2
 Mixed Optimization -- En-DIIS/RFO-DIIS
 Swapping is turned off.
 Update second derivatives using D2CorX and points    1    2    3    4    5
                                                      6
 DE= -2.09D-07 DEPred=-2.87D-07 R= 7.29D-01
 Trust test= 7.29D-01 RLast= 3.49D-03 DXMaxT set to 1.50D-01
 ITU=  0  1 -1  0  1  0
     Eigenvalues ---    0.00230   0.01640   0.04008   0.05098   0.05329
     Eigenvalues ---    0.05790   0.05903   0.06418   0.07213   0.08725
     Eigenvalues ---    0.11016   0.15887   0.16068   0.16205   0.16619
     Eigenvalues ---    0.23605   0.24628   0.28853   0.33670   0.34138
     Eigenvalues ---    0.34336   0.34365   0.35475   0.37024   1.24465
     Eigenvalues ---    1.305541000.000001000.000001000.000001000.00000
     Eigenvalues --- 1000.000001000.000001000.000001000.000001000.00000
     Eigenvalues --- 1000.000001000.00000
 En-DIIS/RFO-DIIS/Sim-DIIS IScMMF=       -3 using points:     6    5    4    3    2
 RFO step:  Lambda=-1.21117213D-04.
 NNeg= 0 NGDIIS= 5 SimSw=  2.50D-03 Rises=F DC= -2.09D-07 SmlDif=  1.00D-05
 NRisDI= 0 DoIntr=F SqrtH=F CThrHd= 10.0 CDAdj=  3.0
 RMS Error=  0.8698136644D-03 NUsed= 5 OKEnD=F EnDIS=F
 InvSVX:  RCond= 9.50D-07 Info=           0 Equed=N FErr=  2.19D-14 BErr=  6.55D-17
 DidBck=F Rises=F RFO-DIIS coefs:    0.93847    0.66414   -0.21610   -0.30988   -0.07663
 Iteration  1 RMS(Cart)=  0.00086722 RMS(Int)=  0.00000108
 Iteration  2 RMS(Cart)=  0.00000114 RMS(Int)=  0.00000015
 Iteration  3 RMS(Cart)=  0.00000000 RMS(Int)=  0.00000015
 Iteration  1 RMS(Cart)=  0.00000000 RMS(Int)=  0.00000000
 ITry= 1 IFail=0 DXMaxC= 3.32D-03 DCOld= 1.00D+10 DXMaxT= 1.50D-01 DXLimC= 3.00D+00 Rises=F
 Variable       Old X    -DE/DX   Delta X   Delta X   Delta X     New X
                                 (Linear)    (Quad)   (Total)
    R1        2.18423  -0.00000   0.00000   0.00000   0.00000   2.18424
    R2        2.76266  -0.00000   0.00002  -0.00012  -0.00011   2.76255
    R3        2.93169  -0.00004   0.00031  -0.00013   0.00018   2.93187
    R4        2.06748   0.00000  -0.00005   0.00004  -0.00001   2.06747
    R5        2.06747   0.00001  -0.00005   0.00005  -0.00000   2.06747
    R6        2.74311   0.00008  -0.00036   0.00037   0.00000   2.74311
    R7        2.07247  -0.00002   0.00007  -0.00011  -0.00005   2.07242
    R8        2.07246  -0.00002   0.00007  -0.00012  -0.00005   2.07241
    R9        2.19432  -0.00004  -0.00000  -0.00021  -0.00021   2.19411
   R10        2.45664   0.34704   0.00000   0.00000   0.00000   2.45664
    A1        1.90100   0.00003  -0.00013   0.00005  -0.00008   1.90091
    A2        1.90666  -0.00004   0.00017  -0.00028  -0.00011   1.90655
    A3        1.90656  -0.00000   0.00022  -0.00025  -0.00003   1.90653
    A4        1.93075   0.00002  -0.00021   0.00033   0.00012   1.93087
    A5        1.93075   0.00000  -0.00020   0.00030   0.00010   1.93086
    A6        1.88787  -0.00001   0.00016  -0.00016  -0.00000   1.88787
    A7        1.95602  -0.00005   0.00047  -0.00047  -0.00000   1.95602
    A8        1.93624   0.00002  -0.00036   0.00034  -0.00003   1.93621
    A9        1.93624   0.00002  -0.00038   0.00037  -0.00001   1.93624
   A10        1.87762   0.00000   0.00021  -0.00017   0.00004   1.87767
   A11        1.87768   0.00000   0.00036  -0.00037  -0.00001   1.87767
   A12        1.87671  -0.00000  -0.00029   0.00030   0.00001   1.87671
   A13        3.11251   0.00000   0.00069  -0.00043   0.00026   3.11277
   A14        3.13526   0.00004  -0.00151   0.00151  -0.00000   3.13525
   A15        3.18610   0.00008   0.00132   0.00090   0.00222   3.18832
   A16        3.12803  -0.00011  -0.00091  -0.00102  -0.00193   3.12611
   A17        3.13801   0.00001   0.00005  -0.00035  -0.00030   3.13772
   A18        3.11109  -0.00004  -0.00043  -0.00051  -0.00095   3.11014
    D1        3.14149   0.00001   0.00017  -0.00017  -0.00000   3.14149
    D2       -1.04254  -0.00001   0.00051  -0.00048   0.00003  -1.04251
    D3        1.04226   0.00002  -0.00034   0.00036   0.00002   1.04227
    D4       -1.04585  -0.00000   0.00017  -0.00029  -0.00012  -1.04597
    D5        1.05331  -0.00002   0.00051  -0.00060  -0.00009   1.05322
    D6        3.13811   0.00001  -0.00035   0.00024  -0.00010   3.13801
    D7        1.04577  -0.00000   0.00011  -0.00008   0.00002   1.04579
    D8       -3.13826  -0.00002   0.00045  -0.00039   0.00006  -3.13820
    D9       -1.05347   0.00001  -0.00041   0.00045   0.00004  -1.05342
         Item               Value     Threshold  Converged?
 Maximum Force            0.000110     0.000450     YES
 RMS     Force            0.000034     0.000300     YES
 Maximum Displacement     0.003325     0.001800     NO 
 RMS     Displacement     0.000867     0.001200     YES
 Predicted change in Energy=-2.925324D-07
 Lowest energy point so far.  Saving SCF results.
 GradGradGradGradGradGradGradGradGradGradGradGradGradGradGradGradGradGrad

 Leave Link  103 at Thu Aug  7 18:44:43 2025, MaxMem=   104857600 cpu:               0.0 elap:               0.0
 (Enter /Applications/g16/l202.exe)
                          Input orientation:                          
 ---------------------------------------------------------------------
 Center     Atomic      Atomic             Coordinates (Angstroms)
 Number     Number       Type             X           Y           Z
 ---------------------------------------------------------------------
      1          7           0        3.257748   -0.186982    0.000620
      2          6           0        2.167054    0.195606    0.000214
      3          6           0        0.773039    0.635853   -0.000194
      4          6           0       -0.148530   -0.612263   -0.000211
      5          6           0       -1.554711   -0.252023   -0.000465
      6          7           0       -2.677407    0.044027   -0.000928
      7          1           0        0.034244   -1.234342   -0.884696
      8          1           0        0.033966   -1.234185    0.884433
      9          1           0        0.589430    1.250619   -0.886374
     10          1           0        0.589016    1.250878    0.885720
     11          3           0       -3.949486    0.311995    0.001942
 ---------------------------------------------------------------------
                    Distance matrix (angstroms):
                    1          2          3          4          5
     1  N    0.000000
     2  C    1.155849   0.000000
     3  C    2.617410   1.461880   0.000000
     4  C    3.432723   2.452464   1.551477   0.000000
     5  C    4.812898   3.748587   2.491333   1.451591   0.000000
     6  N    5.939649   4.846832   3.500834   2.612650   1.161074
     7  H    3.503102   2.716007   2.196768   1.096678   2.066783
     8  H    3.502931   2.715917   2.196778   1.096671   2.066781
     9  H    3.158064   2.094752   1.094059   2.190935   2.764074
    10  H    3.158001   2.094736   1.094058   2.190922   2.763982
    11  Li   7.224486   6.117647   4.733617   3.911717   2.460299
                    6          7          8          9         10
     6  N    0.000000
     7  H    3.125432   0.000000
     8  H    3.125578   1.769128   0.000000
     9  H    3.593342   2.546225   3.101378   0.000000
    10  H    3.593349   3.101364   2.546295   1.772094   0.000000
    11  Li   1.300000   4.364331   4.363182   4.719310   4.718111
                   11
    11  Li   0.000000
 Stoichiometry    C4H4LiN2(1+)
 Framework group  C1[X(C4H4LiN2)]
 Deg. of freedom    27
 Full point group                 C1      NOp   1
 RotChk:  IX=2 Diff= 5.78D-04
 Largest Abelian subgroup         C1      NOp   1
 Largest concise Abelian subgroup C1      NOp   1
                         Standard orientation:                         
 ---------------------------------------------------------------------
 Center     Atomic      Atomic             Coordinates (Angstroms)
 Number     Number       Type             X           Y           Z
 ---------------------------------------------------------------------
      1          7           0        3.237237   -0.197554    0.000646
      2          6           0        2.148406    0.190304    0.000241
      3          6           0        0.756536    0.637285   -0.000167
      4          6           0       -0.171056   -0.606361   -0.000185
      5          6           0       -1.575479   -0.239327   -0.000439
      6          7           0       -2.696732    0.062147   -0.000902
      7          1           0        0.008707   -1.229316   -0.884669
      8          1           0        0.008431   -1.229158    0.884459
      9          1           0        0.575902    1.252931   -0.886348
     10          1           0        0.575489    1.253192    0.885746
     11          3           0       -3.967500    0.336263    0.001968
 ---------------------------------------------------------------------
 Rotational constants (GHZ):          23.8912794           1.1108415           1.0757655
 Leave Link  202 at Thu Aug  7 18:44:43 2025, MaxMem=   104857600 cpu:               0.0 elap:               0.0
 (Enter /Applications/g16/l301.exe)
 Standard basis: 6-31G(d) (6D, 7F)
 Ernie: Thresh=  0.10000D-02 Tol=  0.10000D-05 Strict=F.
 There are   113 symmetry adapted cartesian basis functions of A   symmetry.
 There are   113 symmetry adapted basis functions of A   symmetry.
   113 basis functions,   212 primitive gaussians,   113 cartesian basis functions
    22 alpha electrons       22 beta electrons
       nuclear repulsion energy       200.4250823176 Hartrees.
 IExCor= 4639 DFT=T Ex+Corr=wB97XD ExCW=0 ScaHFX=  1.000000
 ScaDFX=  1.000000  1.000000  1.000000  1.000000 ScalE2=  1.000000  1.000000
 IRadAn=      5 IRanWt=     -1 IRanGd=            0 ICorTp=0 IEmpDi=121
 HFx  wShort=  0.000000 wLong=  0.200000 cFull=  0.222036 cShort=  0.000000 cLong=  0.777964
 DFx  wShort=  0.000000 wLong=  0.200000 cFull=  0.000000 cShort=  0.000000 cLong=  1.000000
 NAtoms=   11 NActive=   11 NUniq=   11 SFac= 1.00D+00 NAtFMM=   60 NAOKFM=F Big=F
 Integral buffers will be    131072 words long.
 Raffenetti 2 integral format.
 Two-electron integral symmetry is turned on.
 R6Disp:  Grimme-D2 Dispersion energy=       -0.0048159788 Hartrees.
 Nuclear repulsion after empirical dispersion term =      200.4202663389 Hartrees.
 Leave Link  301 at Thu Aug  7 18:44:43 2025, MaxMem=   104857600 cpu:               0.0 elap:               0.0
 (Enter /Applications/g16/l302.exe)
 NPDir=0 NMtPBC=     1 NCelOv=     1 NCel=       1 NClECP=     1 NCelD=      1
         NCelK=      1 NCelE2=     1 NClLst=     1 CellRange=     0.0.
 One-electron integrals computed using PRISM.
 One-electron integral symmetry used in STVInt
 NBasis=   113 RedAO= T EigKep=  7.80D-04  NBF=   113
 NBsUse=   113 1.00D-06 EigRej= -1.00D+00 NBFU=   113
 Precomputing XC quadrature grid using
 IXCGrd= 4 IRadAn=           5 IRanWt=          -1 IRanGd=           0 AccXCQ= 0.00D+00.
 Generated NRdTot=       0 NPtTot=           0 NUsed=           0 NTot=          32
 NSgBfM=   113   113   113   113   113 MxSgAt=    11 MxSgA2=    11.
 Leave Link  302 at Thu Aug  7 18:44:43 2025, MaxMem=   104857600 cpu:               0.1 elap:               0.1
 (Enter /Applications/g16/l303.exe)
 DipDrv:  MaxL=1.
 Leave Link  303 at Thu Aug  7 18:44:43 2025, MaxMem=   104857600 cpu:               0.0 elap:               0.0
 (Enter /Applications/g16/l401.exe)
 Initial guess from the checkpoint file:  "/Users/srak/g16_scratch/Gau-74209.chk"
 B after Tr=    -0.000000    0.000000    0.000000
         Rot=    1.000000   -0.000143    0.000030    0.000007 Ang=  -0.02 deg.
 Guess basis will be translated and rotated to current coordinates.
 JPrj=2 DoOrth=T DoCkMO=T.
 Leave Link  401 at Thu Aug  7 18:44:43 2025, MaxMem=   104857600 cpu:               0.0 elap:               0.0
 (Enter /Applications/g16/l502.exe)
 Keep R1 ints in memory in canonical form, NReq=43174005.
 FoFCou: FMM=F IPFlag=           0 FMFlag=           0 FMFlg1=           0
         NFxFlg=           0 DoJE=F BraDBF=F KetDBF=F FulRan=T
         wScrn=  0.000000 ICntrl=       600 IOpCl=  0 I1Cent=           0 NGrid=           0
         NMat0=    1 NMatS0=   6441 NMatT0=    0 NMatD0=    1 NMtDS0=    0 NMtDT0=    0
 Symmetry not used in FoFCou.
 Two-electron integral symmetry not used.
 Closed shell SCF:
 Using DIIS extrapolation, IDIIS=  1040.
 NGot=   104857600 LenX=    63336875 LenY=    63323665
 Requested convergence on RMS density matrix=1.00D-08 within 128 cycles.
 Requested convergence on MAX density matrix=1.00D-06.
 Requested convergence on             energy=1.00D-06.
 No special actions if energy rises.

 Cycle   1  Pass 1  IDiag  1:
 E= -271.428948483886    
 DIIS: error= 9.82D-05 at cycle   1 NSaved=   1.
 NSaved= 1 IEnMin= 1 EnMin= -271.428948483886     IErMin= 1 ErrMin= 9.82D-05
 ErrMax= 9.82D-05  0.00D+00 EMaxC= 1.00D-01 BMatC= 1.01D-06 BMatP= 1.01D-06
 IDIUse=1 WtCom= 1.00D+00 WtEn= 0.00D+00
 Coeff-Com:  0.100D+01
 Coeff:      0.100D+01
 Gap=     1.156 Goal=   None    Shift=    0.000
 RMSDP=1.99D-05 MaxDP=3.96D-04              OVMax= 4.41D-04

 Cycle   2  Pass 1  IDiag  1:
 E= -271.428950132813     Delta-E=       -0.000001648927 Rises=F Damp=F
 DIIS: error= 1.67D-05 at cycle   2 NSaved=   2.
 NSaved= 2 IEnMin= 2 EnMin= -271.428950132813     IErMin= 2 ErrMin= 1.67D-05
 ErrMax= 1.67D-05  0.00D+00 EMaxC= 1.00D-01 BMatC= 4.39D-08 BMatP= 1.01D-06
 IDIUse=1 WtCom= 1.00D+00 WtEn= 0.00D+00
 Coeff-Com: -0.160D+00 0.116D+01
 Coeff:     -0.160D+00 0.116D+01
 Gap=     0.385 Goal=   None    Shift=    0.000
 RMSDP=4.82D-06 MaxDP=1.16D-04 DE=-1.65D-06 OVMax= 1.71D-04

 Cycle   3  Pass 1  IDiag  1:
 E= -271.428950245980     Delta-E=       -0.000000113167 Rises=F Damp=F
 DIIS: error= 5.76D-06 at cycle   3 NSaved=   3.
 NSaved= 3 IEnMin= 3 EnMin= -271.428950245980     IErMin= 3 ErrMin= 5.76D-06
 ErrMax= 5.76D-06  0.00D+00 EMaxC= 1.00D-01 BMatC= 4.06D-09 BMatP= 4.39D-08
 IDIUse=1 WtCom= 1.00D+00 WtEn= 0.00D+00
 Coeff-Com: -0.480D-01 0.175D+00 0.873D+00
 Coeff:     -0.480D-01 0.175D+00 0.873D+00
 Gap=     0.385 Goal=   None    Shift=    0.000
 RMSDP=9.98D-07 MaxDP=1.79D-05 DE=-1.13D-07 OVMax= 4.35D-05

 Cycle   4  Pass 1  IDiag  1:
 E= -271.428950251119     Delta-E=       -0.000000005139 Rises=F Damp=F
 DIIS: error= 3.98D-06 at cycle   4 NSaved=   4.
 NSaved= 4 IEnMin= 4 EnMin= -271.428950251119     IErMin= 4 ErrMin= 3.98D-06
 ErrMax= 3.98D-06  0.00D+00 EMaxC= 1.00D-01 BMatC= 2.54D-09 BMatP= 4.06D-09
 IDIUse=1 WtCom= 1.00D+00 WtEn= 0.00D+00
 Coeff-Com: -0.948D-02-0.241D-01 0.460D+00 0.574D+00
 Coeff:     -0.948D-02-0.241D-01 0.460D+00 0.574D+00
 Gap=     0.385 Goal=   None    Shift=    0.000
 RMSDP=4.65D-07 MaxDP=9.93D-06 DE=-5.14D-09 OVMax= 1.41D-05

 Cycle   5  Pass 1  IDiag  1:
 E= -271.428950253376     Delta-E=       -0.000000002257 Rises=F Damp=F
 DIIS: error= 1.19D-06 at cycle   5 NSaved=   5.
 NSaved= 5 IEnMin= 5 EnMin= -271.428950253376     IErMin= 5 ErrMin= 1.19D-06
 ErrMax= 1.19D-06  0.00D+00 EMaxC= 1.00D-01 BMatC= 3.44D-10 BMatP= 2.54D-09
 IDIUse=1 WtCom= 1.00D+00 WtEn= 0.00D+00
 Coeff-Com:  0.873D-02-0.619D-01-0.114D-01 0.276D+00 0.789D+00
 Coeff:      0.873D-02-0.619D-01-0.114D-01 0.276D+00 0.789D+00
 Gap=     0.385 Goal=   None    Shift=    0.000
 RMSDP=2.10D-07 MaxDP=2.96D-06 DE=-2.26D-09 OVMax= 9.45D-06

 Cycle   6  Pass 1  IDiag  1:
 E= -271.428950253769     Delta-E=       -0.000000000393 Rises=F Damp=F
 DIIS: error= 2.72D-07 at cycle   6 NSaved=   6.
 NSaved= 6 IEnMin= 6 EnMin= -271.428950253769     IErMin= 6 ErrMin= 2.72D-07
 ErrMax= 2.72D-07  0.00D+00 EMaxC= 1.00D-01 BMatC= 1.55D-11 BMatP= 3.44D-10
 IDIUse=1 WtCom= 1.00D+00 WtEn= 0.00D+00
 Coeff-Com:  0.355D-02-0.193D-01-0.316D-01 0.565D-01 0.266D+00 0.725D+00
 Coeff:      0.355D-02-0.193D-01-0.316D-01 0.565D-01 0.266D+00 0.725D+00
 Gap=     0.385 Goal=   None    Shift=    0.000
 RMSDP=4.58D-08 MaxDP=7.29D-07 DE=-3.93D-10 OVMax= 1.76D-06

 Cycle   7  Pass 1  IDiag  1:
 E= -271.428950253782     Delta-E=       -0.000000000013 Rises=F Damp=F
 DIIS: error= 1.40D-07 at cycle   7 NSaved=   7.
 NSaved= 7 IEnMin= 7 EnMin= -271.428950253782     IErMin= 7 ErrMin= 1.40D-07
 ErrMax= 1.40D-07  0.00D+00 EMaxC= 1.00D-01 BMatC= 3.15D-12 BMatP= 1.55D-11
 IDIUse=1 WtCom= 1.00D+00 WtEn= 0.00D+00
 Coeff-Com:  0.598D-03-0.165D-02-0.123D-01-0.517D-02 0.278D-01 0.324D+00
 Coeff-Com:  0.667D+00
 Coeff:      0.598D-03-0.165D-02-0.123D-01-0.517D-02 0.278D-01 0.324D+00
 Coeff:      0.667D+00
 Gap=     0.385 Goal=   None    Shift=    0.000
 RMSDP=1.89D-08 MaxDP=3.75D-07 DE=-1.27D-11 OVMax= 6.87D-07

 Cycle   8  Pass 1  IDiag  1:
 E= -271.428950253790     Delta-E=       -0.000000000009 Rises=F Damp=F
 DIIS: error= 7.44D-08 at cycle   8 NSaved=   8.
 NSaved= 8 IEnMin= 8 EnMin= -271.428950253790     IErMin= 8 ErrMin= 7.44D-08
 ErrMax= 7.44D-08  0.00D+00 EMaxC= 1.00D-01 BMatC= 8.13D-13 BMatP= 3.15D-12
 IDIUse=1 WtCom= 1.00D+00 WtEn= 0.00D+00
 Coeff-Com: -0.269D-03 0.236D-02-0.119D-02-0.126D-01-0.311D-01 0.595D-01
 Coeff-Com:  0.382D+00 0.601D+00
 Coeff:     -0.269D-03 0.236D-02-0.119D-02-0.126D-01-0.311D-01 0.595D-01
 Coeff:      0.382D+00 0.601D+00
 Gap=     0.385 Goal=   None    Shift=    0.000
 RMSDP=7.83D-09 MaxDP=1.50D-07 DE=-8.53D-12 OVMax= 2.54D-07

 SCF Done:  E(RwB97XD) =  -271.428950254     A.U. after    8 cycles
            NFock=  8  Conv=0.78D-08     -V/T= 2.0059
 KE= 2.698243503618D+02 PE=-1.024126491015D+03 EE= 2.824529240610D+02
 Leave Link  502 at Thu Aug  7 18:44:48 2025, MaxMem=   104857600 cpu:               5.1 elap:               5.1
 (Enter /Applications/g16/l701.exe)
 ... and contract with generalized density number  0.
 Compute integral first derivatives.
 R6Disp: Adding Grimme-D2 dispersion energy 1st derivatives to the gradient.
 Leave Link  701 at Thu Aug  7 18:44:48 2025, MaxMem=   104857600 cpu:               0.0 elap:               0.0
 (Enter /Applications/g16/l702.exe)
 L702 exits ... SP integral derivatives will be done elsewhere.
 Leave Link  702 at Thu Aug  7 18:44:48 2025, MaxMem=   104857600 cpu:               0.0 elap:               0.0
 (Enter /Applications/g16/l703.exe)
 Integral derivatives from FoFJK, PRISM(SPDF).
 Compute integral first derivatives, UseDBF=F ICtDFT=           0.
 Calling FoFJK, ICntrl=      2127 FMM=F ISym2X=0 I1Cent= 0 IOpClX= 0 NMat=1 NMatS=1 NMatT=0.
 FoFJK:  IHMeth= 1 ICntrl=    2127 DoSepK=T KAlg= 0 I1Cent=           0 FoldK=F
 IRaf=         1 NMat=       1 IRICut=       1 DoRegI=T DoRafI=F ISym2E= 0 IDoP0=0 IntGTp=1.
 FoFCou: FMM=F IPFlag=           0 FMFlag=      100000 FMFlg1=         800
         NFxFlg=           0 DoJE=F BraDBF=F KetDBF=F FulRan=T
         wScrn=  0.000000 ICntrl=      2527 IOpCl=  0 I1Cent=           0 NGrid=           0
         NMat0=    1 NMatS0=      1 NMatT0=    0 NMatD0=    1 NMtDS0=    0 NMtDT0=    0
 Symmetry not used in FoFCou.
 Leave Link  703 at Thu Aug  7 18:44:51 2025, MaxMem=   104857600 cpu:               2.4 elap:               2.4
 (Enter /Applications/g16/l716.exe)
 Dipole        =-5.72021544D+00 4.28504846D-01 3.34580610D-03
 ***** Axes restored to original set *****
 -------------------------------------------------------------------
 Center     Atomic                   Forces (Hartrees/Bohr)
 Number     Number              X              Y              Z
 -------------------------------------------------------------------
      1        7          -0.000007245   -0.000008637   -0.000002174
      2        6           0.000051487    0.000012127    0.000003874
      3        6          -0.000104233   -0.000086709    0.000000590
      4        6           0.000185874   -0.000014498    0.000009161
      5        6           0.000142256   -0.000002468   -0.000042450
      6        7           0.339378580   -0.071443039   -0.000719193
      7        1          -0.000024129    0.000009670   -0.000005422
      8        1          -0.000012729    0.000007502    0.000007560
      9        1          -0.000009476    0.000006552   -0.000005516
     10        1          -0.000006697    0.000009046    0.000005417
     11        3          -0.339593688    0.071510455    0.000748153
 -------------------------------------------------------------------
 Cartesian Forces:  Max     0.339593688 RMS     0.085408236
 Leave Link  716 at Thu Aug  7 18:44:51 2025, MaxMem=   104857600 cpu:               0.0 elap:               0.0
 (Enter /Applications/g16/l103.exe)

 GradGradGradGradGradGradGradGradGradGradGradGradGradGradGradGradGradGrad
 Berny optimization.
 Using GEDIIS/GDIIS optimizer.
 FormGI is forming the generalized inverse of G from B-inverse, IUseBI=4.
 Internal  Forces:  Max     0.347041920 RMS     0.057053360
 Search for a local minimum.
 Step number   7 out of a maximum of   47
 All quantities printed in internal units (Hartrees-Bohrs-Radians)
 RMS Force = .47723D-04 SwitMx=.10000D-02 MixMth= 2
 Mixed Optimization -- En-DIIS/RFO-DIIS
 Swapping is turned off.
 Update second derivatives using D2CorX and points    1    2    3    4    5
                                                      6    7
 DE= -2.36D-07 DEPred=-2.93D-07 R= 8.08D-01
 Trust test= 8.08D-01 RLast= 3.15D-03 DXMaxT set to 1.50D-01
 ITU=  0  0  1 -1  0  1  0
     Eigenvalues ---    0.00231   0.01541   0.04564   0.05135   0.05352
     Eigenvalues ---    0.05600   0.05967   0.06223   0.07457   0.08758
     Eigenvalues ---    0.10728   0.15875   0.16042   0.16165   0.16308
     Eigenvalues ---    0.23518   0.24365   0.30195   0.33415   0.34140
     Eigenvalues ---    0.34353   0.34362   0.35289   0.38802   1.30549
     Eigenvalues ---    1.576491000.000001000.000001000.000001000.00000
     Eigenvalues --- 1000.000001000.000001000.000001000.000001000.00000
     Eigenvalues --- 1000.000001000.00000
 En-DIIS/RFO-DIIS/Sim-DIIS IScMMF=       -3 using points:     7    6    5    4    3    2
 RFO step:  Lambda=-1.20642830D-04.
 NNeg= 0 NGDIIS= 6 SimSw=  2.50D-01 Rises=F DC= -2.36D-07 SmlDif=  1.00D-05
 NRisDI= 0 DoIntr=F SqrtH=F CThrHd= 10.0 CDAdj=  3.0
 RMS Error=  0.3929692536D-03 NUsed= 6 OKEnD=F EnDIS=F
 InvSVX:  RCond= 3.15D-07 Info=           0 Equed=N FErr=  1.49D-14 BErr=  5.36D-17
 DidBck=F Rises=F RFO-DIIS coefs:    1.49005   -0.14005   -0.33483   -0.00651   -0.02380
                  RFO-DIIS coefs:    0.01515
 Iteration  1 RMS(Cart)=  0.00053193 RMS(Int)=  0.00000060
 Iteration  2 RMS(Cart)=  0.00000065 RMS(Int)=  0.00000001
 Iteration  1 RMS(Cart)=  0.00000000 RMS(Int)=  0.00000000
 ITry= 1 IFail=0 DXMaxC= 2.34D-03 DCOld= 1.00D+10 DXMaxT= 1.50D-01 DXLimC= 3.00D+00 Rises=F
 Variable       Old X    -DE/DX   Delta X   Delta X   Delta X     New X
                                 (Linear)    (Quad)   (Total)
    R1        2.18424  -0.00000   0.00000  -0.00000   0.00000   2.18424
    R2        2.76255   0.00004  -0.00010   0.00013   0.00002   2.76257
    R3        2.93187  -0.00010   0.00014  -0.00029  -0.00015   2.93172
    R4        2.06747   0.00001   0.00000   0.00002   0.00002   2.06749
    R5        2.06747   0.00001   0.00000   0.00002   0.00002   2.06749
    R6        2.74311   0.00009   0.00005   0.00009   0.00015   2.74326
    R7        2.07242  -0.00001  -0.00005   0.00002  -0.00004   2.07239
    R8        2.07241  -0.00000  -0.00006   0.00003  -0.00003   2.07238
    R9        2.19411   0.00022  -0.00021   0.00023   0.00002   2.19414
   R10        2.45664   0.34704  -0.00000   0.00000  -0.00000   2.45664
    A1        1.90091   0.00002  -0.00006   0.00008   0.00002   1.90093
    A2        1.90655  -0.00000  -0.00010   0.00009  -0.00000   1.90655
    A3        1.90653  -0.00001  -0.00010   0.00010  -0.00000   1.90652
    A4        1.93087  -0.00001   0.00014  -0.00013   0.00001   1.93089
    A5        1.93086  -0.00000   0.00013  -0.00009   0.00004   1.93089
    A6        1.88787  -0.00000  -0.00003  -0.00004  -0.00006   1.88781
    A7        1.95602  -0.00006  -0.00002  -0.00020  -0.00022   1.95580
    A8        1.93621   0.00002   0.00002   0.00008   0.00010   1.93631
    A9        1.93624   0.00001   0.00003   0.00005   0.00009   1.93632
   A10        1.87767   0.00001  -0.00000  -0.00011  -0.00011   1.87755
   A11        1.87767   0.00002  -0.00007   0.00005  -0.00002   1.87766
   A12        1.87671   0.00000   0.00004   0.00014   0.00018   1.87689
   A13        3.11277  -0.00002  -0.00008  -0.00008  -0.00016   3.11262
   A14        3.13525   0.00003  -0.00018   0.00019   0.00001   3.13527
   A15        3.18832   0.00004   0.00162   0.00010   0.00171   3.19003
   A16        3.12611  -0.00000   0.00001   0.00000   0.00002   3.12612
   A17        3.13772   0.00003  -0.00034   0.00059   0.00025   3.13797
   A18        3.11014  -0.00004  -0.00069  -0.00023  -0.00092   3.10921
    D1        3.14149   0.00000  -0.00009   0.00018   0.00009   3.14157
    D2       -1.04251  -0.00002  -0.00010  -0.00005  -0.00014  -1.04265
    D3        1.04227   0.00001  -0.00002   0.00022   0.00020   1.04247
    D4       -1.04597   0.00001  -0.00016   0.00026   0.00010  -1.04586
    D5        1.05322  -0.00001  -0.00016   0.00004  -0.00013   1.05310
    D6        3.13801   0.00002  -0.00008   0.00030   0.00022   3.13822
    D7        1.04579  -0.00000  -0.00001   0.00007   0.00006   1.04585
    D8       -3.13820  -0.00002  -0.00001  -0.00016  -0.00017  -3.13837
    D9       -1.05342   0.00001   0.00007   0.00011   0.00017  -1.05325
         Item               Value     Threshold  Converged?
 Maximum Force            0.000225     0.000450     YES
 RMS     Force            0.000048     0.000300     YES
 Maximum Displacement     0.002337     0.001800     NO 
 RMS     Displacement     0.000532     0.001200     YES
 Predicted change in Energy=-1.010222D-07
 Lowest energy point so far.  Saving SCF results.
 GradGradGradGradGradGradGradGradGradGradGradGradGradGradGradGradGradGrad

 Leave Link  103 at Thu Aug  7 18:44:51 2025, MaxMem=   104857600 cpu:               0.0 elap:               0.0
 (Enter /Applications/g16/l202.exe)
                          Input orientation:                          
 ---------------------------------------------------------------------
 Center     Atomic      Atomic             Coordinates (Angstroms)
 Number     Number       Type             X           Y           Z
 ---------------------------------------------------------------------
      1          7           0        3.257750   -0.187297    0.000649
      2          6           0        2.167129    0.195501    0.000281
      3          6           0        0.773128    0.635826   -0.000189
      4          6           0       -0.148484   -0.612162   -0.000232
      5          6           0       -1.554634   -0.251488   -0.000664
      6          7           0       -2.677283    0.044790   -0.001064
      7          1           0        0.034101   -1.234248   -0.884728
      8          1           0        0.033721   -1.234035    0.884488
      9          1           0        0.589596    1.250619   -0.886378
     10          1           0        0.589119    1.250920    0.885692
     11          3           0       -3.949781    0.310759    0.002208
 ---------------------------------------------------------------------
                    Distance matrix (angstroms):
                    1          2          3          4          5
     1  N    0.000000
     2  C    1.155850   0.000000
     3  C    2.617418   1.461891   0.000000
     4  C    3.432629   2.452424   1.551400   0.000000
     5  C    4.812813   3.748509   2.491145   1.451670   0.000000
     6  N    5.939570   4.846757   3.500666   2.612741   1.161086
     7  H    3.503129   2.716106   2.196758   1.096659   2.066752
     8  H    3.503027   2.716031   2.196761   1.096656   2.066825
     9  H    3.158079   2.094767   1.094068   2.190883   2.763791
    10  H    3.158063   2.094751   1.094069   2.190888   2.763789
    11  Li   7.224719   6.117996   4.734083   3.911732   2.460255
                    6          7          8          9         10
     6  N    0.000000
     7  H    3.125444   0.000000
     8  H    3.125562   1.769216   0.000000
     9  H    3.593092   2.546201   3.101366   0.000000
    10  H    3.593114   3.101369   2.546266   1.772071   0.000000
    11  Li   1.300000   4.364059   4.362693   4.720050   4.718692
                   11
    11  Li   0.000000
 Stoichiometry    C4H4LiN2(1+)
 Framework group  C1[X(C4H4LiN2)]
 Deg. of freedom    27
 Full point group                 C1      NOp   1
 RotChk:  IX=2 Diff= 3.69D-04
 Largest Abelian subgroup         C1      NOp   1
 Largest concise Abelian subgroup C1      NOp   1
                         Standard orientation:                         
 ---------------------------------------------------------------------
 Center     Atomic      Atomic             Coordinates (Angstroms)
 Number     Number       Type             X           Y           Z
 ---------------------------------------------------------------------
      1          7           0        3.237214   -0.197729    0.000492
      2          6           0        2.148433    0.190270    0.000114
      3          6           0        0.756549    0.637243   -0.000356
      4          6           0       -0.171008   -0.606331   -0.000027
      5          6           0       -1.575421   -0.238950   -0.000440
      6          7           0       -2.696644    0.062682   -0.000826
      7          1           0        0.008536   -1.229495   -0.884387
      8          1           0        0.008294   -1.228854    0.884829
      9          1           0        0.575885    1.252692   -0.886680
     10          1           0        0.575546    1.253422    0.885391
     11          3           0       -3.967857    0.334723    0.002479
 ---------------------------------------------------------------------
 Rotational constants (GHZ):          23.9012754           1.1108158           1.0757622
 Leave Link  202 at Thu Aug  7 18:44:51 2025, MaxMem=   104857600 cpu:               0.0 elap:               0.0
 (Enter /Applications/g16/l301.exe)
 Standard basis: 6-31G(d) (6D, 7F)
 Ernie: Thresh=  0.10000D-02 Tol=  0.10000D-05 Strict=F.
 There are   113 symmetry adapted cartesian basis functions of A   symmetry.
 There are   113 symmetry adapted basis functions of A   symmetry.
   113 basis functions,   212 primitive gaussians,   113 cartesian basis functions
    22 alpha electrons       22 beta electrons
       nuclear repulsion energy       200.4258076335 Hartrees.
 IExCor= 4639 DFT=T Ex+Corr=wB97XD ExCW=0 ScaHFX=  1.000000
 ScaDFX=  1.000000  1.000000  1.000000  1.000000 ScalE2=  1.000000  1.000000
 IRadAn=      5 IRanWt=     -1 IRanGd=            0 ICorTp=0 IEmpDi=121
 HFx  wShort=  0.000000 wLong=  0.200000 cFull=  0.222036 cShort=  0.000000 cLong=  0.777964
 DFx  wShort=  0.000000 wLong=  0.200000 cFull=  0.000000 cShort=  0.000000 cLong=  1.000000
 NAtoms=   11 NActive=   11 NUniq=   11 SFac= 1.00D+00 NAtFMM=   60 NAOKFM=F Big=F
 Integral buffers will be    131072 words long.
 Raffenetti 2 integral format.
 Two-electron integral symmetry is turned on.
 R6Disp:  Grimme-D2 Dispersion energy=       -0.0048159547 Hartrees.
 Nuclear repulsion after empirical dispersion term =      200.4209916788 Hartrees.
 Leave Link  301 at Thu Aug  7 18:44:51 2025, MaxMem=   104857600 cpu:               0.0 elap:               0.0
 (Enter /Applications/g16/l302.exe)
 NPDir=0 NMtPBC=     1 NCelOv=     1 NCel=       1 NClECP=     1 NCelD=      1
         NCelK=      1 NCelE2=     1 NClLst=     1 CellRange=     0.0.
 One-electron integrals computed using PRISM.
 One-electron integral symmetry used in STVInt
 NBasis=   113 RedAO= T EigKep=  7.80D-04  NBF=   113
 NBsUse=   113 1.00D-06 EigRej= -1.00D+00 NBFU=   113
 Precomputing XC quadrature grid using
 IXCGrd= 4 IRadAn=           5 IRanWt=          -1 IRanGd=           0 AccXCQ= 0.00D+00.
 Generated NRdTot=       0 NPtTot=           0 NUsed=           0 NTot=          32
 NSgBfM=   113   113   113   113   113 MxSgAt=    11 MxSgA2=    11.
 Leave Link  302 at Thu Aug  7 18:44:51 2025, MaxMem=   104857600 cpu:               0.1 elap:               0.1
 (Enter /Applications/g16/l303.exe)
 DipDrv:  MaxL=1.
 Leave Link  303 at Thu Aug  7 18:44:51 2025, MaxMem=   104857600 cpu:               0.0 elap:               0.0
 (Enter /Applications/g16/l401.exe)
 Initial guess from the checkpoint file:  "/Users/srak/g16_scratch/Gau-74209.chk"
 B after Tr=     0.000000    0.000000   -0.000000
         Rot=    1.000000    0.000105   -0.000032   -0.000000 Ang=   0.01 deg.
 Guess basis will be translated and rotated to current coordinates.
 JPrj=2 DoOrth=T DoCkMO=T.
 Leave Link  401 at Thu Aug  7 18:44:51 2025, MaxMem=   104857600 cpu:               0.0 elap:               0.0
 (Enter /Applications/g16/l502.exe)
 Keep R1 ints in memory in canonical form, NReq=43174005.
 FoFCou: FMM=F IPFlag=           0 FMFlag=           0 FMFlg1=           0
         NFxFlg=           0 DoJE=F BraDBF=F KetDBF=F FulRan=T
         wScrn=  0.000000 ICntrl=       600 IOpCl=  0 I1Cent=           0 NGrid=           0
         NMat0=    1 NMatS0=   6441 NMatT0=    0 NMatD0=    1 NMtDS0=    0 NMtDT0=    0
 Symmetry not used in FoFCou.
 Two-electron integral symmetry not used.
 Closed shell SCF:
 Using DIIS extrapolation, IDIIS=  1040.
 NGot=   104857600 LenX=    63336875 LenY=    63323665
 Requested convergence on RMS density matrix=1.00D-08 within 128 cycles.
 Requested convergence on MAX density matrix=1.00D-06.
 Requested convergence on             energy=1.00D-06.
 No special actions if energy rises.

 Cycle   1  Pass 1  IDiag  1:
 E= -271.428950062793    
 DIIS: error= 3.71D-05 at cycle   1 NSaved=   1.
 NSaved= 1 IEnMin= 1 EnMin= -271.428950062793     IErMin= 1 ErrMin= 3.71D-05
 ErrMax= 3.71D-05  0.00D+00 EMaxC= 1.00D-01 BMatC= 1.69D-07 BMatP= 1.69D-07
 IDIUse=1 WtCom= 1.00D+00 WtEn= 0.00D+00
 Coeff-Com:  0.100D+01
 Coeff:      0.100D+01
 Gap=     1.156 Goal=   None    Shift=    0.000
 RMSDP=1.35D-05 MaxDP=3.19D-04              OVMax= 1.76D-04

 Cycle   2  Pass 1  IDiag  1:
 E= -271.428950367271     Delta-E=       -0.000000304478 Rises=F Damp=F
 DIIS: error= 1.06D-05 at cycle   2 NSaved=   2.
 NSaved= 2 IEnMin= 2 EnMin= -271.428950367271     IErMin= 2 ErrMin= 1.06D-05
 ErrMax= 1.06D-05  0.00D+00 EMaxC= 1.00D-01 BMatC= 7.14D-09 BMatP= 1.69D-07
 IDIUse=1 WtCom= 1.00D+00 WtEn= 0.00D+00
 Coeff-Com: -0.123D+00 0.112D+01
 Coeff:     -0.123D+00 0.112D+01
 Gap=     0.385 Goal=   None    Shift=    0.000
 RMSDP=2.74D-06 MaxDP=8.99D-05 DE=-3.04D-07 OVMax= 7.87D-05

 Cycle   3  Pass 1  IDiag  1:
 E= -271.428950387763     Delta-E=       -0.000000020491 Rises=F Damp=F
 DIIS: error= 2.85D-06 at cycle   3 NSaved=   3.
 NSaved= 3 IEnMin= 3 EnMin= -271.428950387763     IErMin= 3 ErrMin= 2.85D-06
 ErrMax= 2.85D-06  0.00D+00 EMaxC= 1.00D-01 BMatC= 1.02D-09 BMatP= 7.14D-09
 IDIUse=1 WtCom= 1.00D+00 WtEn= 0.00D+00
 Coeff-Com: -0.617D-01 0.218D+00 0.844D+00
 Coeff:     -0.617D-01 0.218D+00 0.844D+00
 Gap=     0.385 Goal=   None    Shift=    0.000
 RMSDP=5.35D-07 MaxDP=1.68D-05 DE=-2.05D-08 OVMax= 1.60D-05

 Cycle   4  Pass 1  IDiag  1:
 E= -271.428950388778     Delta-E=       -0.000000001015 Rises=F Damp=F
 DIIS: error= 2.20D-06 at cycle   4 NSaved=   4.
 NSaved= 4 IEnMin= 4 EnMin= -271.428950388778     IErMin= 4 ErrMin= 2.20D-06
 ErrMax= 2.20D-06  0.00D+00 EMaxC= 1.00D-01 BMatC= 5.76D-10 BMatP= 1.02D-09
 IDIUse=1 WtCom= 1.00D+00 WtEn= 0.00D+00
 Coeff-Com: -0.260D-01 0.328D-01 0.472D+00 0.521D+00
 Coeff:     -0.260D-01 0.328D-01 0.472D+00 0.521D+00
 Gap=     0.385 Goal=   None    Shift=    0.000
 RMSDP=2.18D-07 MaxDP=4.90D-06 DE=-1.02D-09 OVMax= 7.92D-06

 Cycle   5  Pass 1  IDiag  1:
 E= -271.428950389285     Delta-E=       -0.000000000507 Rises=F Damp=F
 DIIS: error= 5.15D-07 at cycle   5 NSaved=   5.
 NSaved= 5 IEnMin= 5 EnMin= -271.428950389285     IErMin= 5 ErrMin= 5.15D-07
 ErrMax= 5.15D-07  0.00D+00 EMaxC= 1.00D-01 BMatC= 3.81D-11 BMatP= 5.76D-10
 IDIUse=1 WtCom= 1.00D+00 WtEn= 0.00D+00
 Coeff-Com:  0.562D-02-0.353D-01-0.608D-01 0.176D+00 0.914D+00
 Coeff:      0.562D-02-0.353D-01-0.608D-01 0.176D+00 0.914D+00
 Gap=     0.385 Goal=   None    Shift=    0.000
 RMSDP=8.85D-08 MaxDP=2.00D-06 DE=-5.07D-10 OVMax= 3.28D-06

 Cycle   6  Pass 1  IDiag  1:
 E= -271.428950389330     Delta-E=       -0.000000000045 Rises=F Damp=F
 DIIS: error= 9.99D-08 at cycle   6 NSaved=   6.
 NSaved= 6 IEnMin= 6 EnMin= -271.428950389330     IErMin= 6 ErrMin= 9.99D-08
 ErrMax= 9.99D-08  0.00D+00 EMaxC= 1.00D-01 BMatC= 2.32D-12 BMatP= 3.81D-11
 IDIUse=1 WtCom= 1.00D+00 WtEn= 0.00D+00
 Coeff-Com:  0.284D-02-0.126D-01-0.423D-01 0.426D-01 0.332D+00 0.677D+00
 Coeff:      0.284D-02-0.126D-01-0.423D-01 0.426D-01 0.332D+00 0.677D+00
 Gap=     0.385 Goal=   None    Shift=    0.000
 RMSDP=1.61D-08 MaxDP=3.12D-07 DE=-4.54D-11 OVMax= 6.22D-07

 Cycle   7  Pass 1  IDiag  1:
 E= -271.428950389334     Delta-E=       -0.000000000004 Rises=F Damp=F
 DIIS: error= 6.74D-08 at cycle   7 NSaved=   7.
 NSaved= 7 IEnMin= 7 EnMin= -271.428950389334     IErMin= 7 ErrMin= 6.74D-08
 ErrMax= 6.74D-08  0.00D+00 EMaxC= 1.00D-01 BMatC= 7.37D-13 BMatP= 2.32D-12
 IDIUse=1 WtCom= 1.00D+00 WtEn= 0.00D+00
 Coeff-Com:  0.519D-03-0.425D-03-0.136D-01-0.729D-02 0.279D-01 0.369D+00
 Coeff-Com:  0.624D+00
 Coeff:      0.519D-03-0.425D-03-0.136D-01-0.729D-02 0.279D-01 0.369D+00
 Coeff:      0.624D+00
 Gap=     0.385 Goal=   None    Shift=    0.000
 RMSDP=7.43D-09 MaxDP=1.99D-07 DE=-3.69D-12 OVMax= 2.51D-07

 SCF Done:  E(RwB97XD) =  -271.428950389     A.U. after    7 cycles
            NFock=  7  Conv=0.74D-08     -V/T= 2.0059
 KE= 2.698242934125D+02 PE=-1.024127937091D+03 EE= 2.824537016102D+02
 Leave Link  502 at Thu Aug  7 18:44:56 2025, MaxMem=   104857600 cpu:               4.6 elap:               4.7
 (Enter /Applications/g16/l701.exe)
 ... and contract with generalized density number  0.
 Compute integral first derivatives.
 R6Disp: Adding Grimme-D2 dispersion energy 1st derivatives to the gradient.
 Leave Link  701 at Thu Aug  7 18:44:56 2025, MaxMem=   104857600 cpu:               0.0 elap:               0.0
 (Enter /Applications/g16/l702.exe)
 L702 exits ... SP integral derivatives will be done elsewhere.
 Leave Link  702 at Thu Aug  7 18:44:56 2025, MaxMem=   104857600 cpu:               0.0 elap:               0.0
 (Enter /Applications/g16/l703.exe)
 Integral derivatives from FoFJK, PRISM(SPDF).
 Compute integral first derivatives, UseDBF=F ICtDFT=           0.
 Calling FoFJK, ICntrl=      2127 FMM=F ISym2X=0 I1Cent= 0 IOpClX= 0 NMat=1 NMatS=1 NMatT=0.
 FoFJK:  IHMeth= 1 ICntrl=    2127 DoSepK=T KAlg= 0 I1Cent=           0 FoldK=F
 IRaf=         1 NMat=       1 IRICut=       1 DoRegI=T DoRafI=F ISym2E= 0 IDoP0=0 IntGTp=1.
 FoFCou: FMM=F IPFlag=           0 FMFlag=      100000 FMFlg1=         800
         NFxFlg=           0 DoJE=F BraDBF=F KetDBF=F FulRan=T
         wScrn=  0.000000 ICntrl=      2527 IOpCl=  0 I1Cent=           0 NGrid=           0
         NMat0=    1 NMatS0=      1 NMatT0=    0 NMatD0=    1 NMtDS0=    0 NMtDT0=    0
 Symmetry not used in FoFCou.
 Leave Link  703 at Thu Aug  7 18:44:58 2025, MaxMem=   104857600 cpu:               2.4 elap:               2.5
 (Enter /Applications/g16/l716.exe)
 Dipole        =-5.72096675D+00 4.25798740D-01 4.16177228D-03
 ***** Axes restored to original set *****
 -------------------------------------------------------------------
 Center     Atomic                   Forces (Hartrees/Bohr)
 Number     Number              X              Y              Z
 -------------------------------------------------------------------
      1        7          -0.000006128   -0.000004493    0.000000732
      2        6           0.000045602    0.000006498   -0.000001867
      3        6          -0.000066412   -0.000055372    0.000001115
      4        6           0.000101767    0.000012663   -0.000002920
      5        6           0.000135775   -0.000015903   -0.000016651
      6        7           0.339516315   -0.070933374   -0.000833791
      7        1          -0.000006208   -0.000000854   -0.000007147
      8        1          -0.000007226   -0.000001170    0.000007701
      9        1          -0.000006296    0.000001746   -0.000002933
     10        1          -0.000006952    0.000002157    0.000002231
     11        3          -0.339700238    0.070988103    0.000853529
 -------------------------------------------------------------------
 Cartesian Forces:  Max     0.339700238 RMS     0.085411641
 Leave Link  716 at Thu Aug  7 18:44:58 2025, MaxMem=   104857600 cpu:               0.0 elap:               0.0
 (Enter /Applications/g16/l103.exe)

 GradGradGradGradGradGradGradGradGradGradGradGradGradGradGradGradGradGrad
 Berny optimization.
 Using GEDIIS/GDIIS optimizer.
 FormGI is forming the generalized inverse of G from B-inverse, IUseBI=4.
 Internal  Forces:  Max     0.347039214 RMS     0.057052907
 Search for a local minimum.
 Step number   8 out of a maximum of   47
 All quantities printed in internal units (Hartrees-Bohrs-Radians)
 RMS Force = .37163D-04 SwitMx=.10000D-02 MixMth= 2
 Mixed Optimization -- En-DIIS/RFO-DIIS
 Swapping is turned off.
 Update second derivatives using D2CorX and points    1    2    3    4    5
                                                      6    7    8
 DE= -1.36D-07 DEPred=-1.01D-07 R= 1.34D+00
 Trust test= 1.34D+00 RLast= 2.06D-03 DXMaxT set to 1.50D-01
 ITU=  0  0  0  1 -1  0  1  0
     Eigenvalues ---    0.00231   0.01406   0.04624   0.05173   0.05233
     Eigenvalues ---    0.05567   0.06055   0.06235   0.07442   0.08978
     Eigenvalues ---    0.10883   0.15835   0.16048   0.16229   0.16362
     Eigenvalues ---    0.22840   0.24520   0.28644   0.33391   0.34148
     Eigenvalues ---    0.34320   0.34354   0.35144   0.38789   1.30551
     Eigenvalues ---    1.441821000.000001000.000001000.000001000.00000
     Eigenvalues --- 1000.000001000.000001000.000001000.000001000.00000
     Eigenvalues --- 1000.000001000.00000
 En-DIIS/RFO-DIIS/Sim-DIIS IScMMF=       -3 using points:     8    7    6    5    4    3    2
 RFO step:  Lambda=-1.20577227D-04.
 NNeg= 0 NGDIIS= 7 SimSw=  2.50D-01 Rises=F DC= -1.36D-07 SmlDif=  1.00D-05
 NRisDI= 0 DoIntr=F SqrtH=F CThrHd= 10.0 CDAdj=  3.0
 RMS Error=  0.3643260241D-03 NUsed= 7 OKEnD=F EnDIS=F
 InvSVX:  RCond= 3.19D-08 Info=           0 Equed=N FErr=  1.05D-13 BErr=  6.15D-17
 DIIS inversion failure, remove point   7.
 InvSVX:  RCond= 3.82D-08 Info=           0 Equed=N FErr=  8.42D-14 BErr=  5.59D-17
 DIIS inversion failure, remove point   6.
 InvSVX:  RCond= 4.75D-08 Info=           0 Equed=N FErr=  6.40D-14 BErr=  7.03D-17
 DIIS inversion failure, remove point   5.
 InvSVX:  RCond= 6.09D-08 Info=           0 Equed=N FErr=  5.10D-14 BErr=  5.20D-17
 DIIS inversion failure, remove point   4.
 InvSVX:  RCond= 1.68D-07 Info=           0 Equed=N FErr=  2.06D-14 BErr=  4.80D-17
 RFO-DIIS uses    3 points instead of    7
 DidBck=F Rises=F RFO-DIIS coefs:    1.88170   -0.75745   -0.12426    0.00000    0.00000
                  RFO-DIIS coefs:    0.00000    0.00000
 Iteration  1 RMS(Cart)=  0.00048685 RMS(Int)=  0.00000065
 Iteration  2 RMS(Cart)=  0.00000074 RMS(Int)=  0.00000001
 Iteration  1 RMS(Cart)=  0.00000000 RMS(Int)=  0.00000000
 ITry= 1 IFail=0 DXMaxC= 2.05D-03 DCOld= 1.00D+10 DXMaxT= 1.50D-01 DXLimC= 3.00D+00 Rises=F
 Variable       Old X    -DE/DX   Delta X   Delta X   Delta X     New X
                                 (Linear)    (Quad)   (Total)
    R1        2.18424  -0.00000   0.00000  -0.00000  -0.00000   2.18424
    R2        2.76257   0.00004   0.00000   0.00008   0.00008   2.76266
    R3        2.93172  -0.00006  -0.00011  -0.00012  -0.00023   2.93150
    R4        2.06749   0.00000   0.00002   0.00000   0.00002   2.06751
    R5        2.06749   0.00000   0.00002   0.00000   0.00002   2.06751
    R6        2.74326   0.00006   0.00013   0.00009   0.00022   2.74348
    R7        2.07239   0.00001  -0.00004   0.00003  -0.00001   2.07238
    R8        2.07238   0.00001  -0.00003   0.00002  -0.00001   2.07237
    R9        2.19414   0.00019  -0.00001   0.00012   0.00011   2.19425
   R10        2.45664   0.34704  -0.00000   0.00000   0.00000   2.45664
    A1        1.90093   0.00002   0.00000   0.00012   0.00013   1.90105
    A2        1.90655  -0.00000  -0.00002   0.00001  -0.00001   1.90654
    A3        1.90652  -0.00000  -0.00001  -0.00000  -0.00001   1.90652
    A4        1.93089  -0.00001   0.00003  -0.00003  -0.00001   1.93088
    A5        1.93089  -0.00001   0.00005  -0.00006  -0.00002   1.93088
    A6        1.88781   0.00000  -0.00006  -0.00003  -0.00009   1.88772
    A7        1.95580  -0.00003  -0.00020  -0.00006  -0.00026   1.95554
    A8        1.93631   0.00001   0.00008   0.00003   0.00012   1.93643
    A9        1.93632   0.00001   0.00007   0.00005   0.00013   1.93645
   A10        1.87755   0.00001  -0.00010   0.00004  -0.00006   1.87750
   A11        1.87766   0.00001  -0.00002  -0.00007  -0.00009   1.87757
   A12        1.87689   0.00000   0.00016   0.00001   0.00017   1.87706
   A13        3.11262  -0.00001  -0.00011  -0.00003  -0.00014   3.11248
   A14        3.13527   0.00002   0.00001   0.00010   0.00011   3.13538
   A15        3.19003   0.00001   0.00179  -0.00016   0.00162   3.19166
   A16        3.12612  -0.00001  -0.00023   0.00009  -0.00013   3.12599
   A17        3.13797   0.00000   0.00019  -0.00032  -0.00013   3.13783
   A18        3.10921  -0.00003  -0.00093  -0.00032  -0.00125   3.10797
    D1        3.14157  -0.00000   0.00008  -0.00013  -0.00005   3.14152
    D2       -1.04265  -0.00001  -0.00012  -0.00010  -0.00022  -1.04287
    D3        1.04247   0.00001   0.00018  -0.00003   0.00015   1.04263
    D4       -1.04586   0.00000   0.00008  -0.00006   0.00001  -1.04585
    D5        1.05310  -0.00000  -0.00012  -0.00003  -0.00015   1.05294
    D6        3.13822   0.00001   0.00018   0.00004   0.00022   3.13844
    D7        1.04585  -0.00001   0.00005  -0.00016  -0.00011   1.04574
    D8       -3.13837  -0.00001  -0.00014  -0.00013  -0.00028  -3.13865
    D9       -1.05325   0.00000   0.00016  -0.00006   0.00009  -1.05316
         Item               Value     Threshold  Converged?
 Maximum Force            0.000191     0.000450     YES
 RMS     Force            0.000037     0.000300     YES
 Maximum Displacement     0.002054     0.001800     NO 
 RMS     Displacement     0.000487     0.001200     YES
 Predicted change in Energy=-7.064666D-08
 Lowest energy point so far.  Saving SCF results.
 GradGradGradGradGradGradGradGradGradGradGradGradGradGradGradGradGradGrad

 Leave Link  103 at Thu Aug  7 18:44:58 2025, MaxMem=   104857600 cpu:               0.0 elap:               0.0
 (Enter /Applications/g16/l202.exe)
                          Input orientation:                          
 ---------------------------------------------------------------------
 Center     Atomic      Atomic             Coordinates (Angstroms)
 Number     Number       Type             X           Y           Z
 ---------------------------------------------------------------------
      1          7           0        3.257857   -0.187442    0.000668
      2          6           0        2.167277    0.195468    0.000261
      3          6           0        0.773206    0.635719   -0.000196
      4          6           0       -0.148412   -0.612115   -0.000225
      5          6           0       -1.554561   -0.250962   -0.000576
      6          7           0       -2.677191    0.045624   -0.001075
      7          1           0        0.033878   -1.234183   -0.884791
      8          1           0        0.033558   -1.234004    0.884527
      9          1           0        0.589651    1.250555   -0.886364
     10          1           0        0.589188    1.250853    0.885668
     11          3           0       -3.950088    0.309671    0.002165
 ---------------------------------------------------------------------
                    Distance matrix (angstroms):
                    1          2          3          4          5
     1  N    0.000000
     2  C    1.155848   0.000000
     3  C    2.617458   1.461936   0.000000
     4  C    3.432641   2.452470   1.551281   0.000000
     5  C    4.812838   3.748517   2.490924   1.451787   0.000000
     6  N    5.939623   4.846785   3.500493   2.612918   1.161147
     7  H    3.503391   2.716360   2.196736   1.096656   2.066809
     8  H    3.503228   2.716262   2.196743   1.096652   2.066857
     9  H    3.158162   2.094807   1.094079   2.190780   2.763479
    10  H    3.158119   2.094791   1.094079   2.190779   2.763428
    11  Li   7.225068   6.118432   4.734535   3.911833   2.460258
                    6          7          8          9         10
     6  N    0.000000
     7  H    3.125501   0.000000
     8  H    3.125683   1.769318   0.000000
     9  H    3.592749   2.546136   3.101343   0.000000
    10  H    3.592787   3.101338   2.546221   1.772032   0.000000
    11  Li   1.300000   4.363733   4.362446   4.720591   4.719262
                   11
    11  Li   0.000000
 Stoichiometry    C4H4LiN2(1+)
 Framework group  C1[X(C4H4LiN2)]
 Deg. of freedom    27
 Full point group                 C1      NOp   1
 RotChk:  IX=2 Diff= 9.44D-05
 Largest Abelian subgroup         C1      NOp   1
 Largest concise Abelian subgroup C1      NOp   1
                         Standard orientation:                         
 ---------------------------------------------------------------------
 Center     Atomic      Atomic             Coordinates (Angstroms)
 Number     Number       Type             X           Y           Z
 ---------------------------------------------------------------------
      1          7           0        3.237278   -0.197781    0.000496
      2          6           0        2.148515    0.190268    0.000093
      3          6           0        0.756536    0.637088   -0.000348
      4          6           0       -0.170957   -0.606386   -0.000048
      5          6           0       -1.575387   -0.238606   -0.000366
      6          7           0       -2.696605    0.063270   -0.000840
      7          1           0        0.008330   -1.229490   -0.884499
      8          1           0        0.008147   -1.228943    0.884819
      9          1           0        0.575813    1.252599   -0.886629
     10          1           0        0.575489    1.253266    0.885402
     11          3           0       -3.968243    0.333318    0.002443
 ---------------------------------------------------------------------
 Rotational constants (GHZ):          23.9115006           1.1107506           1.0757222
 Leave Link  202 at Thu Aug  7 18:44:58 2025, MaxMem=   104857600 cpu:               0.0 elap:               0.0
 (Enter /Applications/g16/l301.exe)
 Standard basis: 6-31G(d) (6D, 7F)
 Ernie: Thresh=  0.10000D-02 Tol=  0.10000D-05 Strict=F.
 There are   113 symmetry adapted cartesian basis functions of A   symmetry.
 There are   113 symmetry adapted basis functions of A   symmetry.
   113 basis functions,   212 primitive gaussians,   113 cartesian basis functions
    22 alpha electrons       22 beta electrons
       nuclear repulsion energy       200.4238821563 Hartrees.
 IExCor= 4639 DFT=T Ex+Corr=wB97XD ExCW=0 ScaHFX=  1.000000
 ScaDFX=  1.000000  1.000000  1.000000  1.000000 ScalE2=  1.000000  1.000000
 IRadAn=      5 IRanWt=     -1 IRanGd=            0 ICorTp=0 IEmpDi=121
 HFx  wShort=  0.000000 wLong=  0.200000 cFull=  0.222036 cShort=  0.000000 cLong=  0.777964
 DFx  wShort=  0.000000 wLong=  0.200000 cFull=  0.000000 cShort=  0.000000 cLong=  1.000000
 NAtoms=   11 NActive=   11 NUniq=   11 SFac= 1.00D+00 NAtFMM=   60 NAOKFM=F Big=F
 Integral buffers will be    131072 words long.
 Raffenetti 2 integral format.
 Two-electron integral symmetry is turned on.
 R6Disp:  Grimme-D2 Dispersion energy=       -0.0048159052 Hartrees.
 Nuclear repulsion after empirical dispersion term =      200.4190662512 Hartrees.
 Leave Link  301 at Thu Aug  7 18:44:58 2025, MaxMem=   104857600 cpu:               0.0 elap:               0.0
 (Enter /Applications/g16/l302.exe)
 NPDir=0 NMtPBC=     1 NCelOv=     1 NCel=       1 NClECP=     1 NCelD=      1
         NCelK=      1 NCelE2=     1 NClLst=     1 CellRange=     0.0.
 One-electron integrals computed using PRISM.
 One-electron integral symmetry used in STVInt
 NBasis=   113 RedAO= T EigKep=  7.80D-04  NBF=   113
 NBsUse=   113 1.00D-06 EigRej= -1.00D+00 NBFU=   113
 Precomputing XC quadrature grid using
 IXCGrd= 4 IRadAn=           5 IRanWt=          -1 IRanGd=           0 AccXCQ= 0.00D+00.
 Generated NRdTot=       0 NPtTot=           0 NUsed=           0 NTot=          32
 NSgBfM=   113   113   113   113   113 MxSgAt=    11 MxSgA2=    11.
 Leave Link  302 at Thu Aug  7 18:44:58 2025, MaxMem=   104857600 cpu:               0.1 elap:               0.1
 (Enter /Applications/g16/l303.exe)
 DipDrv:  MaxL=1.
 Leave Link  303 at Thu Aug  7 18:44:58 2025, MaxMem=   104857600 cpu:               0.0 elap:               0.0
 (Enter /Applications/g16/l401.exe)
 Initial guess from the checkpoint file:  "/Users/srak/g16_scratch/Gau-74209.chk"
 B after Tr=    -0.000000    0.000000   -0.000000
         Rot=    1.000000   -0.000010   -0.000000   -0.000002 Ang=  -0.00 deg.
 Guess basis will be translated and rotated to current coordinates.
 JPrj=2 DoOrth=T DoCkMO=T.
 Leave Link  401 at Thu Aug  7 18:44:58 2025, MaxMem=   104857600 cpu:               0.0 elap:               0.0
 (Enter /Applications/g16/l502.exe)
 Keep R1 ints in memory in canonical form, NReq=43174005.
 FoFCou: FMM=F IPFlag=           0 FMFlag=           0 FMFlg1=           0
         NFxFlg=           0 DoJE=F BraDBF=F KetDBF=F FulRan=T
         wScrn=  0.000000 ICntrl=       600 IOpCl=  0 I1Cent=           0 NGrid=           0
         NMat0=    1 NMatS0=   6441 NMatT0=    0 NMatD0=    1 NMtDS0=    0 NMtDT0=    0
 Symmetry not used in FoFCou.
 Two-electron integral symmetry not used.
 Closed shell SCF:
 Using DIIS extrapolation, IDIIS=  1040.
 NGot=   104857600 LenX=    63336875 LenY=    63323665
 Requested convergence on RMS density matrix=1.00D-08 within 128 cycles.
 Requested convergence on MAX density matrix=1.00D-06.
 Requested convergence on             energy=1.00D-06.
 No special actions if energy rises.

 Cycle   1  Pass 1  IDiag  1:
 E= -271.428950155530    
 DIIS: error= 3.57D-05 at cycle   1 NSaved=   1.
 NSaved= 1 IEnMin= 1 EnMin= -271.428950155530     IErMin= 1 ErrMin= 3.57D-05
 ErrMax= 3.57D-05  0.00D+00 EMaxC= 1.00D-01 BMatC= 1.62D-07 BMatP= 1.62D-07
 IDIUse=1 WtCom= 1.00D+00 WtEn= 0.00D+00
 Coeff-Com:  0.100D+01
 Coeff:      0.100D+01
 Gap=     1.156 Goal=   None    Shift=    0.000
 RMSDP=1.33D-05 MaxDP=3.15D-04              OVMax= 1.67D-04

 Cycle   2  Pass 1  IDiag  1:
 E= -271.428950441566     Delta-E=       -0.000000286036 Rises=F Damp=F
 DIIS: error= 9.92D-06 at cycle   2 NSaved=   2.
 NSaved= 2 IEnMin= 2 EnMin= -271.428950441566     IErMin= 2 ErrMin= 9.92D-06
 ErrMax= 9.92D-06  0.00D+00 EMaxC= 1.00D-01 BMatC= 6.83D-09 BMatP= 1.62D-07
 IDIUse=1 WtCom= 1.00D+00 WtEn= 0.00D+00
 Coeff-Com: -0.128D+00 0.113D+01
 Coeff:     -0.128D+00 0.113D+01
 Gap=     0.385 Goal=   None    Shift=    0.000
 RMSDP=2.66D-06 MaxDP=8.82D-05 DE=-2.86D-07 OVMax= 7.92D-05

 Cycle   3  Pass 1  IDiag  1:
 E= -271.428950460398     Delta-E=       -0.000000018831 Rises=F Damp=F
 DIIS: error= 4.25D-06 at cycle   3 NSaved=   3.
 NSaved= 3 IEnMin= 3 EnMin= -271.428950460398     IErMin= 3 ErrMin= 4.25D-06
 ErrMax= 4.25D-06  0.00D+00 EMaxC= 1.00D-01 BMatC= 2.03D-09 BMatP= 6.83D-09
 IDIUse=1 WtCom= 1.00D+00 WtEn= 0.00D+00
 Coeff-Com: -0.768D-01 0.386D+00 0.691D+00
 Coeff:     -0.768D-01 0.386D+00 0.691D+00
 Gap=     0.385 Goal=   None    Shift=    0.000
 RMSDP=5.94D-07 MaxDP=1.33D-05 DE=-1.88D-08 OVMax= 2.07D-05

 Cycle   4  Pass 1  IDiag  1:
 E= -271.428950461815     Delta-E=       -0.000000001417 Rises=F Damp=F
 DIIS: error= 3.18D-06 at cycle   4 NSaved=   4.
 NSaved= 4 IEnMin= 4 EnMin= -271.428950461815     IErMin= 4 ErrMin= 3.18D-06
 ErrMax= 3.18D-06  0.00D+00 EMaxC= 1.00D-01 BMatC= 1.04D-09 BMatP= 2.03D-09
 IDIUse=1 WtCom= 1.00D+00 WtEn= 0.00D+00
 Coeff-Com: -0.266D-01 0.336D-01 0.433D+00 0.560D+00
 Coeff:     -0.266D-01 0.336D-01 0.433D+00 0.560D+00
 Gap=     0.385 Goal=   None    Shift=    0.000
 RMSDP=2.86D-07 MaxDP=6.38D-06 DE=-1.42D-09 OVMax= 1.04D-05

 Cycle   5  Pass 1  IDiag  1:
 E= -271.428950462779     Delta-E=       -0.000000000964 Rises=F Damp=F
 DIIS: error= 3.91D-07 at cycle   5 NSaved=   5.
 NSaved= 5 IEnMin= 5 EnMin= -271.428950462779     IErMin= 5 ErrMin= 3.91D-07
 ErrMax= 3.91D-07  0.00D+00 EMaxC= 1.00D-01 BMatC= 2.10D-11 BMatP= 1.04D-09
 IDIUse=1 WtCom= 1.00D+00 WtEn= 0.00D+00
 Coeff-Com:  0.584D-02-0.416D-01-0.439D-01 0.739D-01 0.101D+01
 Coeff:      0.584D-02-0.416D-01-0.439D-01 0.739D-01 0.101D+01
 Gap=     0.385 Goal=   None    Shift=    0.000
 RMSDP=9.00D-08 MaxDP=2.21D-06 DE=-9.64D-10 OVMax= 3.79D-06

 Cycle   6  Pass 1  IDiag  1:
 E= -271.428950462812     Delta-E=       -0.000000000033 Rises=F Damp=F
 DIIS: error= 8.84D-08 at cycle   6 NSaved=   6.
 NSaved= 6 IEnMin= 6 EnMin= -271.428950462812     IErMin= 6 ErrMin= 8.84D-08
 ErrMax= 8.84D-08  0.00D+00 EMaxC= 1.00D-01 BMatC= 1.82D-12 BMatP= 2.10D-11
 IDIUse=1 WtCom= 1.00D+00 WtEn= 0.00D+00
 Coeff-Com:  0.257D-02-0.113D-01-0.328D-01-0.407D-02 0.298D+00 0.748D+00
 Coeff:      0.257D-02-0.113D-01-0.328D-01-0.407D-02 0.298D+00 0.748D+00
 Gap=     0.385 Goal=   None    Shift=    0.000
 RMSDP=1.62D-08 MaxDP=3.52D-07 DE=-3.31D-11 OVMax= 6.70D-07

 Cycle   7  Pass 1  IDiag  1:
 E= -271.428950462821     Delta-E=       -0.000000000008 Rises=F Damp=F
 DIIS: error= 6.33D-08 at cycle   7 NSaved=   7.
 NSaved= 7 IEnMin= 7 EnMin= -271.428950462821     IErMin= 7 ErrMin= 6.33D-08
 ErrMax= 6.33D-08  0.00D+00 EMaxC= 1.00D-01 BMatC= 5.62D-13 BMatP= 1.82D-12
 IDIUse=1 WtCom= 1.00D+00 WtEn= 0.00D+00
 Coeff-Com:  0.537D-03-0.524D-03-0.117D-01-0.111D-01 0.330D-01 0.374D+00
 Coeff-Com:  0.616D+00
 Coeff:      0.537D-03-0.524D-03-0.117D-01-0.111D-01 0.330D-01 0.374D+00
 Coeff:      0.616D+00
 Gap=     0.385 Goal=   None    Shift=    0.000
 RMSDP=6.63D-09 MaxDP=1.87D-07 DE=-8.36D-12 OVMax= 2.45D-07

 SCF Done:  E(RwB97XD) =  -271.428950463     A.U. after    7 cycles
            NFock=  7  Conv=0.66D-08     -V/T= 2.0059
 KE= 2.698238743158D+02 PE=-1.024123768676D+03 EE= 2.824518776457D+02
 Leave Link  502 at Thu Aug  7 18:45:03 2025, MaxMem=   104857600 cpu:               4.4 elap:               4.4
 (Enter /Applications/g16/l701.exe)
 ... and contract with generalized density number  0.
 Compute integral first derivatives.
 R6Disp: Adding Grimme-D2 dispersion energy 1st derivatives to the gradient.
 Leave Link  701 at Thu Aug  7 18:45:03 2025, MaxMem=   104857600 cpu:               0.0 elap:               0.0
 (Enter /Applications/g16/l702.exe)
 L702 exits ... SP integral derivatives will be done elsewhere.
 Leave Link  702 at Thu Aug  7 18:45:03 2025, MaxMem=   104857600 cpu:               0.0 elap:               0.0
 (Enter /Applications/g16/l703.exe)
 Integral derivatives from FoFJK, PRISM(SPDF).
 Compute integral first derivatives, UseDBF=F ICtDFT=           0.
 Calling FoFJK, ICntrl=      2127 FMM=F ISym2X=0 I1Cent= 0 IOpClX= 0 NMat=1 NMatS=1 NMatT=0.
 FoFJK:  IHMeth= 1 ICntrl=    2127 DoSepK=T KAlg= 0 I1Cent=           0 FoldK=F
 IRaf=         1 NMat=       1 IRICut=       1 DoRegI=T DoRafI=F ISym2E= 0 IDoP0=0 IntGTp=1.
 FoFCou: FMM=F IPFlag=           0 FMFlag=      100000 FMFlg1=         800
         NFxFlg=           0 DoJE=F BraDBF=F KetDBF=F FulRan=T
         wScrn=  0.000000 ICntrl=      2527 IOpCl=  0 I1Cent=           0 NGrid=           0
         NMat0=    1 NMatS0=      1 NMatT0=    0 NMatD0=    1 NMtDS0=    0 NMtDT0=    0
 Symmetry not used in FoFCou.
 Leave Link  703 at Thu Aug  7 18:45:05 2025, MaxMem=   104857600 cpu:               2.4 elap:               2.4
 (Enter /Applications/g16/l716.exe)
 Dipole        =-5.72178062D+00 4.23049716D-01 4.14015828D-03
 ***** Axes restored to original set *****
 -------------------------------------------------------------------
 Center     Atomic                   Forces (Hartrees/Bohr)
 Number     Number              X              Y              Z
 -------------------------------------------------------------------
      1        7          -0.000001139    0.000000358   -0.000000929
      2        6           0.000009182   -0.000001262    0.000001441
      3        6          -0.000008031   -0.000006932    0.000000504
      4        6          -0.000003516    0.000017220    0.000005913
      5        6           0.000040241   -0.000004158   -0.000035793
      6        7           0.339760129   -0.070475717   -0.000816486
      7        1           0.000000350   -0.000005332   -0.000001576
      8        1           0.000005668   -0.000006086    0.000002439
      9        1          -0.000001832   -0.000002831   -0.000000628
     10        1          -0.000000585   -0.000001626    0.000000275
     11        3          -0.339800466    0.070486365    0.000844841
 -------------------------------------------------------------------
 Cartesian Forces:  Max     0.339800466 RMS     0.085429014
 Leave Link  716 at Thu Aug  7 18:45:05 2025, MaxMem=   104857600 cpu:               0.0 elap:               0.0
 (Enter /Applications/g16/l103.exe)

 GradGradGradGradGradGradGradGradGradGradGradGradGradGradGradGradGradGrad
 Berny optimization.
 Using GEDIIS/GDIIS optimizer.
 FormGI is forming the generalized inverse of G from B-inverse, IUseBI=4.
 Internal  Forces:  Max     0.347035055 RMS     0.057052212
 Search for a local minimum.
 Step number   9 out of a maximum of   47
 All quantities printed in internal units (Hartrees-Bohrs-Radians)
 RMS Force = .95163D-05 SwitMx=.10000D-02 MixMth= 2
 Mixed Optimization -- En-DIIS/RFO-DIIS
 Swapping is turned off.
 Update second derivatives using D2CorX and points    1    2    3    4    5
                                                      6    7    8    9
 DE= -7.35D-08 DEPred=-7.06D-08 R= 1.04D+00
 Trust test= 1.04D+00 RLast= 2.18D-03 DXMaxT set to 1.50D-01
 ITU=  0  0  0  0  1 -1  0  1  0
     Eigenvalues ---    0.00231   0.01318   0.04658   0.05109   0.05249
     Eigenvalues ---    0.05658   0.06088   0.06271   0.07450   0.09048
     Eigenvalues ---    0.11170   0.15932   0.16073   0.16289   0.16530
     Eigenvalues ---    0.22383   0.24792   0.28510   0.33705   0.34150
     Eigenvalues ---    0.34294   0.34354   0.35263   0.38464   1.29519
     Eigenvalues ---    1.305621000.000001000.000001000.000001000.00000
     Eigenvalues --- 1000.000001000.000001000.000001000.000001000.00000
     Eigenvalues --- 1000.000001000.00000
 En-DIIS/RFO-DIIS/Sim-DIIS IScMMF=       -3 using points:     9    8    7    6    5    4    3    2
 RFO step:  Lambda=-1.20450949D-04.
 NNeg= 0 NGDIIS= 8 SimSw=  2.50D-01 Rises=F DC= -7.35D-08 SmlDif=  1.00D-05
 NRisDI= 0 DoIntr=F SqrtH=F CThrHd= 10.0 CDAdj=  3.0
 RMS Error=  0.9771266154D-04 NUsed= 8 OKEnD=F EnDIS=F
 InvSVX:  RCond= 6.27D-09 Info=           0 Equed=N FErr=  8.76D-14 BErr=  5.78D-17
 DIIS inversion failure, remove point   8.
 InvSVX:  RCond= 8.08D-09 Info=           0 Equed=N FErr=  1.85D-13 BErr=  5.21D-17
 DIIS inversion failure, remove point   7.
 InvSVX:  RCond= 1.22D-08 Info=           0 Equed=N FErr=  1.12D-13 BErr=  6.17D-17
 DIIS inversion failure, remove point   6.
 InvSVX:  RCond= 1.52D-08 Info=           0 Equed=N FErr=  9.68D-14 BErr=  7.87D-17
 DIIS inversion failure, remove point   5.
 InvSVX:  RCond= 1.92D-08 Info=           0 Equed=N FErr=  6.17D-14 BErr=  7.98D-17
 DIIS inversion failure, remove point   4.
 InvSVX:  RCond= 2.72D-08 Info=           0 Equed=N FErr=  4.22D-14 BErr=  4.88D-17
 DIIS inversion failure, remove point   3.
 InvSVX:  RCond= 1.17D-06 Info=           0 Equed=N FErr=  1.26D-15 BErr=  4.59D-17
 RFO-DIIS uses    2 points instead of    8
 DidBck=F Rises=F RFO-DIIS coefs:    1.07102   -0.07102    0.00000    0.00000    0.00000
                  RFO-DIIS coefs:    0.00000    0.00000    0.00000
 Iteration  1 RMS(Cart)=  0.00006863 RMS(Int)=  0.00000001
 Iteration  2 RMS(Cart)=  0.00000001 RMS(Int)=  0.00000000
 Iteration  1 RMS(Cart)=  0.00000000 RMS(Int)=  0.00000000
 ITry= 1 IFail=0 DXMaxC= 1.95D-04 DCOld= 1.00D+10 DXMaxT= 1.50D-01 DXLimC= 3.00D+00 Rises=F
 Variable       Old X    -DE/DX   Delta X   Delta X   Delta X     New X
                                 (Linear)    (Quad)   (Total)
    R1        2.18424  -0.00000  -0.00000  -0.00000  -0.00000   2.18424
    R2        2.76266   0.00001   0.00001   0.00001   0.00002   2.76268
    R3        2.93150  -0.00001  -0.00002  -0.00003  -0.00005   2.93144
    R4        2.06751  -0.00000   0.00000  -0.00000   0.00000   2.06751
    R5        2.06751  -0.00000   0.00000   0.00000   0.00000   2.06751
    R6        2.74348   0.00000   0.00002   0.00001   0.00003   2.74351
    R7        2.07238   0.00000  -0.00000   0.00001   0.00001   2.07239
    R8        2.07237   0.00001  -0.00000   0.00001   0.00001   2.07239
    R9        2.19425   0.00004   0.00001   0.00003   0.00003   2.19428
   R10        2.45664   0.34704  -0.00000   0.00000  -0.00000   2.45664
    A1        1.90105   0.00001   0.00001   0.00004   0.00005   1.90110
    A2        1.90654  -0.00000  -0.00000  -0.00001  -0.00001   1.90652
    A3        1.90652  -0.00000  -0.00000  -0.00001  -0.00001   1.90650
    A4        1.93088  -0.00001  -0.00000  -0.00001  -0.00001   1.93087
    A5        1.93088  -0.00000  -0.00000   0.00000  -0.00000   1.93088
    A6        1.88772   0.00000  -0.00001  -0.00000  -0.00001   1.88771
    A7        1.95554  -0.00000  -0.00002  -0.00002  -0.00004   1.95550
    A8        1.93643   0.00000   0.00001   0.00003   0.00004   1.93647
    A9        1.93645  -0.00000   0.00001   0.00002   0.00003   1.93647
   A10        1.87750  -0.00000  -0.00000  -0.00002  -0.00003   1.87747
   A11        1.87757   0.00000  -0.00001   0.00003   0.00002   1.87759
   A12        1.87706  -0.00000   0.00001  -0.00003  -0.00001   1.87704
   A13        3.11248   0.00000  -0.00001   0.00001   0.00000   3.11249
   A14        3.13538  -0.00000   0.00001   0.00001   0.00002   3.13539
   A15        3.19166  -0.00002   0.00012  -0.00022  -0.00010   3.19155
   A16        3.12599   0.00000  -0.00001   0.00003   0.00002   3.12601
   A17        3.13783   0.00001  -0.00001   0.00021   0.00020   3.13803
   A18        3.10797  -0.00003  -0.00009  -0.00030  -0.00039   3.10758
    D1        3.14152   0.00000  -0.00000   0.00007   0.00006   3.14159
    D2       -1.04287   0.00000  -0.00002   0.00004   0.00003  -1.04284
    D3        1.04263  -0.00000   0.00001   0.00004   0.00005   1.04267
    D4       -1.04585   0.00000   0.00000   0.00007   0.00007  -1.04578
    D5        1.05294   0.00000  -0.00001   0.00004   0.00003   1.05298
    D6        3.13844  -0.00000   0.00002   0.00004   0.00005   3.13849
    D7        1.04574   0.00000  -0.00001   0.00006   0.00005   1.04579
    D8       -3.13865  -0.00000  -0.00002   0.00003   0.00001  -3.13864
    D9       -1.05316  -0.00000   0.00001   0.00003   0.00003  -1.05312
         Item               Value     Threshold  Converged?
 Maximum Force            0.000041     0.000450     YES
 RMS     Force            0.000010     0.000300     YES
 Maximum Displacement     0.000195     0.001800     YES
 RMS     Displacement     0.000069     0.001200     YES
 Predicted change in Energy=-8.831191D-09
 Optimization completed.
    -- Stationary point found.
                           ----------------------------
                           !   Optimized Parameters   !
                           ! (Angstroms and Degrees)  !
 --------------------------                            --------------------------
 ! Name  Definition              Value          Derivative Info.                !
 --------------------------------------------------------------------------------
 ! R1    R(1,2)                  1.1558         -DE/DX =    0.0                 !
 ! R2    R(2,3)                  1.4619         -DE/DX =    0.0                 !
 ! R3    R(3,4)                  1.5513         -DE/DX =    0.0                 !
 ! R4    R(3,9)                  1.0941         -DE/DX =    0.0                 !
 ! R5    R(3,10)                 1.0941         -DE/DX =    0.0                 !
 ! R6    R(4,5)                  1.4518         -DE/DX =    0.0                 !
 ! R7    R(4,7)                  1.0967         -DE/DX =    0.0                 !
 ! R8    R(4,8)                  1.0967         -DE/DX =    0.0                 !
 ! R9    R(5,6)                  1.1611         -DE/DX =    0.0                 !
 ! R10   R(6,11)                 1.3            -DE/DX =    0.347               !
 ! A1    A(2,3,4)              108.9224         -DE/DX =    0.0                 !
 ! A2    A(2,3,9)              109.2365         -DE/DX =    0.0                 !
 ! A3    A(2,3,10)             109.2353         -DE/DX =    0.0                 !
 ! A4    A(4,3,9)              110.6312         -DE/DX =    0.0                 !
 ! A5    A(4,3,10)             110.6311         -DE/DX =    0.0                 !
 ! A6    A(9,3,10)             108.1583         -DE/DX =    0.0                 !
 ! A7    A(3,4,5)              112.0442         -DE/DX =    0.0                 !
 ! A8    A(3,4,7)              110.9494         -DE/DX =    0.0                 !
 ! A9    A(3,4,8)              110.9502         -DE/DX =    0.0                 !
 ! A10   A(5,4,7)              107.5726         -DE/DX =    0.0                 !
 ! A11   A(5,4,8)              107.5766         -DE/DX =    0.0                 !
 ! A12   A(7,4,8)              107.5474         -DE/DX =    0.0                 !
 ! A13   L(1,2,3,7,-1)         178.3321         -DE/DX =    0.0                 !
 ! A14   L(4,5,6,10,-1)        179.644          -DE/DX =    0.0                 !
 ! A15   L(5,6,11,9,-1)        182.8684         -DE/DX =    0.0                 !
 ! A16   L(1,2,3,7,-2)         179.106          -DE/DX =    0.0                 !
 ! A17   L(4,5,6,10,-2)        179.7847         -DE/DX =    0.0                 !
 ! A18   L(5,6,11,9,-2)        178.0735         -DE/DX =    0.0                 !
 ! D1    D(2,3,4,5)            179.9959         -DE/DX =    0.0                 !
 ! D2    D(2,3,4,7)            -59.7519         -DE/DX =    0.0                 !
 ! D3    D(2,3,4,8)             59.738          -DE/DX =    0.0                 !
 ! D4    D(9,3,4,5)            -59.9229         -DE/DX =    0.0                 !
 ! D5    D(9,3,4,7)             60.3293         -DE/DX =    0.0                 !
 ! D6    D(9,3,4,8)            179.8192         -DE/DX =    0.0                 !
 ! D7    D(10,3,4,5)            59.9164         -DE/DX =    0.0                 !
 ! D8    D(10,3,4,7)          -179.8314         -DE/DX =    0.0                 !
 ! D9    D(10,3,4,8)           -60.3415         -DE/DX =    0.0                 !
 --------------------------------------------------------------------------------
 Lowest energy point so far.  Saving SCF results.
 Largest change from initial coordinates is atom   11       0.016 Angstoms.
 GradGradGradGradGradGradGradGradGradGradGradGradGradGradGradGradGradGrad

 Leave Link  103 at Thu Aug  7 18:45:05 2025, MaxMem=   104857600 cpu:               0.0 elap:               0.0
 (Enter /Applications/g16/l202.exe)
                          Input orientation:                          
 ---------------------------------------------------------------------
 Center     Atomic      Atomic             Coordinates (Angstroms)
 Number     Number       Type             X           Y           Z
 ---------------------------------------------------------------------
      1          7           0        3.257857   -0.187442    0.000668
      2          6           0        2.167277    0.195468    0.000261
      3          6           0        0.773206    0.635719   -0.000196
      4          6           0       -0.148412   -0.612115   -0.000225
      5          6           0       -1.554561   -0.250962   -0.000576
      6          7           0       -2.677191    0.045624   -0.001075
      7          1           0        0.033878   -1.234183   -0.884791
      8          1           0        0.033558   -1.234004    0.884527
      9          1           0        0.589651    1.250555   -0.886364
     10          1           0        0.589188    1.250853    0.885668
     11          3           0       -3.950088    0.309671    0.002165
 ---------------------------------------------------------------------
                    Distance matrix (angstroms):
                    1          2          3          4          5
     1  N    0.000000
     2  C    1.155848   0.000000
     3  C    2.617458   1.461936   0.000000
     4  C    3.432641   2.452470   1.551281   0.000000
     5  C    4.812838   3.748517   2.490924   1.451787   0.000000
     6  N    5.939623   4.846785   3.500493   2.612918   1.161147
     7  H    3.503391   2.716360   2.196736   1.096656   2.066809
     8  H    3.503228   2.716262   2.196743   1.096652   2.066857
     9  H    3.158162   2.094807   1.094079   2.190780   2.763479
    10  H    3.158119   2.094791   1.094079   2.190779   2.763428
    11  Li   7.225068   6.118432   4.734535   3.911833   2.460258
                    6          7          8          9         10
     6  N    0.000000
     7  H    3.125501   0.000000
     8  H    3.125683   1.769318   0.000000
     9  H    3.592749   2.546136   3.101343   0.000000
    10  H    3.592787   3.101338   2.546221   1.772032   0.000000
    11  Li   1.300000   4.363733   4.362446   4.720591   4.719262
                   11
    11  Li   0.000000
 Stoichiometry    C4H4LiN2(1+)
 Framework group  C1[X(C4H4LiN2)]
 Deg. of freedom    27
 Full point group                 C1      NOp   1
 RotChk:  IX=2 Diff= 4.88D-16
 Largest Abelian subgroup         C1      NOp   1
 Largest concise Abelian subgroup C1      NOp   1
                         Standard orientation:                         
 ---------------------------------------------------------------------
 Center     Atomic      Atomic             Coordinates (Angstroms)
 Number     Number       Type             X           Y           Z
 ---------------------------------------------------------------------
      1          7           0        3.237278   -0.197781    0.000496
      2          6           0        2.148515    0.190268    0.000093
      3          6           0        0.756536    0.637088   -0.000348
      4          6           0       -0.170957   -0.606386   -0.000048
      5          6           0       -1.575387   -0.238606   -0.000366
      6          7           0       -2.696605    0.063270   -0.000840
      7          1           0        0.008330   -1.229490   -0.884499
      8          1           0        0.008147   -1.228943    0.884819
      9          1           0        0.575813    1.252599   -0.886629
     10          1           0        0.575489    1.253266    0.885402
     11          3           0       -3.968243    0.333318    0.002443
 ---------------------------------------------------------------------
 Rotational constants (GHZ):          23.9115006           1.1107506           1.0757222
 Leave Link  202 at Thu Aug  7 18:45:05 2025, MaxMem=   104857600 cpu:               0.0 elap:               0.0
 (Enter /Applications/g16/l601.exe)
 Copying SCF densities to generalized density rwf, IOpCl= 0 IROHF=0.

 **********************************************************************

            Population analysis using the SCF Density.

 **********************************************************************

 Orbital symmetries:
       Occupied  (A) (A) (A) (A) (A) (A) (A) (A) (A) (A) (A) (A)
                 (A) (A) (A) (A) (A) (A) (A) (A) (A) (A)
       Virtual   (A) (A) (A) (A) (A) (A) (A) (A) (A) (A) (A) (A)
                 (A) (A) (A) (A) (A) (A) (A) (A) (A) (A) (A) (A)
                 (A) (A) (A) (A) (A) (A) (A) (A) (A) (A) (A) (A)
                 (A) (A) (A) (A) (A) (A) (A) (A) (A) (A) (A) (A)
                 (A) (A) (A) (A) (A) (A) (A) (A) (A) (A) (A) (A)
                 (A) (A) (A) (A) (A) (A) (A) (A) (A) (A) (A) (A)
                 (A) (A) (A) (A) (A) (A) (A) (A) (A) (A) (A) (A)
                 (A) (A) (A) (A) (A) (A) (A)
 The electronic state is 1-A.
 Alpha  occ. eigenvalues --  -14.66558 -14.58546 -10.60784 -10.54501 -10.52167
 Alpha  occ. eigenvalues --  -10.47113  -2.31614  -1.25287  -1.14206  -1.10638
 Alpha  occ. eigenvalues --   -0.98960  -0.81875  -0.77276  -0.76385  -0.73088
 Alpha  occ. eigenvalues --   -0.70498  -0.69010  -0.65397  -0.64168  -0.57049
 Alpha  occ. eigenvalues --   -0.54430  -0.54041
 Alpha virt. eigenvalues --   -0.15561  -0.14974  -0.13367  -0.07323  -0.06381
 Alpha virt. eigenvalues --   -0.06242  -0.01896  -0.01254   0.03921   0.04475
 Alpha virt. eigenvalues --    0.04894   0.05612   0.08328   0.10223   0.10304
 Alpha virt. eigenvalues --    0.12231   0.14009   0.14297   0.25015   0.27410
 Alpha virt. eigenvalues --    0.33364   0.35541   0.35551   0.39008   0.41802
 Alpha virt. eigenvalues --    0.46221   0.46886   0.47822   0.53278   0.53453
 Alpha virt. eigenvalues --    0.54431   0.60213   0.60781   0.63761   0.65803
 Alpha virt. eigenvalues --    0.69749   0.73698   0.76114   0.76673   0.77086
 Alpha virt. eigenvalues --    0.80718   0.83336   0.85449   0.88266   0.92059
 Alpha virt. eigenvalues --    0.93114   0.96736   0.98992   1.02237   1.09129
 Alpha virt. eigenvalues --    1.23791   1.28401   1.29480   1.31036   1.37386
 Alpha virt. eigenvalues --    1.38538   1.41775   1.44867   1.47131   1.50415
 Alpha virt. eigenvalues --    1.60854   1.65609   1.68212   1.75848   1.76340
 Alpha virt. eigenvalues --    1.80961   1.85373   1.87223   1.88628   1.90834
 Alpha virt. eigenvalues --    1.93701   1.96947   2.12083   2.12110   2.16332
 Alpha virt. eigenvalues --    2.25090   2.34410   2.57054   2.64579   2.69264
 Alpha virt. eigenvalues --    2.71979   2.75555   2.78515   3.08298   3.22018
 Alpha virt. eigenvalues --    3.99262   4.02286   4.08787   4.16607   4.45660
 Alpha virt. eigenvalues --    4.67564
          Condensed to atoms (all electrons):
               1          2          3          4          5          6
     1  N    6.621400   0.853737  -0.080634  -0.000698  -0.000039  -0.000000
     2  C    0.853737   4.605220   0.277105  -0.037080   0.003079  -0.000048
     3  C   -0.080634   0.277105   5.232403   0.292187  -0.028473  -0.000435
     4  C   -0.000698  -0.037080   0.292187   5.366631   0.270145  -0.114299
     5  C   -0.000039   0.003079  -0.028473   0.270145   5.339071  -0.163090
     6  N   -0.000000  -0.000048  -0.000435  -0.114299  -0.163090   7.571460
     7  H    0.000327  -0.001743  -0.024675   0.369275  -0.030528  -0.000788
     8  H    0.000327  -0.001739  -0.024690   0.369415  -0.030614  -0.000806
     9  H   -0.000545  -0.026671   0.377286  -0.032857  -0.003111   0.000412
    10  H   -0.000546  -0.026681   0.377293  -0.032882  -0.003101   0.000415
    11  Li  -0.000020   0.000072   0.000731  -0.012036  -0.229672   0.451017
               7          8          9         10         11
     1  N    0.000327   0.000327  -0.000545  -0.000546  -0.000020
     2  C   -0.001743  -0.001739  -0.026671  -0.026681   0.000072
     3  C   -0.024675  -0.024690   0.377286   0.377293   0.000731
     4  C    0.369275   0.369415  -0.032857  -0.032882  -0.012036
     5  C   -0.030528  -0.030614  -0.003111  -0.003101  -0.229672
     6  N   -0.000788  -0.000806   0.000412   0.000415   0.451017
     7  H    0.395869  -0.015528  -0.002141   0.002557   0.000372
     8  H   -0.015528   0.395873   0.002556  -0.002142   0.000382
     9  H   -0.002141   0.002556   0.434775  -0.019837   0.000459
    10  H    0.002557  -0.002142  -0.019837   0.434837   0.000459
    11  Li   0.000372   0.000382   0.000459   0.000459   2.199553
 Mulliken charges:
               1
     1  N   -0.393308
     2  C    0.354751
     3  C   -0.398097
     4  C   -0.437802
     5  C    0.876334
     6  N   -0.743836
     7  H    0.307005
     8  H    0.306968
     9  H    0.269675
    10  H    0.269628
    11  Li   0.588683
 Sum of Mulliken charges =   1.00000
 Mulliken charges with hydrogens summed into heavy atoms:
               1
     1  N   -0.393308
     2  C    0.354751
     3  C    0.141206
     4  C    0.176171
     5  C    0.876334
     6  N   -0.743836
    11  Li   0.588683
 Electronic spatial extent (au):  <R**2>=            875.4529
 Charge=              1.0000 electrons
 Dipole moment (field-independent basis, Debye):
    X=            -14.5433    Y=              1.0753    Z=              0.0105  Tot=             14.5830
 Quadrupole moment (field-independent basis, Debye-Ang):
   XX=              6.8288   YY=            -30.5108   ZZ=            -32.3083
   XY=             -2.3641   XZ=             -0.0518   YZ=              0.0043
 Traceless Quadrupole moment (field-independent basis, Debye-Ang):
   XX=             25.4923   YY=            -11.8474   ZZ=            -13.6449
   XY=             -2.3641   XZ=             -0.0518   YZ=              0.0043
 Octapole moment (field-independent basis, Debye-Ang**2):
  XXX=           -290.6357  YYY=              0.8532  ZZZ=              0.0111  XYY=             -6.9882
  XXY=             27.4052  XXZ=              0.1872  XZZ=             -5.0902  YZZ=              0.0301
  YYZ=              0.0043  XYZ=             -0.0159
 Hexadecapole moment (field-independent basis, Debye-Ang**3):
 XXXX=           -135.7430 YYYY=            -78.8269 ZZZZ=            -41.7206 XXXY=            -78.4722
 XXXZ=             -0.8313 YYYX=             -4.8532 YYYZ=              0.0084 ZZZX=             -0.0550
 ZZZY=              0.0008 XXYY=           -164.7565 XXZZ=           -166.0046 YYZZ=            -16.4589
 XXYZ=              0.0649 YYXZ=             -0.0236 ZZXY=             -1.1332
 N-N= 2.004190662512D+02 E-N=-1.024123767451D+03  KE= 2.698238743158D+02
 No NMR shielding tensors so no spin-rotation constants.
 Leave Link  601 at Thu Aug  7 18:45:05 2025, MaxMem=   104857600 cpu:               0.0 elap:               0.0
 (Enter /Applications/g16/l9999.exe)
 Unable to Open any file for archive entry.
 1\1\GINC-MBPSRAK\FOpt\RwB97XD\6-31G(d)\C4H4Li1N2(1+)\SRAK\07-Aug-2025\
 0\\#p opt=modredundant wb97xd/6-31g(d)\\Gaussian input prepared by ASE
 \\1,1\N,3.2578573542,-0.1874423197,0.0006682714\C,2.167277297,0.195468
 16,0.0002605828\C,0.7732060442,0.6357190057,-0.0001962741\C,-0.1484124
 65,-0.6121153407,-0.0002252415\C,-1.5545608516,-0.2509620716,-0.000575
 8587\N,-2.6771906869,0.0456238461,-0.0010752135\H,0.0338782151,-1.2341
 832029,-0.8847912037\H,0.0335576528,-1.234004064,0.8845272524\H,0.5896
 508253,1.2505545112,-0.8863636801\H,0.5891880314,1.2508529856,0.885667
 9898\Li,-3.9500883065,0.3096714704,0.0021651953\\Version=Apple M1-G16R
 evC.02\State=1-A\HF=-271.4289505\RMSD=6.628e-09\RMSF=8.543e-02\Dipole=
 -5.7237123,0.396062,0.0037834\Quadrupole=18.968847,-8.8242081,-10.1446
 39,-1.6266311,-0.0366334,0.0031665\PG=C01 [X(C4H4Li1N2)]\\@
 The archive entry for this job was punched.


 A SLIP OF THE FOOT YOU MAY SOON RECOVER, BUT A SLIP OF THE TONGUE
 YOU MAY NEVER GET OVER. -- BEN FRANKLIN
 Job cpu time:       0 days  0 hours  1 minutes 17.6 seconds.
 Elapsed time:       0 days  0 hours  1 minutes 17.9 seconds.
 File lengths (MBytes):  RWF=     10 Int=      0 D2E=      0 Chk=      2 Scr=      1
 Normal termination of Gaussian 16 at Thu Aug  7 18:45:05 2025.
