 Entering Gaussian System, Link 0=g16
 Initial command:
 /Applications/g16/l1.exe "/Users/srak/g16_scratch/Gau-94958.inp" -scrdir="/Users/srak/g16_scratch/"
 Entering Link 1 = /Applications/g16/l1.exe PID=     94959.
  
 Copyright (c) 1988-2021, Gaussian, Inc.  All Rights Reserved.
  
 This is part of the Gaussian(R) 16 program.  It is based on
 the Gaussian(R) 09 system (copyright 2009, Gaussian, Inc.),
 the Gaussian(R) 03 system (copyright 2003, Gaussian, Inc.),
 the Gaussian(R) 98 system (copyright 1998, Gaussian, Inc.),
 the Gaussian(R) 94 system (copyright 1995, Gaussian, Inc.),
 the Gaussian 92(TM) system (copyright 1992, Gaussian, Inc.),
 the Gaussian 90(TM) system (copyright 1990, Gaussian, Inc.),
 the Gaussian 88(TM) system (copyright 1988, Gaussian, Inc.),
 the Gaussian 86(TM) system (copyright 1986, Carnegie Mellon
 University), and the Gaussian 82(TM) system (copyright 1983,
 Carnegie Mellon University). Gaussian is a federally registered
 trademark of Gaussian, Inc.
  
 This software contains proprietary and confidential information,
 including trade secrets, belonging to Gaussian, Inc.
  
 This software is provided under written license and may be
 used, copied, transmitted, or stored only in accord with that
 written license.
  
 The following legend is applicable only to US Government
 contracts under FAR:
  
                    RESTRICTED RIGHTS LEGEND
  
 Use, reproduction and disclosure by the US Government is
 subject to restrictions as set forth in subparagraphs (a)
 and (c) of the Commercial Computer Software - Restricted
 Rights clause in FAR 52.227-19.
  
 Gaussian, Inc.
 340 Quinnipiac St., Bldg. 40, Wallingford CT 06492
  
  
 ---------------------------------------------------------------
 Warning -- This program may not be used in any manner that
 competes with the business of Gaussian, Inc. or will provide
 assistance to any competitor of Gaussian, Inc.  The licensee
 of this program is prohibited from giving any competitor of
 Gaussian, Inc. access to this program.  By using this program,
 the user acknowledges that Gaussian, Inc. is engaged in the
 business of creating and licensing software in the field of
 computational chemistry and represents and warrants to the
 licensee that it is not a competitor of Gaussian, Inc. and that
 it will not use this program in any manner prohibited above.
 ---------------------------------------------------------------
  

 Cite this work as:
 Gaussian 16, Revision C.02,
 M. J. Frisch, G. W. Trucks, H. B. Schlegel, G. E. Scuseria, 
 M. A. Robb, J. R. Cheeseman, G. Scalmani, V. Barone, 
 G. A. Petersson, H. Nakatsuji, X. Li, M. Caricato, A. V. Marenich, 
 J. Bloino, B. G. Janesko, R. Gomperts, B. Mennucci, H. P. Hratchian, 
 J. V. Ortiz, A. F. Izmaylov, J. L. Sonnenberg, D. Williams-Young, 
 F. Ding, F. Lipparini, F. Egidi, J. Goings, B. Peng, A. Petrone, 
 T. Henderson, D. Ranasinghe, V. G. Zakrzewski, J. Gao, N. Rega, 
 G. Zheng, W. Liang, M. Hada, M. Ehara, K. Toyota, R. Fukuda, 
 J. Hasegawa, M. Ishida, T. Nakajima, Y. Honda, O. Kitao, H. Nakai, 
 T. Vreven, K. Throssell, J. A. Montgomery, Jr., J. E. Peralta, 
 F. Ogliaro, M. J. Bearpark, J. J. Heyd, E. N. Brothers, K. N. Kudin, 
 V. N. Staroverov, T. A. Keith, R. Kobayashi, J. Normand, 
 K. Raghavachari, A. P. Rendell, J. C. Burant, S. S. Iyengar, 
 J. Tomasi, M. Cossi, J. M. Millam, M. Klene, C. Adamo, R. Cammi, 
 J. W. Ochterski, R. L. Martin, K. Morokuma, O. Farkas, 
 J. B. Foresman, and D. J. Fox, Gaussian, Inc., Wallingford CT, 2019.
 
 *********************************************
 Gaussian 16:  Apple M1-G16RevC.02  7-Dec-2021
                   6-Aug-2025 
 *********************************************
 ------------------------------------
 #P wb97xd/6-31g(d) opt(modredundant)
 ------------------------------------
 1/18=120,19=15,26=3,38=1/1,3;
 2/9=110,12=2,17=6,18=5,40=1/2;
 3/5=1,6=6,7=1,11=2,25=1,30=1,71=1,74=-58/1,2,3;
 4//1;
 5/5=2,38=5/2;
 6/7=2,8=2,9=2,10=2,28=1/1;
 7//1,2,3,16;
 1/18=20,19=15,26=3/3(2);
 2/9=110/2;
 99//99;
 2/9=110/2;
 3/5=1,6=6,7=1,11=2,25=1,30=1,71=1,74=-58/1,2,3;
 4/5=5,16=3,69=1/1;
 5/5=2,38=5/2;
 7//1,2,3,16;
 1/18=20,19=15,26=3/3(-5);
 2/9=110/2;
 6/7=2,8=2,9=2,10=2,19=2,28=1/1;
 99/9=1/99;
 Leave Link    1 at Wed Aug  6 21:34:31 2025, MaxMem=           0 cpu:               0.0 elap:               0.0
 (Enter /Applications/g16/l101.exe)
 ------------------------------
 Gaussian input prepared by ASE
 ------------------------------
 Symbolic Z-matrix:
 Charge =  1 Multiplicity = 1
 N                    -2.96793   0.26419  -0.0003 
 C                    -1.8884   -0.14906  -0.0001 
 C                    -0.50744  -0.63017   0.00005 
 C                     0.45573   0.58281   0.00015 
 C                     1.85413   0.16931   0.00034 
 N                     2.96158  -0.16335   0.00034 
 H                     0.29279   1.20968  -0.88369 
 H                     0.29259   1.20971   0.88392 
 H                    -0.34444  -1.25196  -0.88535 
 H                    -0.34463  -1.25193   0.88551 
 Li                    4.65559  -0.60248  -0.00032 
 
 The following ModRedundant input section has been read:
 B       6      11 F                                                           
 
 ITRead=  0  0  0  0  0  0  0  0  0  0  0
 MicOpt= -1 -1 -1 -1 -1 -1 -1 -1 -1 -1 -1
 NAtoms=     11 NQM=       11 NQMF=       0 NMMI=      0 NMMIF=      0
                NMic=       0 NMicF=      0.
                    Isotopes and Nuclear Properties:
 (Nuclear quadrupole moments (NQMom) in fm**2, nuclear magnetic moments (NMagM)
  in nuclear magnetons)

  Atom         1           2           3           4           5           6           7           8           9          10
 IAtWgt=          14          12          12          12          12          14           1           1           1           1
 AtmWgt=  14.0030740  12.0000000  12.0000000  12.0000000  12.0000000  14.0030740   1.0078250   1.0078250   1.0078250   1.0078250
 NucSpn=           2           0           0           0           0           2           1           1           1           1
 AtZEff=  -0.0000000  -0.0000000  -0.0000000  -0.0000000  -0.0000000  -0.0000000  -0.0000000  -0.0000000  -0.0000000  -0.0000000
 NQMom=    2.0440000   0.0000000   0.0000000   0.0000000   0.0000000   2.0440000   0.0000000   0.0000000   0.0000000   0.0000000
 NMagM=    0.4037610   0.0000000   0.0000000   0.0000000   0.0000000   0.4037610   2.7928460   2.7928460   2.7928460   2.7928460
 AtZNuc=   7.0000000   6.0000000   6.0000000   6.0000000   6.0000000   7.0000000   1.0000000   1.0000000   1.0000000   1.0000000

  Atom        11
 IAtWgt=           7
 AtmWgt=   7.0160045
 NucSpn=           3
 AtZEff=  -0.0000000
 NQMom=   -4.0100000
 NMagM=    3.2564240
 AtZNuc=   3.0000000
 Leave Link  101 at Wed Aug  6 21:34:31 2025, MaxMem=   104857600 cpu:               0.0 elap:               0.0
 (Enter /Applications/g16/l103.exe)

 GradGradGradGradGradGradGradGradGradGradGradGradGradGradGradGradGradGrad
 Berny optimization.
 Initialization pass.
                           ----------------------------
                           !    Initial Parameters    !
                           ! (Angstroms and Degrees)  !
 --------------------------                            --------------------------
 ! Name  Definition              Value          Derivative Info.                !
 --------------------------------------------------------------------------------
 ! R1    R(1,2)                  1.1559         estimate D2E/DX2                !
 ! R2    R(2,3)                  1.4624         estimate D2E/DX2                !
 ! R3    R(3,4)                  1.5489         estimate D2E/DX2                !
 ! R4    R(3,9)                  1.0941         estimate D2E/DX2                !
 ! R5    R(3,10)                 1.0941         estimate D2E/DX2                !
 ! R6    R(4,5)                  1.4583         estimate D2E/DX2                !
 ! R7    R(4,7)                  1.0958         estimate D2E/DX2                !
 ! R8    R(4,8)                  1.0958         estimate D2E/DX2                !
 ! R9    R(5,6)                  1.1563         estimate D2E/DX2                !
 ! R10   R(6,11)                 1.75           Frozen                          !
 ! A1    A(2,3,4)              109.2439         estimate D2E/DX2                !
 ! A2    A(2,3,9)              109.1211         estimate D2E/DX2                !
 ! A3    A(2,3,10)             109.1209         estimate D2E/DX2                !
 ! A4    A(4,3,9)              110.6376         estimate D2E/DX2                !
 ! A5    A(4,3,10)             110.6373         estimate D2E/DX2                !
 ! A6    A(9,3,10)             108.0456         estimate D2E/DX2                !
 ! A7    A(3,4,5)              111.9788         estimate D2E/DX2                !
 ! A8    A(3,4,7)              110.8248         estimate D2E/DX2                !
 ! A9    A(3,4,8)              110.825          estimate D2E/DX2                !
 ! A10   A(5,4,7)              107.7536         estimate D2E/DX2                !
 ! A11   A(5,4,8)              107.7515         estimate D2E/DX2                !
 ! A12   A(7,4,8)              107.5244         estimate D2E/DX2                !
 ! A13   L(1,2,3,8,-1)         178.4076         estimate D2E/DX2                !
 ! A14   L(4,5,6,10,-1)        179.7779         estimate D2E/DX2                !
 ! A15   L(5,6,11,9,-1)        181.9797         estimate D2E/DX2                !
 ! A16   L(1,2,3,8,-2)         180.8605         estimate D2E/DX2                !
 ! A17   L(4,5,6,10,-2)        179.8637         estimate D2E/DX2                !
 ! A18   L(5,6,11,9,-2)        178.434          estimate D2E/DX2                !
 ! D1    D(2,3,4,5)            179.998          estimate D2E/DX2                !
 ! D2    D(2,3,4,7)            -59.6497         estimate D2E/DX2                !
 ! D3    D(2,3,4,8)             59.6482         estimate D2E/DX2                !
 ! D4    D(9,3,4,5)            -59.855          estimate D2E/DX2                !
 ! D5    D(9,3,4,7)             60.4973         estimate D2E/DX2                !
 ! D6    D(9,3,4,8)            179.7952         estimate D2E/DX2                !
 ! D7    D(10,3,4,5)            59.8514         estimate D2E/DX2                !
 ! D8    D(10,3,4,7)          -179.7963         estimate D2E/DX2                !
 ! D9    D(10,3,4,8)           -60.4984         estimate D2E/DX2                !
 --------------------------------------------------------------------------------
 Trust Radius=3.00D-01 FncErr=1.00D-07 GrdErr=1.00D-06 EigMax=2.50D+02 EigMin=1.00D-04
 Number of steps in this run=     47 maximum allowed number of steps=    100.
 GradGradGradGradGradGradGradGradGradGradGradGradGradGradGradGradGradGrad

 Leave Link  103 at Wed Aug  6 21:34:31 2025, MaxMem=   104857600 cpu:               0.0 elap:               0.0
 (Enter /Applications/g16/l202.exe)
                          Input orientation:                          
 ---------------------------------------------------------------------
 Center     Atomic      Atomic             Coordinates (Angstroms)
 Number     Number       Type             X           Y           Z
 ---------------------------------------------------------------------
      1          7           0       -2.967926    0.264185   -0.000297
      2          6           0       -1.888402   -0.149059   -0.000096
      3          6           0       -0.507439   -0.630167    0.000054
      4          6           0        0.455727    0.582806    0.000145
      5          6           0        1.854128    0.169305    0.000344
      6          7           0        2.961583   -0.163354    0.000343
      7          1           0        0.292793    1.209680   -0.883690
      8          1           0        0.292591    1.209711    0.883919
      9          1           0       -0.344437   -1.251956   -0.885351
     10          1           0       -0.344625   -1.251933    0.885508
     11          3           0        4.655593   -0.602480   -0.000324
 ---------------------------------------------------------------------
                    Distance matrix (angstroms):
                    1          2          3          4          5
     1  N    0.000000
     2  C    1.155916   0.000000
     3  C    2.617988   1.462369   0.000000
     4  C    3.438447   2.455721   1.548868   0.000000
     5  C    4.822987   3.756047   2.493222   1.458255   0.000000
     6  N    5.944903   4.850006   3.500290   2.614588   1.156338
     7  H    3.508081   2.717448   2.192353   1.095757   2.074045
     8  H    3.508109   2.717438   2.192354   1.095755   2.074017
     9  H    3.156691   2.093773   1.094136   2.188771   2.763716
    10  H    3.156734   2.093770   1.094134   2.188766   2.763684
    11  Li   7.672623   6.559684   5.163106   4.363917   2.905831
                    6          7          8          9         10
     6  N    0.000000
     7  H    3.128766   0.000000
     8  H    3.128823   1.767609   0.000000
     9  H    3.591556   2.542777   3.097729   0.000000
    10  H    3.591592   3.097725   2.542782   1.770859   0.000000
    11  Li   1.750000   4.806067   4.806423   5.119120   5.119440
                   11
    11  Li   0.000000
 Stoichiometry    C4H4LiN2(1+)
 Framework group  C1[X(C4H4LiN2)]
 Deg. of freedom    27
 Full point group                 C1      NOp   1
 Largest Abelian subgroup         C1      NOp   1
 Largest concise Abelian subgroup C1      NOp   1
                         Standard orientation:                         
 ---------------------------------------------------------------------
 Center     Atomic      Atomic             Coordinates (Angstroms)
 Number     Number       Type             X           Y           Z
 ---------------------------------------------------------------------
      1          7           0        3.272346   -0.170276   -0.000351
      2          6           0        2.177938    0.201763   -0.000150
      3          6           0        0.779735    0.630194    0.000000
      4          6           0       -0.136773   -0.618407    0.000091
      5          6           0       -1.549840   -0.258195    0.000290
      6          7           0       -2.669105    0.032258    0.000289
      7          1           0        0.049799   -1.238656   -0.883744
      8          1           0        0.050002   -1.238679    0.883865
      9          1           0        0.593288    1.245360   -0.885405
     10          1           0        0.593476    1.245344    0.885454
     11          3           0       -4.378539    0.406874   -0.000378
 ---------------------------------------------------------------------
 Rotational constants (GHZ):          23.4236376           1.0506930           1.0183712
 Leave Link  202 at Wed Aug  6 21:34:31 2025, MaxMem=   104857600 cpu:               0.0 elap:               0.0
 (Enter /Applications/g16/l301.exe)
 Standard basis: 6-31G(d) (6D, 7F)
 Ernie: Thresh=  0.10000D-02 Tol=  0.10000D-05 Strict=F.
 There are   113 symmetry adapted cartesian basis functions of A   symmetry.
 There are   113 symmetry adapted basis functions of A   symmetry.
   113 basis functions,   212 primitive gaussians,   113 cartesian basis functions
    22 alpha electrons       22 beta electrons
       nuclear repulsion energy       196.8728839011 Hartrees.
 IExCor= 4639 DFT=T Ex+Corr=wB97XD ExCW=0 ScaHFX=  1.000000
 ScaDFX=  1.000000  1.000000  1.000000  1.000000 ScalE2=  1.000000  1.000000
 IRadAn=      5 IRanWt=     -1 IRanGd=            0 ICorTp=0 IEmpDi=121
 HFx  wShort=  0.000000 wLong=  0.200000 cFull=  0.222036 cShort=  0.000000 cLong=  0.777964
 DFx  wShort=  0.000000 wLong=  0.200000 cFull=  0.000000 cShort=  0.000000 cLong=  1.000000
 NAtoms=   11 NActive=   11 NUniq=   11 SFac= 1.00D+00 NAtFMM=   60 NAOKFM=F Big=F
 Integral buffers will be    131072 words long.
 Raffenetti 2 integral format.
 Two-electron integral symmetry is turned on.
 R6Disp:  Grimme-D2 Dispersion energy=       -0.0047597198 Hartrees.
 Nuclear repulsion after empirical dispersion term =      196.8681241813 Hartrees.
 Leave Link  301 at Wed Aug  6 21:34:31 2025, MaxMem=   104857600 cpu:               0.0 elap:               0.0
 (Enter /Applications/g16/l302.exe)
 NPDir=0 NMtPBC=     1 NCelOv=     1 NCel=       1 NClECP=     1 NCelD=      1
         NCelK=      1 NCelE2=     1 NClLst=     1 CellRange=     0.0.
 One-electron integrals computed using PRISM.
 One-electron integral symmetry used in STVInt
 NBasis=   113 RedAO= T EigKep=  8.44D-04  NBF=   113
 NBsUse=   113 1.00D-06 EigRej= -1.00D+00 NBFU=   113
 Precomputing XC quadrature grid using
 IXCGrd= 4 IRadAn=           5 IRanWt=          -1 IRanGd=           0 AccXCQ= 0.00D+00.
 Generated NRdTot=       0 NPtTot=           0 NUsed=           0 NTot=          32
 NSgBfM=   113   113   113   113   113 MxSgAt=    11 MxSgA2=    11.
 Leave Link  302 at Wed Aug  6 21:34:31 2025, MaxMem=   104857600 cpu:               0.1 elap:               0.1
 (Enter /Applications/g16/l303.exe)
 DipDrv:  MaxL=1.
 Leave Link  303 at Wed Aug  6 21:34:31 2025, MaxMem=   104857600 cpu:               0.0 elap:               0.0
 (Enter /Applications/g16/l401.exe)
 ExpMin= 3.60D-02 ExpMax= 4.17D+03 ExpMxC= 6.27D+02 IAcc=3 IRadAn=         5 AccDes= 0.00D+00
 Harris functional with IExCor= 4639 and IRadAn=       5 diagonalized for initial guess.
 HarFok:  IExCor= 4639 AccDes= 0.00D+00 IRadAn=         5 IDoV= 1 UseB2=F ITyADJ=14
 ICtDFT=  3500011 ScaDFX=  1.000000  1.000000  1.000000  1.000000
 FoFCou: FMM=F IPFlag=           0 FMFlag=      100000 FMFlg1=           0
         NFxFlg=           0 DoJE=T BraDBF=F KetDBF=T FulRan=T
         wScrn=  0.000000 ICntrl=       500 IOpCl=  0 I1Cent=   200000004 NGrid=           0
         NMat0=    1 NMatS0=      1 NMatT0=    0 NMatD0=    1 NMtDS0=    0 NMtDT0=    0
 Petite list used in FoFCou.
 Harris En= -259.800424977027    
 JPrj=0 DoOrth=F DoCkMO=F.
 Leave Link  401 at Wed Aug  6 21:34:32 2025, MaxMem=   104857600 cpu:               0.6 elap:               0.7
 (Enter /Applications/g16/l502.exe)
 Keep R1 ints in memory in canonical form, NReq=43174005.
 FoFCou: FMM=F IPFlag=           0 FMFlag=           0 FMFlg1=           0
         NFxFlg=           0 DoJE=F BraDBF=F KetDBF=F FulRan=T
         wScrn=  0.000000 ICntrl=       600 IOpCl=  0 I1Cent=           0 NGrid=           0
         NMat0=    1 NMatS0=   6441 NMatT0=    0 NMatD0=    1 NMtDS0=    0 NMtDT0=    0
 Symmetry not used in FoFCou.
 Two-electron integral symmetry not used.
 Closed shell SCF:
 Using DIIS extrapolation, IDIIS=  1040.
 NGot=   104857600 LenX=    63336875 LenY=    63323665
 Requested convergence on RMS density matrix=1.00D-08 within 128 cycles.
 Requested convergence on MAX density matrix=1.00D-06.
 Requested convergence on             energy=1.00D-06.
 No special actions if energy rises.

 Cycle   1  Pass 1  IDiag  1:
 E= -271.483677901053    
 DIIS: error= 5.68D-02 at cycle   1 NSaved=   1.
 NSaved= 1 IEnMin= 1 EnMin= -271.483677901053     IErMin= 1 ErrMin= 5.68D-02
 ErrMax= 5.68D-02  0.00D+00 EMaxC= 1.00D-01 BMatC= 2.47D-01 BMatP= 2.47D-01
 IDIUse=3 WtCom= 4.32D-01 WtEn= 5.68D-01
 Coeff-Com:  0.100D+01
 Coeff-En:   0.100D+01
 Coeff:      0.100D+01
 Gap=     0.402 Goal=   None    Shift=    0.000
 GapD=    0.402 DampG=2.000 DampE=0.500 DampFc=1.0000 IDamp=-1.
 RMSDP=5.78D-03 MaxDP=1.23D-01              OVMax= 6.66D-02

 Cycle   2  Pass 1  IDiag  1:
 E= -271.526480311429     Delta-E=       -0.042802410376 Rises=F Damp=F
 DIIS: error= 1.55D-02 at cycle   2 NSaved=   2.
 NSaved= 2 IEnMin= 2 EnMin= -271.526480311429     IErMin= 2 ErrMin= 1.55D-02
 ErrMax= 1.55D-02  0.00D+00 EMaxC= 1.00D-01 BMatC= 3.11D-02 BMatP= 2.47D-01
 IDIUse=3 WtCom= 8.45D-01 WtEn= 1.55D-01
 Coeff-Com:  0.172D+00 0.828D+00
 Coeff-En:   0.210D-01 0.979D+00
 Coeff:      0.149D+00 0.851D+00
 Gap=     0.415 Goal=   None    Shift=    0.000
 RMSDP=2.40D-03 MaxDP=6.09D-02 DE=-4.28D-02 OVMax= 8.02D-02

 Cycle   3  Pass 1  IDiag  1:
 E= -271.517469080213     Delta-E=        0.009011231217 Rises=F Damp=F
 DIIS: error= 1.94D-02 at cycle   3 NSaved=   3.
 NSaved= 3 IEnMin= 2 EnMin= -271.526480311429     IErMin= 2 ErrMin= 1.55D-02
 ErrMax= 1.94D-02  0.00D+00 EMaxC= 1.00D-01 BMatC= 4.25D-02 BMatP= 3.11D-02
 IDIUse=2 WtCom= 0.00D+00 WtEn= 1.00D+00
 Coeff-En:   0.000D+00 0.562D+00 0.438D+00
 Coeff:      0.000D+00 0.562D+00 0.438D+00
 Gap=     0.391 Goal=   None    Shift=    0.000
 RMSDP=1.20D-03 MaxDP=3.33D-02 DE= 9.01D-03 OVMax= 4.78D-02

 Cycle   4  Pass 1  IDiag  1:
 E= -271.552681986146     Delta-E=       -0.035212905933 Rises=F Damp=F
 DIIS: error= 1.29D-03 at cycle   4 NSaved=   4.
 NSaved= 4 IEnMin= 4 EnMin= -271.552681986146     IErMin= 4 ErrMin= 1.29D-03
 ErrMax= 1.29D-03  0.00D+00 EMaxC= 1.00D-01 BMatC= 2.80D-04 BMatP= 3.11D-02
 IDIUse=3 WtCom= 9.87D-01 WtEn= 1.29D-02
 Coeff-Com:  0.850D-03 0.179D+00 0.129D+00 0.692D+00
 Coeff-En:   0.000D+00 0.000D+00 0.000D+00 0.100D+01
 Coeff:      0.839D-03 0.176D+00 0.127D+00 0.696D+00
 Gap=     0.395 Goal=   None    Shift=    0.000
 RMSDP=1.97D-04 MaxDP=5.47D-03 DE=-3.52D-02 OVMax= 3.86D-03

 Cycle   5  Pass 1  IDiag  1:
 E= -271.552937977860     Delta-E=       -0.000255991714 Rises=F Damp=F
 DIIS: error= 4.41D-04 at cycle   5 NSaved=   5.
 NSaved= 5 IEnMin= 5 EnMin= -271.552937977860     IErMin= 5 ErrMin= 4.41D-04
 ErrMax= 4.41D-04  0.00D+00 EMaxC= 1.00D-01 BMatC= 2.92D-05 BMatP= 2.80D-04
 IDIUse=3 WtCom= 9.96D-01 WtEn= 4.41D-03
 Coeff-Com: -0.592D-03 0.514D-01 0.349D-01 0.301D+00 0.613D+00
 Coeff-En:   0.000D+00 0.000D+00 0.000D+00 0.000D+00 0.100D+01
 Coeff:     -0.589D-03 0.511D-01 0.348D-01 0.300D+00 0.615D+00
 Gap=     0.395 Goal=   None    Shift=    0.000
 RMSDP=5.33D-05 MaxDP=1.22D-03 DE=-2.56D-04 OVMax= 2.19D-03

 Cycle   6  Pass 1  IDiag  1:
 E= -271.552958465240     Delta-E=       -0.000020487380 Rises=F Damp=F
 DIIS: error= 2.52D-04 at cycle   6 NSaved=   6.
 NSaved= 6 IEnMin= 6 EnMin= -271.552958465240     IErMin= 6 ErrMin= 2.52D-04
 ErrMax= 2.52D-04  0.00D+00 EMaxC= 1.00D-01 BMatC= 7.88D-06 BMatP= 2.92D-05
 IDIUse=3 WtCom= 9.97D-01 WtEn= 2.52D-03
 Coeff-Com: -0.535D-03-0.110D-01-0.868D-02 0.213D-01 0.356D+00 0.642D+00
 Coeff-En:   0.000D+00 0.000D+00 0.000D+00 0.000D+00 0.168D+00 0.832D+00
 Coeff:     -0.534D-03-0.109D-01-0.866D-02 0.213D-01 0.356D+00 0.643D+00
 Gap=     0.395 Goal=   None    Shift=    0.000
 RMSDP=4.03D-05 MaxDP=1.68D-03 DE=-2.05D-05 OVMax= 7.59D-04

 Cycle   7  Pass 1  IDiag  1:
 E= -271.552965288120     Delta-E=       -0.000006822880 Rises=F Damp=F
 DIIS: error= 3.96D-05 at cycle   7 NSaved=   7.
 NSaved= 7 IEnMin= 7 EnMin= -271.552965288120     IErMin= 7 ErrMin= 3.96D-05
 ErrMax= 3.96D-05  0.00D+00 EMaxC= 1.00D-01 BMatC= 1.75D-07 BMatP= 7.88D-06
 IDIUse=1 WtCom= 1.00D+00 WtEn= 0.00D+00
 Coeff-Com: -0.413D-04-0.761D-02-0.527D-02-0.196D-01 0.531D-01 0.178D+00
 Coeff-Com:  0.801D+00
 Coeff:     -0.413D-04-0.761D-02-0.527D-02-0.196D-01 0.531D-01 0.178D+00
 Coeff:      0.801D+00
 Gap=     0.395 Goal=   None    Shift=    0.000
 RMSDP=8.49D-06 MaxDP=3.26D-04 DE=-6.82D-06 OVMax= 1.26D-04

 Cycle   8  Pass 1  IDiag  1:
 E= -271.552965497853     Delta-E=       -0.000000209733 Rises=F Damp=F
 DIIS: error= 9.10D-06 at cycle   8 NSaved=   8.
 NSaved= 8 IEnMin= 8 EnMin= -271.552965497853     IErMin= 8 ErrMin= 9.10D-06
 ErrMax= 9.10D-06  0.00D+00 EMaxC= 1.00D-01 BMatC= 1.17D-08 BMatP= 1.75D-07
 IDIUse=1 WtCom= 1.00D+00 WtEn= 0.00D+00
 Coeff-Com:  0.702D-05-0.122D-02-0.750D-03-0.694D-02-0.136D-01-0.158D-02
 Coeff-Com:  0.212D+00 0.812D+00
 Coeff:      0.702D-05-0.122D-02-0.750D-03-0.694D-02-0.136D-01-0.158D-02
 Coeff:      0.212D+00 0.812D+00
 Gap=     0.395 Goal=   None    Shift=    0.000
 RMSDP=2.31D-06 MaxDP=8.94D-05 DE=-2.10D-07 OVMax= 3.75D-05

 Cycle   9  Pass 1  IDiag  1:
 E= -271.552965513937     Delta-E=       -0.000000016084 Rises=F Damp=F
 DIIS: error= 1.78D-06 at cycle   9 NSaved=   9.
 NSaved= 9 IEnMin= 9 EnMin= -271.552965513937     IErMin= 9 ErrMin= 1.78D-06
 ErrMax= 1.78D-06  0.00D+00 EMaxC= 1.00D-01 BMatC= 4.38D-10 BMatP= 1.17D-08
 IDIUse=1 WtCom= 1.00D+00 WtEn= 0.00D+00
 Coeff-Com:  0.357D-05 0.308D-03 0.235D-03 0.188D-03-0.504D-02-0.969D-02
 Coeff-Com: -0.239D-01 0.776D-01 0.960D+00
 Coeff:      0.357D-05 0.308D-03 0.235D-03 0.188D-03-0.504D-02-0.969D-02
 Coeff:     -0.239D-01 0.776D-01 0.960D+00
 Gap=     0.395 Goal=   None    Shift=    0.000
 RMSDP=4.92D-07 MaxDP=1.09D-05 DE=-1.61D-08 OVMax= 1.29D-05

 Cycle  10  Pass 1  IDiag  1:
 E= -271.552965514931     Delta-E=       -0.000000000995 Rises=F Damp=F
 DIIS: error= 7.86D-07 at cycle  10 NSaved=  10.
 NSaved=10 IEnMin=10 EnMin= -271.552965514931     IErMin=10 ErrMin= 7.86D-07
 ErrMax= 7.86D-07  0.00D+00 EMaxC= 1.00D-01 BMatC= 4.97D-11 BMatP= 4.38D-10
 IDIUse=1 WtCom= 1.00D+00 WtEn= 0.00D+00
 Coeff-Com:  0.133D-05 0.168D-03 0.115D-03 0.545D-03-0.279D-03-0.197D-02
 Coeff-Com: -0.198D-01-0.386D-01 0.201D+00 0.859D+00
 Coeff:      0.133D-05 0.168D-03 0.115D-03 0.545D-03-0.279D-03-0.197D-02
 Coeff:     -0.198D-01-0.386D-01 0.201D+00 0.859D+00
 Gap=     0.395 Goal=   None    Shift=    0.000
 RMSDP=1.40D-07 MaxDP=2.99D-06 DE=-9.95D-10 OVMax= 5.32D-06

 Cycle  11  Pass 1  IDiag  1:
 E= -271.552965515043     Delta-E=       -0.000000000111 Rises=F Damp=F
 DIIS: error= 2.34D-07 at cycle  11 NSaved=  11.
 NSaved=11 IEnMin=11 EnMin= -271.552965515043     IErMin=11 ErrMin= 2.34D-07
 ErrMax= 2.34D-07  0.00D+00 EMaxC= 1.00D-01 BMatC= 3.69D-12 BMatP= 4.97D-11
 IDIUse=1 WtCom= 1.00D+00 WtEn= 0.00D+00
 Coeff-Com: -0.413D-06-0.393D-04-0.279D-04-0.552D-04 0.395D-03 0.980D-03
 Coeff-Com:  0.385D-02-0.160D-02-0.109D+00-0.764D-01 0.118D+01
 Coeff:     -0.413D-06-0.393D-04-0.279D-04-0.552D-04 0.395D-03 0.980D-03
 Coeff:      0.385D-02-0.160D-02-0.109D+00-0.764D-01 0.118D+01
 Gap=     0.395 Goal=   None    Shift=    0.000
 RMSDP=5.56D-08 MaxDP=1.47D-06 DE=-1.11D-10 OVMax= 2.82D-06

 Cycle  12  Pass 1  IDiag  1:
 E= -271.552965515062     Delta-E=       -0.000000000019 Rises=F Damp=F
 DIIS: error= 7.05D-08 at cycle  12 NSaved=  12.
 NSaved=12 IEnMin=12 EnMin= -271.552965515062     IErMin=12 ErrMin= 7.05D-08
 ErrMax= 7.05D-08  0.00D+00 EMaxC= 1.00D-01 BMatC= 1.86D-13 BMatP= 3.69D-12
 IDIUse=1 WtCom= 1.00D+00 WtEn= 0.00D+00
 Coeff-Com: -0.734D-07-0.581D-05-0.383D-05-0.243D-04-0.681D-05 0.866D-05
 Coeff-Com:  0.534D-03 0.194D-02 0.235D-02-0.442D-01-0.181D+00 0.122D+01
 Coeff:     -0.734D-07-0.581D-05-0.383D-05-0.243D-04-0.681D-05 0.866D-05
 Coeff:      0.534D-03 0.194D-02 0.235D-02-0.442D-01-0.181D+00 0.122D+01
 Gap=     0.395 Goal=   None    Shift=    0.000
 RMSDP=1.34D-08 MaxDP=3.80D-07 DE=-1.94D-11 OVMax= 8.05D-07

 Cycle  13  Pass 1  IDiag  1:
 E= -271.552965515064     Delta-E=       -0.000000000002 Rises=F Damp=F
 DIIS: error= 7.91D-09 at cycle  13 NSaved=  13.
 NSaved=13 IEnMin=13 EnMin= -271.552965515064     IErMin=13 ErrMin= 7.91D-09
 ErrMax= 7.91D-09  0.00D+00 EMaxC= 1.00D-01 BMatC= 8.19D-15 BMatP= 1.86D-13
 IDIUse=1 WtCom= 1.00D+00 WtEn= 0.00D+00
 Coeff-Com:  0.269D-08 0.955D-06 0.489D-06 0.169D-05-0.495D-05-0.273D-04
 Coeff-Com: -0.107D-03 0.180D-04 0.344D-02 0.398D-02-0.331D-01-0.440D-01
 Coeff-Com:  0.107D+01
 Coeff:      0.269D-08 0.955D-06 0.489D-06 0.169D-05-0.495D-05-0.273D-04
 Coeff:     -0.107D-03 0.180D-04 0.344D-02 0.398D-02-0.331D-01-0.440D-01
 Coeff:      0.107D+01
 Gap=     0.395 Goal=   None    Shift=    0.000
 RMSDP=2.50D-09 MaxDP=5.70D-08 DE=-2.39D-12 OVMax= 9.71D-08

 SCF Done:  E(RwB97XD) =  -271.552965515     A.U. after   13 cycles
            NFock= 13  Conv=0.25D-08     -V/T= 2.0090
 KE= 2.691396416599D+02 PE=-1.017216974785D+03 EE= 2.796562434284D+02
 Leave Link  502 at Wed Aug  6 21:34:41 2025, MaxMem=   104857600 cpu:               8.6 elap:               9.0
 (Enter /Applications/g16/l601.exe)
 Copying SCF densities to generalized density rwf, IOpCl= 0 IROHF=0.

 **********************************************************************

            Population analysis using the SCF Density.

 **********************************************************************

 Orbital symmetries:
       Occupied  (A) (A) (A) (A) (A) (A) (A) (A) (A) (A) (A) (A)
                 (A) (A) (A) (A) (A) (A) (A) (A) (A) (A)
       Virtual   (A) (A) (A) (A) (A) (A) (A) (A) (A) (A) (A) (A)
                 (A) (A) (A) (A) (A) (A) (A) (A) (A) (A) (A) (A)
                 (A) (A) (A) (A) (A) (A) (A) (A) (A) (A) (A) (A)
                 (A) (A) (A) (A) (A) (A) (A) (A) (A) (A) (A) (A)
                 (A) (A) (A) (A) (A) (A) (A) (A) (A) (A) (A) (A)
                 (A) (A) (A) (A) (A) (A) (A) (A) (A) (A) (A) (A)
                 (A) (A) (A) (A) (A) (A) (A) (A) (A) (A) (A) (A)
                 (A) (A) (A) (A) (A) (A) (A)
 The electronic state is 1-A.
 Alpha  occ. eigenvalues --  -14.67301 -14.57572 -10.57908 -10.52882 -10.50842
 Alpha  occ. eigenvalues --  -10.46170  -2.32759  -1.23249  -1.13116  -1.09043
 Alpha  occ. eigenvalues --   -0.97360  -0.80192  -0.75612  -0.74999  -0.71627
 Alpha  occ. eigenvalues --   -0.68783  -0.67139  -0.63092  -0.62018  -0.56163
 Alpha  occ. eigenvalues --   -0.53456  -0.53096
 Alpha virt. eigenvalues --   -0.13567  -0.12600  -0.12069  -0.06591  -0.06456
 Alpha virt. eigenvalues --   -0.06278  -0.01088  -0.00282   0.04302   0.04853
 Alpha virt. eigenvalues --    0.05079   0.06143   0.07436   0.08577   0.10680
 Alpha virt. eigenvalues --    0.13402   0.14517   0.14966   0.17988   0.28392
 Alpha virt. eigenvalues --    0.34133   0.37079   0.37080   0.38431   0.40533
 Alpha virt. eigenvalues --    0.47255   0.47337   0.50241   0.50475   0.53243
 Alpha virt. eigenvalues --    0.54474   0.59971   0.60348   0.64268   0.66045
 Alpha virt. eigenvalues --    0.67543   0.70125   0.74759   0.77357   0.78104
 Alpha virt. eigenvalues --    0.80539   0.81935   0.84353   0.86216   0.90064
 Alpha virt. eigenvalues --    0.93867   0.97293   1.02770   1.02952   1.06304
 Alpha virt. eigenvalues --    1.10656   1.28681   1.30132   1.32333   1.38162
 Alpha virt. eigenvalues --    1.39231   1.42745   1.45691   1.48062   1.51401
 Alpha virt. eigenvalues --    1.62624   1.64379   1.69615   1.77370   1.78350
 Alpha virt. eigenvalues --    1.81910   1.85578   1.89062   1.89147   1.91784
 Alpha virt. eigenvalues --    1.94432   1.97725   2.13621   2.14079   2.17400
 Alpha virt. eigenvalues --    2.26538   2.36815   2.61396   2.67569   2.73063
 Alpha virt. eigenvalues --    2.76208   2.77903   2.84293   3.11795   3.23614
 Alpha virt. eigenvalues --    4.00886   4.02945   4.07824   4.17341   4.47611
 Alpha virt. eigenvalues --    4.69090
          Condensed to atoms (all electrons):
               1          2          3          4          5          6
     1  N    6.623624   0.858524  -0.081138  -0.000734  -0.000069  -0.000000
     2  C    0.858524   4.602960   0.278862  -0.039268   0.004063  -0.000035
     3  C   -0.081138   0.278862   5.222845   0.308161  -0.034598  -0.001582
     4  C   -0.000734  -0.039268   0.308161   5.222739   0.289948  -0.055986
     5  C   -0.000069   0.004063  -0.034598   0.289948   4.527084   0.740581
     6  N   -0.000000  -0.000035  -0.001582  -0.055986   0.740581   6.770056
     7  H    0.000308  -0.001730  -0.026043   0.376600  -0.033139  -0.001499
     8  H    0.000308  -0.001731  -0.026042   0.376590  -0.033134  -0.001496
     9  H   -0.000553  -0.027079   0.377785  -0.031374  -0.003717   0.000056
    10  H   -0.000552  -0.027079   0.377783  -0.031373  -0.003718   0.000056
    11  Li  -0.000005  -0.000159   0.000601  -0.000029  -0.021621   0.168527
               7          8          9         10         11
     1  N    0.000308   0.000308  -0.000553  -0.000552  -0.000005
     2  C   -0.001730  -0.001731  -0.027079  -0.027079  -0.000159
     3  C   -0.026043  -0.026042   0.377785   0.377783   0.000601
     4  C    0.376600   0.376590  -0.031374  -0.031373  -0.000029
     5  C   -0.033139  -0.033134  -0.003717  -0.003718  -0.021621
     6  N   -0.001499  -0.001496   0.000056   0.000056   0.168527
     7  H    0.406075  -0.016614  -0.002246   0.002651   0.000338
     8  H   -0.016614   0.406079   0.002652  -0.002246   0.000337
     9  H   -0.002246   0.002652   0.441189  -0.020485   0.000413
    10  H    0.002651  -0.002246  -0.020485   0.441186   0.000413
    11  Li   0.000338   0.000337   0.000413   0.000413   2.059199
 Mulliken charges:
               1
     1  N   -0.399713
     2  C    0.352673
     3  C   -0.396633
     4  C   -0.415274
     5  C    0.568321
     6  N   -0.618677
     7  H    0.295299
     8  H    0.295297
     9  H    0.263359
    10  H    0.263362
    11  Li   0.791986
 Sum of Mulliken charges =   1.00000
 Mulliken charges with hydrogens summed into heavy atoms:
               1
     1  N   -0.399713
     2  C    0.352673
     3  C    0.130088
     4  C    0.175323
     5  C    0.568321
     6  N   -0.618677
    11  Li   0.791986
 Electronic spatial extent (au):  <R**2>=            904.4966
 Charge=              1.0000 electrons
 Dipole moment (field-independent basis, Debye):
    X=            -17.0084    Y=              1.4987    Z=             -0.0013  Tot=             17.0743
 Quadrupole moment (field-independent basis, Debye-Ang):
   XX=             23.1144   YY=            -30.4269   ZZ=            -32.4218
   XY=             -4.8390   XZ=              0.0104   YZ=             -0.0011
 Traceless Quadrupole moment (field-independent basis, Debye-Ang):
   XX=             36.3592   YY=            -17.1822   ZZ=            -19.1770
   XY=             -4.8390   XZ=              0.0104   YZ=             -0.0011
 Octapole moment (field-independent basis, Debye-Ang**2):
  XXX=           -398.9775  YYY=              1.5562  ZZZ=             -0.0018  XYY=             -9.3468
  XXY=             39.6714  XXZ=             -0.0334  XZZ=             -6.1442  YZZ=              0.2608
  YYZ=             -0.0008  XYZ=              0.0031
 Hexadecapole moment (field-independent basis, Debye-Ang**3):
 XXXX=            407.8544 YYYY=            -79.1675 ZZZZ=            -41.4099 XXXY=           -146.5128
 XXXZ=              0.2261 YYYX=             -8.8991 YYYZ=              0.0011 ZZZX=              0.0418
 ZZZY=              0.0014 XXYY=           -159.2921 XXZZ=           -167.5069 YYZZ=            -16.5986
 XXYZ=             -0.0161 YYXZ=              0.0157 ZZXY=             -2.2678
 N-N= 1.968681241813D+02 E-N=-1.017216974824D+03  KE= 2.691396416599D+02
 No NMR shielding tensors so no spin-rotation constants.
 Leave Link  601 at Wed Aug  6 21:34:41 2025, MaxMem=   104857600 cpu:               0.0 elap:               0.0
 (Enter /Applications/g16/l701.exe)
 ... and contract with generalized density number  0.
 Compute integral first derivatives.
 R6Disp: Adding Grimme-D2 dispersion energy 1st derivatives to the gradient.
 Leave Link  701 at Wed Aug  6 21:34:41 2025, MaxMem=   104857600 cpu:               0.0 elap:               0.0
 (Enter /Applications/g16/l702.exe)
 L702 exits ... SP integral derivatives will be done elsewhere.
 Leave Link  702 at Wed Aug  6 21:34:41 2025, MaxMem=   104857600 cpu:               0.0 elap:               0.0
 (Enter /Applications/g16/l703.exe)
 Integral derivatives from FoFJK, PRISM(SPDF).
 Compute integral first derivatives, UseDBF=F ICtDFT=           0.
 Calling FoFJK, ICntrl=      2127 FMM=F ISym2X=0 I1Cent= 0 IOpClX= 0 NMat=1 NMatS=1 NMatT=0.
 FoFJK:  IHMeth= 1 ICntrl=    2127 DoSepK=T KAlg= 0 I1Cent=           0 FoldK=F
 IRaf=         1 NMat=       1 IRICut=       1 DoRegI=T DoRafI=F ISym2E= 0 IDoP0=0 IntGTp=1.
 FoFCou: FMM=F IPFlag=           0 FMFlag=      100000 FMFlg1=         800
         NFxFlg=           0 DoJE=F BraDBF=F KetDBF=F FulRan=T
         wScrn=  0.000000 ICntrl=      2527 IOpCl=  0 I1Cent=           0 NGrid=           0
         NMat0=    1 NMatS0=      1 NMatT0=    0 NMatD0=    1 NMtDS0=    0 NMtDT0=    0
 Symmetry not used in FoFCou.
 Leave Link  703 at Wed Aug  6 21:34:44 2025, MaxMem=   104857600 cpu:               2.5 elap:               2.5
 (Enter /Applications/g16/l716.exe)
 Dipole        =-6.69161771D+00 5.89648270D-01-5.18442994D-04
 ***** Axes restored to original set *****
 -------------------------------------------------------------------
 Center     Atomic                   Forces (Hartrees/Bohr)
 Number     Number              X              Y              Z
 -------------------------------------------------------------------
      1        7          -0.000021634    0.000002896    0.000002646
      2        6          -0.000018376   -0.000025967   -0.000005955
      3        6           0.000054474    0.000136881    0.000003497
      4        6          -0.000152260    0.000075806    0.000009722
      5        6           0.000802200   -0.000346115   -0.000014678
      6        7          -0.033611750    0.008773872    0.000013688
      7        1          -0.000048777   -0.000024657    0.000040149
      8        1          -0.000054670   -0.000023441   -0.000039882
      9        1           0.000004792   -0.000000069    0.000004995
     10        1           0.000005796   -0.000001186   -0.000004370
     11        3           0.033040206   -0.008568019   -0.000009812
 -------------------------------------------------------------------
 Cartesian Forces:  Max     0.033611750 RMS     0.008479249
 Leave Link  716 at Wed Aug  6 21:34:44 2025, MaxMem=   104857600 cpu:               0.0 elap:               0.0
 (Enter /Applications/g16/l103.exe)

 GradGradGradGradGradGradGradGradGradGradGradGradGradGradGradGradGradGrad
 Berny optimization.
 FormGI is forming the generalized inverse of G from B-inverse, IUseBI=4.
 Internal  Forces:  Max     0.034132960 RMS     0.005612582
 Search for a local minimum.
 Step number   1 out of a maximum of   47
 All quantities printed in internal units (Hartrees-Bohrs-Radians)
 RMS Force = .11559D-03 SwitMx=.10000D-02 MixMth= 2
 Mixed Optimization -- En-DIIS/RFO-DIIS
 Second derivative matrix not updated -- first step.
 ITU=  0
     Eigenvalues ---    0.00230   0.01264   0.01264   0.02752   0.02752
     Eigenvalues ---    0.04915   0.04915   0.05320   0.05637   0.05732
     Eigenvalues ---    0.05800   0.16000   0.16000   0.16000   0.16000
     Eigenvalues ---    0.22261   0.22337   0.27748   0.34156   0.34156
     Eigenvalues ---    0.34339   0.34339   0.36669   0.37184   1.30220
     Eigenvalues ---    1.305041000.000001000.000001000.000001000.00000
     Eigenvalues --- 1000.000001000.000001000.000001000.000001000.00000
     Eigenvalues --- 1000.000001000.00000
 RFO step:  Lambda=-7.87088809D-07 EMin= 2.30000000D-03
 Linear search not attempted -- first point.
 Iteration  1 RMS(Cart)=  0.00059492 RMS(Int)=  0.00000026
 Iteration  2 RMS(Cart)=  0.00000056 RMS(Int)=  0.00000004
 Iteration  1 RMS(Cart)=  0.00000000 RMS(Int)=  0.00000000
 ITry= 1 IFail=0 DXMaxC= 1.95D-03 DCOld= 1.00D+10 DXMaxT= 3.00D-01 DXLimC= 3.00D+00 Rises=F
 Variable       Old X    -DE/DX   Delta X   Delta X   Delta X     New X
                                 (Linear)    (Quad)   (Total)
    R1        2.18437   0.00002   0.00000   0.00002   0.00002   2.18438
    R2        2.76348   0.00003   0.00000   0.00008   0.00008   2.76356
    R3        2.92694  -0.00010   0.00000  -0.00037  -0.00037   2.92657
    R4        2.06762  -0.00000   0.00000  -0.00001  -0.00001   2.06761
    R5        2.06761  -0.00000   0.00000  -0.00001  -0.00001   2.06761
    R6        2.75570   0.00026   0.00000   0.00070   0.00070   2.75640
    R7        2.07068  -0.00004   0.00000  -0.00011  -0.00011   2.07057
    R8        2.07068  -0.00004   0.00000  -0.00011  -0.00011   2.07057
    R9        2.18516  -0.00061   0.00000  -0.00047  -0.00047   2.18470
   R10        3.30702   0.03413   0.00000   0.00000   0.00000   3.30702
    A1        1.90666   0.00009   0.00000   0.00042   0.00042   1.90709
    A2        1.90452  -0.00003   0.00000  -0.00005  -0.00005   1.90447
    A3        1.90452  -0.00003   0.00000  -0.00003  -0.00003   1.90449
    A4        1.93099  -0.00002   0.00000  -0.00012  -0.00012   1.93087
    A5        1.93099  -0.00002   0.00000  -0.00011  -0.00011   1.93088
    A6        1.88575   0.00000   0.00000  -0.00013  -0.00013   1.88562
    A7        1.95440  -0.00005   0.00000  -0.00014  -0.00014   1.95426
    A8        1.93426  -0.00004   0.00000  -0.00032  -0.00032   1.93393
    A9        1.93426  -0.00004   0.00000  -0.00033  -0.00033   1.93393
   A10        1.88065   0.00006   0.00000   0.00045   0.00045   1.88111
   A11        1.88062   0.00007   0.00000   0.00053   0.00053   1.88115
   A12        1.87665   0.00002   0.00000  -0.00014  -0.00014   1.87651
   A13        3.11380   0.00001   0.00000   0.00072   0.00072   3.11452
   A14        3.13772   0.00005   0.00000   0.00109   0.00109   3.13881
   A15        3.17614  -0.00000   0.00000  -0.00009  -0.00009   3.17606
   A16        3.15661  -0.00001   0.00000  -0.00066  -0.00066   3.15595
   A17        3.13921   0.00004   0.00000   0.00072   0.00072   3.13993
   A18        3.11426   0.00001   0.00000   0.00027   0.00027   3.11453
    D1        3.14156   0.00000   0.00000   0.00010   0.00010  -3.14153
    D2       -1.04108   0.00002   0.00000   0.00036   0.00036  -1.04072
    D3        1.04106  -0.00002   0.00000  -0.00025  -0.00025   1.04081
    D4       -1.04467   0.00001   0.00000   0.00024   0.00024  -1.04443
    D5        1.05588   0.00003   0.00000   0.00050   0.00050   1.05637
    D6        3.13802  -0.00001   0.00000  -0.00011  -0.00011   3.13791
    D7        1.04460  -0.00001   0.00000  -0.00007  -0.00007   1.04454
    D8       -3.13804   0.00000   0.00000   0.00019   0.00019  -3.13785
    D9       -1.05590  -0.00003   0.00000  -0.00042  -0.00042  -1.05631
         Item               Value     Threshold  Converged?
 Maximum Force            0.000607     0.000450     NO 
 RMS     Force            0.000116     0.000300     YES
 Maximum Displacement     0.001947     0.001800     NO 
 RMS     Displacement     0.000595     0.001200     YES
 Predicted change in Energy=-3.935306D-07
 Lowest energy point so far.  Saving SCF results.
 GradGradGradGradGradGradGradGradGradGradGradGradGradGradGradGradGradGrad

 Leave Link  103 at Wed Aug  6 21:34:44 2025, MaxMem=   104857600 cpu:               0.0 elap:               0.0
 (Enter /Applications/g16/l202.exe)
                          Input orientation:                          
 ---------------------------------------------------------------------
 Center     Atomic      Atomic             Coordinates (Angstroms)
 Number     Number       Type             X           Y           Z
 ---------------------------------------------------------------------
      1          7           0       -2.968512    0.263680   -0.000148
      2          6           0       -1.888618   -0.148619   -0.000161
      3          6           0       -0.507614   -0.629741    0.000036
      4          6           0        0.455943    0.582671    0.000131
      5          6           0        1.854466    0.168275    0.000240
      6          7           0        2.961905   -0.163580    0.000251
      7          1           0        0.292803    1.209539   -0.883595
      8          1           0        0.292624    1.209539    0.883826
      9          1           0       -0.344664   -1.251608   -0.885318
     10          1           0       -0.344885   -1.251577    0.885453
     11          3           0        4.656138   -0.601841   -0.000160
 ---------------------------------------------------------------------
                    Distance matrix (angstroms):
                    1          2          3          4          5
     1  N    0.000000
     2  C    1.155925   0.000000
     3  C    2.618057   1.462412   0.000000
     4  C    3.439280   2.455962   1.548672   0.000000
     5  C    4.823922   3.756474   2.493241   1.458626   0.000000
     6  N    5.945788   4.850545   3.500695   2.614715   1.156092
     7  H    3.508746   2.717286   2.191899   1.095696   2.074654
     8  H    3.508712   2.717322   2.191897   1.095697   2.074682
     9  H    3.156613   2.093772   1.094131   2.188509   2.763413
    10  H    3.156534   2.093786   1.094132   2.188512   2.763463
    11  Li   7.673618   6.560430   5.163828   4.364024   2.905589
                    6          7          8          9         10
     6  N    0.000000
     7  H    3.129017   0.000000
     8  H    3.129093   1.767421   0.000000
     9  H    3.591857   2.542364   3.097297   0.000000
    10  H    3.591960   3.097300   2.542343   1.770771   0.000000
    11  Li   1.750000   4.806272   4.806536   5.119934   5.120225
                   11
    11  Li   0.000000
 Stoichiometry    C4H4LiN2(1+)
 Framework group  C1[X(C4H4LiN2)]
 Deg. of freedom    27
 Full point group                 C1      NOp   1
 RotChk:  IX=0 Diff= 5.88D-06
 Largest Abelian subgroup         C1      NOp   1
 Largest concise Abelian subgroup C1      NOp   1
                         Standard orientation:                         
 ---------------------------------------------------------------------
 Center     Atomic      Atomic             Coordinates (Angstroms)
 Number     Number       Type             X           Y           Z
 ---------------------------------------------------------------------
      1          7           0        3.272923   -0.169864   -0.000194
      2          6           0        2.178182    0.201220   -0.000208
      3          6           0        0.779940    0.629670   -0.000010
      4          6           0       -0.136986   -0.618381    0.000084
      5          6           0       -1.550206   -0.257274    0.000194
      6          7           0       -2.669424    0.032381    0.000205
      7          1           0        0.049790   -1.238618   -0.883641
      8          1           0        0.049969   -1.238611    0.883779
      9          1           0        0.593544    1.244916   -0.885364
     10          1           0        0.593766    1.244893    0.885407
     11          3           0       -4.379047    0.406131   -0.000206
 ---------------------------------------------------------------------
 Rotational constants (GHZ):          23.4515418           1.0503898           1.0181370
 Leave Link  202 at Wed Aug  6 21:34:44 2025, MaxMem=   104857600 cpu:               0.0 elap:               0.0
 (Enter /Applications/g16/l301.exe)
 Standard basis: 6-31G(d) (6D, 7F)
 Ernie: Thresh=  0.10000D-02 Tol=  0.10000D-05 Strict=F.
 There are   113 symmetry adapted cartesian basis functions of A   symmetry.
 There are   113 symmetry adapted basis functions of A   symmetry.
   113 basis functions,   212 primitive gaussians,   113 cartesian basis functions
    22 alpha electrons       22 beta electrons
       nuclear repulsion energy       196.8679635214 Hartrees.
 IExCor= 4639 DFT=T Ex+Corr=wB97XD ExCW=0 ScaHFX=  1.000000
 ScaDFX=  1.000000  1.000000  1.000000  1.000000 ScalE2=  1.000000  1.000000
 IRadAn=      5 IRanWt=     -1 IRanGd=            0 ICorTp=0 IEmpDi=121
 HFx  wShort=  0.000000 wLong=  0.200000 cFull=  0.222036 cShort=  0.000000 cLong=  0.777964
 DFx  wShort=  0.000000 wLong=  0.200000 cFull=  0.000000 cShort=  0.000000 cLong=  1.000000
 NAtoms=   11 NActive=   11 NUniq=   11 SFac= 1.00D+00 NAtFMM=   60 NAOKFM=F Big=F
 Integral buffers will be    131072 words long.
 Raffenetti 2 integral format.
 Two-electron integral symmetry is turned on.
 R6Disp:  Grimme-D2 Dispersion energy=       -0.0047594455 Hartrees.
 Nuclear repulsion after empirical dispersion term =      196.8632040759 Hartrees.
 Leave Link  301 at Wed Aug  6 21:34:44 2025, MaxMem=   104857600 cpu:               0.0 elap:               0.0
 (Enter /Applications/g16/l302.exe)
 NPDir=0 NMtPBC=     1 NCelOv=     1 NCel=       1 NClECP=     1 NCelD=      1
         NCelK=      1 NCelE2=     1 NClLst=     1 CellRange=     0.0.
 One-electron integrals computed using PRISM.
 One-electron integral symmetry used in STVInt
 NBasis=   113 RedAO= T EigKep=  8.44D-04  NBF=   113
 NBsUse=   113 1.00D-06 EigRej= -1.00D+00 NBFU=   113
 Precomputing XC quadrature grid using
 IXCGrd= 4 IRadAn=           5 IRanWt=          -1 IRanGd=           0 AccXCQ= 0.00D+00.
 Generated NRdTot=       0 NPtTot=           0 NUsed=           0 NTot=          32
 NSgBfM=   113   113   113   113   113 MxSgAt=    11 MxSgA2=    11.
 Leave Link  302 at Wed Aug  6 21:34:44 2025, MaxMem=   104857600 cpu:               0.1 elap:               0.1
 (Enter /Applications/g16/l303.exe)
 DipDrv:  MaxL=1.
 Leave Link  303 at Wed Aug  6 21:34:44 2025, MaxMem=   104857600 cpu:               0.0 elap:               0.0
 (Enter /Applications/g16/l401.exe)
 Initial guess from the checkpoint file:  "/Users/srak/g16_scratch/Gau-94959.chk"
 B after Tr=     0.000000   -0.000000    0.000000
         Rot=    1.000000   -0.000001    0.000006    0.000007 Ang=  -0.00 deg.
 Guess basis will be translated and rotated to current coordinates.
 JPrj=2 DoOrth=T DoCkMO=T.
 Leave Link  401 at Wed Aug  6 21:34:44 2025, MaxMem=   104857600 cpu:               0.0 elap:               0.0
 (Enter /Applications/g16/l502.exe)
 Keep R1 ints in memory in canonical form, NReq=43174005.
 FoFCou: FMM=F IPFlag=           0 FMFlag=           0 FMFlg1=           0
         NFxFlg=           0 DoJE=F BraDBF=F KetDBF=F FulRan=T
         wScrn=  0.000000 ICntrl=       600 IOpCl=  0 I1Cent=           0 NGrid=           0
         NMat0=    1 NMatS0=   6441 NMatT0=    0 NMatD0=    1 NMtDS0=    0 NMtDT0=    0
 Symmetry not used in FoFCou.
 Two-electron integral symmetry not used.
 Closed shell SCF:
 Using DIIS extrapolation, IDIIS=  1040.
 NGot=   104857600 LenX=    63336875 LenY=    63323665
 Requested convergence on RMS density matrix=1.00D-08 within 128 cycles.
 Requested convergence on MAX density matrix=1.00D-06.
 Requested convergence on             energy=1.00D-06.
 No special actions if energy rises.

 Cycle   1  Pass 1  IDiag  1:
 E= -271.552964865865    
 DIIS: error= 6.24D-05 at cycle   1 NSaved=   1.
 NSaved= 1 IEnMin= 1 EnMin= -271.552964865865     IErMin= 1 ErrMin= 6.24D-05
 ErrMax= 6.24D-05  0.00D+00 EMaxC= 1.00D-01 BMatC= 5.94D-07 BMatP= 5.94D-07
 IDIUse=1 WtCom= 1.00D+00 WtEn= 0.00D+00
 Coeff-Com:  0.100D+01
 Coeff:      0.100D+01
 Gap=     1.639 Goal=   None    Shift=    0.000
 RMSDP=1.06D-05 MaxDP=2.02D-04              OVMax= 2.92D-04

 Cycle   2  Pass 1  IDiag  1:
 E= -271.552965762969     Delta-E=       -0.000000897104 Rises=F Damp=F
 DIIS: error= 1.45D-05 at cycle   2 NSaved=   2.
 NSaved= 2 IEnMin= 2 EnMin= -271.552965762969     IErMin= 2 ErrMin= 1.45D-05
 ErrMax= 1.45D-05  0.00D+00 EMaxC= 1.00D-01 BMatC= 3.98D-08 BMatP= 5.94D-07
 IDIUse=1 WtCom= 1.00D+00 WtEn= 0.00D+00
 Coeff-Com: -0.711D-01 0.107D+01
 Coeff:     -0.711D-01 0.107D+01
 Gap=     0.395 Goal=   None    Shift=    0.000
 RMSDP=3.36D-06 MaxDP=7.16D-05 DE=-8.97D-07 OVMax= 1.06D-04

 Cycle   3  Pass 1  IDiag  1:
 E= -271.552965794420     Delta-E=       -0.000000031452 Rises=F Damp=F
 DIIS: error= 2.16D-05 at cycle   3 NSaved=   3.
 NSaved= 3 IEnMin= 3 EnMin= -271.552965794420     IErMin= 2 ErrMin= 1.45D-05
 ErrMax= 2.16D-05  0.00D+00 EMaxC= 1.00D-01 BMatC= 4.77D-08 BMatP= 3.98D-08
 IDIUse=1 WtCom= 1.00D+00 WtEn= 0.00D+00
 Coeff-Com: -0.983D-01 0.608D+00 0.490D+00
 Coeff:     -0.983D-01 0.608D+00 0.490D+00
 Gap=     0.395 Goal=   None    Shift=    0.000
 RMSDP=1.54D-06 MaxDP=4.91D-05 DE=-3.15D-08 OVMax= 6.52D-05

 Cycle   4  Pass 1  IDiag  1:
 E= -271.552965833487     Delta-E=       -0.000000039066 Rises=F Damp=F
 DIIS: error= 4.28D-06 at cycle   4 NSaved=   4.
 NSaved= 4 IEnMin= 4 EnMin= -271.552965833487     IErMin= 4 ErrMin= 4.28D-06
 ErrMax= 4.28D-06  0.00D+00 EMaxC= 1.00D-01 BMatC= 2.04D-09 BMatP= 3.98D-08
 IDIUse=1 WtCom= 1.00D+00 WtEn= 0.00D+00
 Coeff-Com: -0.182D-01 0.215D-01 0.167D+00 0.830D+00
 Coeff:     -0.182D-01 0.215D-01 0.167D+00 0.830D+00
 Gap=     0.395 Goal=   None    Shift=    0.000
 RMSDP=4.79D-07 MaxDP=9.34D-06 DE=-3.91D-08 OVMax= 2.06D-05

 Cycle   5  Pass 1  IDiag  1:
 E= -271.552965836019     Delta-E=       -0.000000002532 Rises=F Damp=F
 DIIS: error= 9.28D-07 at cycle   5 NSaved=   5.
 NSaved= 5 IEnMin= 5 EnMin= -271.552965836019     IErMin= 5 ErrMin= 9.28D-07
 ErrMax= 9.28D-07  0.00D+00 EMaxC= 1.00D-01 BMatC= 1.13D-10 BMatP= 2.04D-09
 IDIUse=1 WtCom= 1.00D+00 WtEn= 0.00D+00
 Coeff-Com:  0.558D-02-0.528D-01-0.181D-01 0.153D+00 0.913D+00
 Coeff:      0.558D-02-0.528D-01-0.181D-01 0.153D+00 0.913D+00
 Gap=     0.395 Goal=   None    Shift=    0.000
 RMSDP=1.74D-07 MaxDP=3.05D-06 DE=-2.53D-09 OVMax= 8.33D-06

 Cycle   6  Pass 1  IDiag  1:
 E= -271.552965836193     Delta-E=       -0.000000000173 Rises=F Damp=F
 DIIS: error= 6.35D-07 at cycle   6 NSaved=   6.
 NSaved= 6 IEnMin= 6 EnMin= -271.552965836193     IErMin= 6 ErrMin= 6.35D-07
 ErrMax= 6.35D-07  0.00D+00 EMaxC= 1.00D-01 BMatC= 4.41D-11 BMatP= 1.13D-10
 IDIUse=1 WtCom= 1.00D+00 WtEn= 0.00D+00
 Coeff-Com:  0.474D-02-0.308D-01-0.256D-01 0.484D-02 0.480D+00 0.567D+00
 Coeff:      0.474D-02-0.308D-01-0.256D-01 0.484D-02 0.480D+00 0.567D+00
 Gap=     0.395 Goal=   None    Shift=    0.000
 RMSDP=7.02D-08 MaxDP=1.90D-06 DE=-1.73D-10 OVMax= 2.61D-06

 Cycle   7  Pass 1  IDiag  1:
 E= -271.552965836231     Delta-E=       -0.000000000039 Rises=F Damp=F
 DIIS: error= 2.36D-07 at cycle   7 NSaved=   7.
 NSaved= 7 IEnMin= 7 EnMin= -271.552965836231     IErMin= 7 ErrMin= 2.36D-07
 ErrMax= 2.36D-07  0.00D+00 EMaxC= 1.00D-01 BMatC= 6.20D-12 BMatP= 4.41D-11
 IDIUse=1 WtCom= 1.00D+00 WtEn= 0.00D+00
 Coeff-Com:  0.134D-02-0.535D-02-0.970D-02-0.289D-01 0.659D-01 0.297D+00
 Coeff-Com:  0.679D+00
 Coeff:      0.134D-02-0.535D-02-0.970D-02-0.289D-01 0.659D-01 0.297D+00
 Coeff:      0.679D+00
 Gap=     0.395 Goal=   None    Shift=    0.000
 RMSDP=2.29D-08 MaxDP=5.19D-07 DE=-3.87D-11 OVMax= 8.76D-07

 Cycle   8  Pass 1  IDiag  1:
 E= -271.552965836237     Delta-E=       -0.000000000005 Rises=F Damp=F
 DIIS: error= 2.52D-08 at cycle   8 NSaved=   8.
 NSaved= 8 IEnMin= 8 EnMin= -271.552965836237     IErMin= 8 ErrMin= 2.52D-08
 ErrMax= 2.52D-08  0.00D+00 EMaxC= 1.00D-01 BMatC= 1.25D-13 BMatP= 6.20D-12
 IDIUse=1 WtCom= 1.00D+00 WtEn= 0.00D+00
 Coeff-Com: -0.146D-03 0.165D-02 0.626D-03-0.462D-02-0.287D-01 0.372D-02
 Coeff-Com:  0.118D+00 0.910D+00
 Coeff:     -0.146D-03 0.165D-02 0.626D-03-0.462D-02-0.287D-01 0.372D-02
 Coeff:      0.118D+00 0.910D+00
 Gap=     0.395 Goal=   None    Shift=    0.000
 RMSDP=6.24D-09 MaxDP=1.06D-07 DE=-5.46D-12 OVMax= 2.16D-07

 SCF Done:  E(RwB97XD) =  -271.552965836     A.U. after    8 cycles
            NFock=  8  Conv=0.62D-08     -V/T= 2.0090
 KE= 2.691405376230D+02 PE=-1.017208023914D+03 EE= 2.796513163793D+02
 Leave Link  502 at Wed Aug  6 21:34:50 2025, MaxMem=   104857600 cpu:               5.7 elap:               6.3
 (Enter /Applications/g16/l701.exe)
 ... and contract with generalized density number  0.
 Compute integral first derivatives.
 R6Disp: Adding Grimme-D2 dispersion energy 1st derivatives to the gradient.
 Leave Link  701 at Wed Aug  6 21:34:50 2025, MaxMem=   104857600 cpu:               0.0 elap:               0.0
 (Enter /Applications/g16/l702.exe)
 L702 exits ... SP integral derivatives will be done elsewhere.
 Leave Link  702 at Wed Aug  6 21:34:50 2025, MaxMem=   104857600 cpu:               0.0 elap:               0.0
 (Enter /Applications/g16/l703.exe)
 Integral derivatives from FoFJK, PRISM(SPDF).
 Compute integral first derivatives, UseDBF=F ICtDFT=           0.
 Calling FoFJK, ICntrl=      2127 FMM=F ISym2X=0 I1Cent= 0 IOpClX= 0 NMat=1 NMatS=1 NMatT=0.
 FoFJK:  IHMeth= 1 ICntrl=    2127 DoSepK=T KAlg= 0 I1Cent=           0 FoldK=F
 IRaf=         1 NMat=       1 IRICut=       1 DoRegI=T DoRafI=F ISym2E= 0 IDoP0=0 IntGTp=1.
 FoFCou: FMM=F IPFlag=           0 FMFlag=      100000 FMFlg1=         800
         NFxFlg=           0 DoJE=F BraDBF=F KetDBF=F FulRan=T
         wScrn=  0.000000 ICntrl=      2527 IOpCl=  0 I1Cent=           0 NGrid=           0
         NMat0=    1 NMatS0=      1 NMatT0=    0 NMatD0=    1 NMtDS0=    0 NMtDT0=    0
 Symmetry not used in FoFCou.
 Leave Link  703 at Wed Aug  6 21:34:53 2025, MaxMem=   104857600 cpu:               2.4 elap:               2.4
 (Enter /Applications/g16/l716.exe)
 Dipole        =-6.69320568D+00 5.88262560D-01-2.99122721D-04
 ***** Axes restored to original set *****
 -------------------------------------------------------------------
 Center     Atomic                   Forces (Hartrees/Bohr)
 Number     Number              X              Y              Z
 -------------------------------------------------------------------
      1        7           0.000011036    0.000020133   -0.000005695
      2        6          -0.000015615   -0.000060257    0.000012659
      3        6           0.000025107    0.000054852   -0.000007260
      4        6          -0.000066343   -0.000014831    0.000003064
      5        6           0.000044039    0.000052140   -0.000002789
      6        7          -0.033071123    0.008534822    0.000006841
      7        1           0.000024076   -0.000005531   -0.000001229
      8        1           0.000025522   -0.000006468    0.000000386
      9        1          -0.000012676   -0.000010225   -0.000002344
     10        1          -0.000015801   -0.000008830    0.000002392
     11        3           0.033051778   -0.008555804   -0.000006025
 -------------------------------------------------------------------
 Cartesian Forces:  Max     0.033071123 RMS     0.008406678
 Leave Link  716 at Wed Aug  6 21:34:53 2025, MaxMem=   104857600 cpu:               0.0 elap:               0.0
 (Enter /Applications/g16/l103.exe)

 GradGradGradGradGradGradGradGradGradGradGradGradGradGradGradGradGradGrad
 Berny optimization.
 Using GEDIIS/GDIIS optimizer.
 FormGI is forming the generalized inverse of G from B-inverse, IUseBI=4.
 Internal  Forces:  Max     0.034141100 RMS     0.005612794
 Search for a local minimum.
 Step number   2 out of a maximum of   47
 All quantities printed in internal units (Hartrees-Bohrs-Radians)
 RMS Force = .18977D-04 SwitMx=.10000D-02 MixMth= 2
 Mixed Optimization -- En-DIIS/RFO-DIIS
 Swapping is turned off.
 Update second derivatives using D2CorX and points    1    2
 DE= -3.21D-07 DEPred=-3.94D-07 R= 8.16D-01
 Trust test= 8.16D-01 RLast= 2.31D-03 DXMaxT set to 3.00D-01
 ITU=  0  0
     Eigenvalues ---    0.00230   0.01263   0.01368   0.02726   0.02754
     Eigenvalues ---    0.04878   0.05315   0.05367   0.05634   0.05788
     Eigenvalues ---    0.06668   0.15779   0.16000   0.16000   0.16787
     Eigenvalues ---    0.20918   0.22633   0.27893   0.33798   0.34156
     Eigenvalues ---    0.34339   0.34344   0.35560   0.36741   1.21951
     Eigenvalues ---    1.305121000.000001000.000001000.000001000.00000
     Eigenvalues --- 1000.000001000.000001000.000001000.000001000.00000
     Eigenvalues --- 1000.000001000.00000
 En-DIIS/RFO-DIIS/Sim-DIIS IScMMF=       -3 using points:     2    1
 RFO step:  Lambda=-1.39343240D-06.
 NNeg= 0 NGDIIS= 2 SimSw=  2.50D-03 Rises=F DC= -3.21D-07 SmlDif=  1.00D-05
 NRisDI= 0 DoIntr=F SqrtH=F CThrHd= 10.0 CDAdj=  3.0
 RMS Error=  0.5056181244D-03 NUsed= 2 OKEnD=F EnDIS=F
 InvSVX:  RCond= 5.98D-06 Info=           0 Equed=N FErr=  4.70D-15 BErr=  1.18D-17
 DidBck=T Rises=F RFO-DIIS coefs:    0.35488    0.64512
 Iteration  1 RMS(Cart)=  0.00081456 RMS(Int)=  0.00000088
 Iteration  2 RMS(Cart)=  0.00000107 RMS(Int)=  0.00000002
 Iteration  3 RMS(Cart)=  0.00000000 RMS(Int)=  0.00000002
 Iteration  1 RMS(Cart)=  0.00000000 RMS(Int)=  0.00000000
 ITry= 1 IFail=0 DXMaxC= 2.20D-03 DCOld= 1.00D+10 DXMaxT= 3.00D-01 DXLimC= 3.00D+00 Rises=F
 Variable       Old X    -DE/DX   Delta X   Delta X   Delta X     New X
                                 (Linear)    (Quad)   (Total)
    R1        2.18438  -0.00000  -0.00001   0.00001   0.00000   2.18438
    R2        2.76356  -0.00001  -0.00005   0.00005  -0.00000   2.76356
    R3        2.92657   0.00001   0.00024  -0.00031  -0.00007   2.92650
    R4        2.06761   0.00001   0.00001   0.00001   0.00001   2.06762
    R5        2.06761   0.00000   0.00000   0.00001   0.00001   2.06762
    R6        2.75640   0.00001  -0.00045   0.00067   0.00022   2.75662
    R7        2.07057  -0.00001   0.00007  -0.00012  -0.00004   2.07052
    R8        2.07057  -0.00001   0.00007  -0.00012  -0.00005   2.07052
    R9        2.18470  -0.00001   0.00030  -0.00043  -0.00013   2.18457
   R10        3.30702   0.03414  -0.00000   0.00000  -0.00000   3.30702
    A1        1.90709   0.00004  -0.00027   0.00052   0.00024   1.90733
    A2        1.90447  -0.00002   0.00003  -0.00015  -0.00012   1.90436
    A3        1.90449  -0.00003   0.00002  -0.00017  -0.00015   1.90434
    A4        1.93087   0.00001   0.00008  -0.00003   0.00005   1.93092
    A5        1.93088   0.00001   0.00007  -0.00002   0.00005   1.93092
    A6        1.88562  -0.00001   0.00008  -0.00017  -0.00009   1.88554
    A7        1.95426   0.00001   0.00009  -0.00012  -0.00003   1.95423
    A8        1.93393   0.00001   0.00021  -0.00019   0.00002   1.93396
    A9        1.93393   0.00002   0.00021  -0.00019   0.00002   1.93395
   A10        1.88111  -0.00002  -0.00029   0.00026  -0.00004   1.88107
   A11        1.88115  -0.00002  -0.00034   0.00031  -0.00003   1.88111
   A12        1.87651  -0.00000   0.00009  -0.00004   0.00005   1.87656
   A13        3.11452  -0.00004  -0.00046  -0.00198  -0.00245   3.11207
   A14        3.13881  -0.00007  -0.00070  -0.00016  -0.00087   3.13794
   A15        3.17606  -0.00001   0.00006  -0.00045  -0.00040   3.17566
   A16        3.15595   0.00003   0.00043   0.00108   0.00150   3.15745
   A17        3.13993  -0.00002  -0.00046   0.00037  -0.00009   3.13984
   A18        3.11453   0.00001  -0.00017   0.00048   0.00030   3.11484
    D1       -3.14153  -0.00000  -0.00006   0.00003  -0.00004  -3.14156
    D2       -1.04072  -0.00001  -0.00023   0.00015  -0.00009  -1.04081
    D3        1.04081   0.00001   0.00016  -0.00015   0.00001   1.04082
    D4       -1.04443  -0.00000  -0.00015   0.00016   0.00001  -1.04442
    D5        1.05637  -0.00001  -0.00032   0.00028  -0.00004   1.05633
    D6        3.13791   0.00001   0.00007  -0.00002   0.00005   3.13796
    D7        1.04454   0.00000   0.00004  -0.00008  -0.00004   1.04450
    D8       -3.13785  -0.00001  -0.00012   0.00004  -0.00009  -3.13793
    D9       -1.05631   0.00001   0.00027  -0.00026   0.00001  -1.05630
         Item               Value     Threshold  Converged?
 Maximum Force            0.000067     0.000450     YES
 RMS     Force            0.000019     0.000300     YES
 Maximum Displacement     0.002203     0.001800     NO 
 RMS     Displacement     0.000815     0.001200     YES
 Predicted change in Energy=-1.139151D-07
 Lowest energy point so far.  Saving SCF results.
 GradGradGradGradGradGradGradGradGradGradGradGradGradGradGradGradGradGrad

 Leave Link  103 at Wed Aug  6 21:34:53 2025, MaxMem=   104857600 cpu:               0.0 elap:               0.0
 (Enter /Applications/g16/l202.exe)
                          Input orientation:                          
 ---------------------------------------------------------------------
 Center     Atomic      Atomic             Coordinates (Angstroms)
 Number     Number       Type             X           Y           Z
 ---------------------------------------------------------------------
      1          7           0       -2.967727    0.264705   -0.000032
      2          6           0       -1.888670   -0.149785   -0.000006
      3          6           0       -0.507328   -0.629934    0.000003
      4          6           0        0.455647    0.582894    0.000055
      5          6           0        1.854460    0.169073    0.000028
      6          7           0        2.961705   -0.163189    0.000259
      7          1           0        0.292197    1.209693   -0.883633
      8          1           0        0.292169    1.209631    0.883783
      9          1           0       -0.344202   -1.251737   -0.885371
     10          1           0       -0.344245   -1.251782    0.885353
     11          3           0        4.655580   -0.602832    0.000116
 ---------------------------------------------------------------------
                    Distance matrix (angstroms):
                    1          2          3          4          5
     1  N    0.000000
     2  C    1.155926   0.000000
     3  C    2.618003   1.462412   0.000000
     4  C    3.438130   2.456144   1.548636   0.000000
     5  C    4.823135   3.756686   2.493282   1.458740   0.000000
     6  N    5.944851   4.850393   3.500291   2.614759   1.156023
     7  H    3.507257   2.717565   2.191867   1.095673   2.074708
     8  H    3.507269   2.717564   2.191862   1.095673   2.074737
     9  H    3.156946   2.093694   1.094137   2.188518   2.763467
    10  H    3.156944   2.093682   1.094137   2.188519   2.763500
    11  Li   7.672511   6.559913   5.162979   4.364101   2.905531
                    6          7          8          9         10
     6  N    0.000000
     7  H    3.129272   0.000000
     8  H    3.129164   1.767416   0.000000
     9  H    3.591420   2.542370   3.097290   0.000000
    10  H    3.591341   3.097294   2.542357   1.770724   0.000000
    11  Li   1.750000   4.806805   4.806791   5.118885   5.118890
                   11
    11  Li   0.000000
 Stoichiometry    C4H4LiN2(1+)
 Framework group  C1[X(C4H4LiN2)]
 Deg. of freedom    27
 Full point group                 C1      NOp   1
 RotChk:  IX=2 Diff= 6.40D-05
 Largest Abelian subgroup         C1      NOp   1
 Largest concise Abelian subgroup C1      NOp   1
                         Standard orientation:                         
 ---------------------------------------------------------------------
 Center     Atomic      Atomic             Coordinates (Angstroms)
 Number     Number       Type             X           Y           Z
 ---------------------------------------------------------------------
      1          7           0        3.272227   -0.170662   -0.000089
      2          6           0        2.178223    0.202595   -0.000063
      3          6           0        0.779660    0.629996   -0.000054
      4          6           0       -0.136613   -0.618490   -0.000001
      5          6           0       -1.550117   -0.258033   -0.000029
      6          7           0       -2.669169    0.031986    0.000203
      7          1           0        0.050499   -1.238638   -0.883689
      8          1           0        0.050524   -1.238574    0.883727
      9          1           0        0.593063    1.245163   -0.885428
     10          1           0        0.593104    1.245210    0.885296
     11          3           0       -4.378504    0.407054    0.000059
 ---------------------------------------------------------------------
 Rotational constants (GHZ):          23.4212656           1.0506632           1.0183363
 Leave Link  202 at Wed Aug  6 21:34:53 2025, MaxMem=   104857600 cpu:               0.0 elap:               0.0
 (Enter /Applications/g16/l301.exe)
 Standard basis: 6-31G(d) (6D, 7F)
 Ernie: Thresh=  0.10000D-02 Tol=  0.10000D-05 Strict=F.
 There are   113 symmetry adapted cartesian basis functions of A   symmetry.
 There are   113 symmetry adapted basis functions of A   symmetry.
   113 basis functions,   212 primitive gaussians,   113 cartesian basis functions
    22 alpha electrons       22 beta electrons
       nuclear repulsion energy       196.8733320810 Hartrees.
 IExCor= 4639 DFT=T Ex+Corr=wB97XD ExCW=0 ScaHFX=  1.000000
 ScaDFX=  1.000000  1.000000  1.000000  1.000000 ScalE2=  1.000000  1.000000
 IRadAn=      5 IRanWt=     -1 IRanGd=            0 ICorTp=0 IEmpDi=121
 HFx  wShort=  0.000000 wLong=  0.200000 cFull=  0.222036 cShort=  0.000000 cLong=  0.777964
 DFx  wShort=  0.000000 wLong=  0.200000 cFull=  0.000000 cShort=  0.000000 cLong=  1.000000
 NAtoms=   11 NActive=   11 NUniq=   11 SFac= 1.00D+00 NAtFMM=   60 NAOKFM=F Big=F
 Integral buffers will be    131072 words long.
 Raffenetti 2 integral format.
 Two-electron integral symmetry is turned on.
 R6Disp:  Grimme-D2 Dispersion energy=       -0.0047600601 Hartrees.
 Nuclear repulsion after empirical dispersion term =      196.8685720209 Hartrees.
 Leave Link  301 at Wed Aug  6 21:34:53 2025, MaxMem=   104857600 cpu:               0.0 elap:               0.0
 (Enter /Applications/g16/l302.exe)
 NPDir=0 NMtPBC=     1 NCelOv=     1 NCel=       1 NClECP=     1 NCelD=      1
         NCelK=      1 NCelE2=     1 NClLst=     1 CellRange=     0.0.
 One-electron integrals computed using PRISM.
 One-electron integral symmetry used in STVInt
 NBasis=   113 RedAO= T EigKep=  8.45D-04  NBF=   113
 NBsUse=   113 1.00D-06 EigRej= -1.00D+00 NBFU=   113
 Precomputing XC quadrature grid using
 IXCGrd= 4 IRadAn=           5 IRanWt=          -1 IRanGd=           0 AccXCQ= 0.00D+00.
 Generated NRdTot=       0 NPtTot=           0 NUsed=           0 NTot=          32
 NSgBfM=   113   113   113   113   113 MxSgAt=    11 MxSgA2=    11.
 Leave Link  302 at Wed Aug  6 21:34:53 2025, MaxMem=   104857600 cpu:               0.1 elap:               0.1
 (Enter /Applications/g16/l303.exe)
 DipDrv:  MaxL=1.
 Leave Link  303 at Wed Aug  6 21:34:53 2025, MaxMem=   104857600 cpu:               0.0 elap:               0.0
 (Enter /Applications/g16/l401.exe)
 Initial guess from the checkpoint file:  "/Users/srak/g16_scratch/Gau-94959.chk"
 B after Tr=     0.000000    0.000000    0.000000
         Rot=    1.000000   -0.000022    0.000006   -0.000016 Ang=  -0.00 deg.
 Guess basis will be translated and rotated to current coordinates.
 JPrj=2 DoOrth=T DoCkMO=T.
 Leave Link  401 at Wed Aug  6 21:34:53 2025, MaxMem=   104857600 cpu:               0.0 elap:               0.0
 (Enter /Applications/g16/l502.exe)
 Keep R1 ints in memory in canonical form, NReq=43174005.
 FoFCou: FMM=F IPFlag=           0 FMFlag=           0 FMFlg1=           0
         NFxFlg=           0 DoJE=F BraDBF=F KetDBF=F FulRan=T
         wScrn=  0.000000 ICntrl=       600 IOpCl=  0 I1Cent=           0 NGrid=           0
         NMat0=    1 NMatS0=   6441 NMatT0=    0 NMatD0=    1 NMtDS0=    0 NMtDT0=    0
 Symmetry not used in FoFCou.
 Two-electron integral symmetry not used.
 Closed shell SCF:
 Using DIIS extrapolation, IDIIS=  1040.
 NGot=   104857600 LenX=    63336875 LenY=    63323665
 Requested convergence on RMS density matrix=1.00D-08 within 128 cycles.
 Requested convergence on MAX density matrix=1.00D-06.
 Requested convergence on             energy=1.00D-06.
 No special actions if energy rises.

 Cycle   1  Pass 1  IDiag  1:
 E= -271.552962861059    
 DIIS: error= 1.51D-04 at cycle   1 NSaved=   1.
 NSaved= 1 IEnMin= 1 EnMin= -271.552962861059     IErMin= 1 ErrMin= 1.51D-04
 ErrMax= 1.51D-04  0.00D+00 EMaxC= 1.00D-01 BMatC= 1.64D-06 BMatP= 1.64D-06
 IDIUse=3 WtCom= 9.98D-01 WtEn= 1.51D-03
 Coeff-Com:  0.100D+01
 Coeff-En:   0.100D+01
 Coeff:      0.100D+01
 Gap=     1.639 Goal=   None    Shift=    0.000
 RMSDP=1.86D-05 MaxDP=4.39D-04              OVMax= 6.16D-04

 Cycle   2  Pass 1  IDiag  1:
 E= -271.552965487834     Delta-E=       -0.000002626776 Rises=F Damp=F
 DIIS: error= 2.50D-05 at cycle   2 NSaved=   2.
 NSaved= 2 IEnMin= 2 EnMin= -271.552965487834     IErMin= 2 ErrMin= 2.50D-05
 ErrMax= 2.50D-05  0.00D+00 EMaxC= 1.00D-01 BMatC= 7.21D-08 BMatP= 1.64D-06
 IDIUse=1 WtCom= 1.00D+00 WtEn= 0.00D+00
 Coeff-Com: -0.181D+00 0.118D+01
 Coeff:     -0.181D+00 0.118D+01
 Gap=     0.395 Goal=   None    Shift=    0.000
 RMSDP=5.68D-06 MaxDP=1.24D-04 DE=-2.63D-06 OVMax= 2.52D-04

 Cycle   3  Pass 1  IDiag  1:
 E= -271.552965667376     Delta-E=       -0.000000179542 Rises=F Damp=F
 DIIS: error= 1.00D-05 at cycle   3 NSaved=   3.
 NSaved= 3 IEnMin= 3 EnMin= -271.552965667376     IErMin= 3 ErrMin= 1.00D-05
 ErrMax= 1.00D-05  0.00D+00 EMaxC= 1.00D-01 BMatC= 1.28D-08 BMatP= 7.21D-08
 IDIUse=1 WtCom= 1.00D+00 WtEn= 0.00D+00
 Coeff-Com: -0.695D-01 0.353D+00 0.717D+00
 Coeff:     -0.695D-01 0.353D+00 0.717D+00
 Gap=     0.395 Goal=   None    Shift=    0.000
 RMSDP=1.40D-06 MaxDP=3.42D-05 DE=-1.80D-07 OVMax= 4.96D-05

 Cycle   4  Pass 1  IDiag  1:
 E= -271.552965676748     Delta-E=       -0.000000009372 Rises=F Damp=F
 DIIS: error= 8.60D-06 at cycle   4 NSaved=   4.
 NSaved= 4 IEnMin= 4 EnMin= -271.552965676748     IErMin= 4 ErrMin= 8.60D-06
 ErrMax= 8.60D-06  0.00D+00 EMaxC= 1.00D-01 BMatC= 8.05D-09 BMatP= 1.28D-08
 IDIUse=1 WtCom= 1.00D+00 WtEn= 0.00D+00
 Coeff-Com:  0.615D-02-0.104D+00 0.457D+00 0.640D+00
 Coeff:      0.615D-02-0.104D+00 0.457D+00 0.640D+00
 Gap=     0.395 Goal=   None    Shift=    0.000
 RMSDP=7.66D-07 MaxDP=1.62D-05 DE=-9.37D-09 OVMax= 3.25D-05

 Cycle   5  Pass 1  IDiag  1:
 E= -271.552965684738     Delta-E=       -0.000000007989 Rises=F Damp=F
 DIIS: error= 1.18D-06 at cycle   5 NSaved=   5.
 NSaved= 5 IEnMin= 5 EnMin= -271.552965684738     IErMin= 5 ErrMin= 1.18D-06
 ErrMax= 1.18D-06  0.00D+00 EMaxC= 1.00D-01 BMatC= 2.45D-10 BMatP= 8.05D-09
 IDIUse=1 WtCom= 1.00D+00 WtEn= 0.00D+00
 Coeff-Com:  0.106D-01-0.770D-01 0.499D-01 0.181D+00 0.835D+00
 Coeff:      0.106D-01-0.770D-01 0.499D-01 0.181D+00 0.835D+00
 Gap=     0.395 Goal=   None    Shift=    0.000
 RMSDP=2.36D-07 MaxDP=4.22D-06 DE=-7.99D-09 OVMax= 1.17D-05

 Cycle   6  Pass 1  IDiag  1:
 E= -271.552965685072     Delta-E=       -0.000000000335 Rises=F Damp=F
 DIIS: error= 4.57D-07 at cycle   6 NSaved=   6.
 NSaved= 6 IEnMin= 6 EnMin= -271.552965685072     IErMin= 6 ErrMin= 4.57D-07
 ErrMax= 4.57D-07  0.00D+00 EMaxC= 1.00D-01 BMatC= 3.29D-11 BMatP= 2.45D-10
 IDIUse=1 WtCom= 1.00D+00 WtEn= 0.00D+00
 Coeff-Com:  0.408D-02-0.247D-01-0.116D-01 0.273D-01 0.328D+00 0.677D+00
 Coeff:      0.408D-02-0.247D-01-0.116D-01 0.273D-01 0.328D+00 0.677D+00
 Gap=     0.395 Goal=   None    Shift=    0.000
 RMSDP=6.59D-08 MaxDP=1.51D-06 DE=-3.35D-10 OVMax= 2.59D-06

 Cycle   7  Pass 1  IDiag  1:
 E= -271.552965685100     Delta-E=       -0.000000000028 Rises=F Damp=F
 DIIS: error= 3.12D-07 at cycle   7 NSaved=   7.
 NSaved= 7 IEnMin= 7 EnMin= -271.552965685100     IErMin= 7 ErrMin= 3.12D-07
 ErrMax= 3.12D-07  0.00D+00 EMaxC= 1.00D-01 BMatC= 1.03D-11 BMatP= 3.29D-11
 IDIUse=1 WtCom= 1.00D+00 WtEn= 0.00D+00
 Coeff-Com:  0.500D-03-0.838D-03-0.133D-01-0.142D-01 0.358D-01 0.378D+00
 Coeff-Com:  0.614D+00
 Coeff:      0.500D-03-0.838D-03-0.133D-01-0.142D-01 0.358D-01 0.378D+00
 Coeff:      0.614D+00
 Gap=     0.395 Goal=   None    Shift=    0.000
 RMSDP=3.02D-08 MaxDP=7.23D-07 DE=-2.80D-11 OVMax= 1.12D-06

 Cycle   8  Pass 1  IDiag  1:
 E= -271.552965685109     Delta-E=       -0.000000000009 Rises=F Damp=F
 DIIS: error= 7.09D-08 at cycle   8 NSaved=   8.
 NSaved= 8 IEnMin= 8 EnMin= -271.552965685109     IErMin= 8 ErrMin= 7.09D-08
 ErrMax= 7.09D-08  0.00D+00 EMaxC= 1.00D-01 BMatC= 6.89D-13 BMatP= 1.03D-11
 IDIUse=1 WtCom= 1.00D+00 WtEn= 0.00D+00
 Coeff-Com: -0.349D-03 0.294D-02-0.272D-02-0.831D-02-0.320D-01 0.533D-01
 Coeff-Com:  0.251D+00 0.737D+00
 Coeff:     -0.349D-03 0.294D-02-0.272D-02-0.831D-02-0.320D-01 0.533D-01
 Coeff:      0.251D+00 0.737D+00
 Gap=     0.395 Goal=   None    Shift=    0.000
 RMSDP=9.14D-09 MaxDP=2.10D-07 DE=-8.87D-12 OVMax= 3.22D-07

 SCF Done:  E(RwB97XD) =  -271.552965685     A.U. after    8 cycles
            NFock=  8  Conv=0.91D-08     -V/T= 2.0090
 KE= 2.691406758726D+02 PE=-1.017218751622D+03 EE= 2.796565380438D+02
 Leave Link  502 at Wed Aug  6 21:34:58 2025, MaxMem=   104857600 cpu:               5.2 elap:               5.3
 (Enter /Applications/g16/l701.exe)
 ... and contract with generalized density number  0.
 Compute integral first derivatives.
 R6Disp: Adding Grimme-D2 dispersion energy 1st derivatives to the gradient.
 Leave Link  701 at Wed Aug  6 21:34:58 2025, MaxMem=   104857600 cpu:               0.0 elap:               0.0
 (Enter /Applications/g16/l702.exe)
 L702 exits ... SP integral derivatives will be done elsewhere.
 Leave Link  702 at Wed Aug  6 21:34:58 2025, MaxMem=   104857600 cpu:               0.0 elap:               0.0
 (Enter /Applications/g16/l703.exe)
 Integral derivatives from FoFJK, PRISM(SPDF).
 Compute integral first derivatives, UseDBF=F ICtDFT=           0.
 Calling FoFJK, ICntrl=      2127 FMM=F ISym2X=0 I1Cent= 0 IOpClX= 0 NMat=1 NMatS=1 NMatT=0.
 FoFJK:  IHMeth= 1 ICntrl=    2127 DoSepK=T KAlg= 0 I1Cent=           0 FoldK=F
 IRaf=         1 NMat=       1 IRICut=       1 DoRegI=T DoRafI=F ISym2E= 0 IDoP0=0 IntGTp=1.
 FoFCou: FMM=F IPFlag=           0 FMFlag=      100000 FMFlg1=         800
         NFxFlg=           0 DoJE=F BraDBF=F KetDBF=F FulRan=T
         wScrn=  0.000000 ICntrl=      2527 IOpCl=  0 I1Cent=           0 NGrid=           0
         NMat0=    1 NMatS0=      1 NMatT0=    0 NMatD0=    1 NMtDS0=    0 NMtDT0=    0
 Symmetry not used in FoFCou.
 Leave Link  703 at Wed Aug  6 21:35:01 2025, MaxMem=   104857600 cpu:               2.4 elap:               2.5
 (Enter /Applications/g16/l716.exe)
 Dipole        =-6.69223554D+00 5.90374855D-01-6.75087787D-05
 ***** Axes restored to original set *****
 -------------------------------------------------------------------
 Center     Atomic                   Forces (Hartrees/Bohr)
 Number     Number              X              Y              Z
 -------------------------------------------------------------------
      1        7          -0.000032025   -0.000067820    0.000000794
      2        6           0.000073569    0.000155279   -0.000002293
      3        6          -0.000013839   -0.000092546    0.000000450
      4        6          -0.000017679    0.000012324   -0.000012626
      5        6          -0.000204868    0.000035897    0.000024935
      6        7          -0.032897015    0.008541355   -0.000010774
      7        1           0.000011441    0.000006634   -0.000007321
      8        1           0.000019344    0.000005815    0.000008013
      9        1           0.000005574   -0.000009536    0.000001007
     10        1           0.000007827   -0.000009738   -0.000000845
     11        3           0.033047671   -0.008577665   -0.000001338
 -------------------------------------------------------------------
 Cartesian Forces:  Max     0.033047671 RMS     0.008386466
 Leave Link  716 at Wed Aug  6 21:35:01 2025, MaxMem=   104857600 cpu:               0.0 elap:               0.0
 (Enter /Applications/g16/l103.exe)

 GradGradGradGradGradGradGradGradGradGradGradGradGradGradGradGradGradGrad
 Berny optimization.
 Using GEDIIS/GDIIS optimizer.
 FormGI is forming the generalized inverse of G from B-inverse, IUseBI=4.
 GSVD:  received Info=                   1 from GESDD.
 Internal  Forces:  Max     0.034142605 RMS     0.005613159
 Search for a local minimum.
 Step number   3 out of a maximum of   47
 All quantities printed in internal units (Hartrees-Bohrs-Radians)
 RMS Force = .41543D-04 SwitMx=.10000D-02 MixMth= 2
 Mixed Optimization -- En-DIIS/RFO-DIIS
 Swapping is turned off.
 Update second derivatives using D2CorX and points    1    2    3
 DE=  1.51D-07 DEPred=-1.14D-07 R=-1.33D+00
 Trust test=-1.33D+00 RLast= 3.08D-03 DXMaxT set to 1.50D-01
 ITU= -1  0  0
     Eigenvalues ---    0.00230   0.01249   0.02531   0.02751   0.03798
     Eigenvalues ---    0.04994   0.05324   0.05631   0.05748   0.06153
     Eigenvalues ---    0.07477   0.15139   0.16000   0.16008   0.16797
     Eigenvalues ---    0.19876   0.23408   0.27000   0.31619   0.34156
     Eigenvalues ---    0.34336   0.34339   0.34604   0.36739   1.09740
     Eigenvalues ---    1.305291000.000001000.000001000.000001000.00000
     Eigenvalues --- 1000.000001000.000001000.000001000.000001000.00000
     Eigenvalues --- 1000.000001000.00000
 En-DIIS/RFO-DIIS/Sim-DIIS IScMMF=       -3 using points:     3    2    1
 RFO step:  Lambda=-1.59140411D-06.
 NNeg= 0 NGDIIS= 3 SimSw=  2.50D-03 Rises=F DC=  1.51D-07 SmlDif=  1.00D-05
 NRisDI= 0 DoIntr=F SqrtH=F CThrHd= 10.0 CDAdj=  3.0
 RMS Error=  0.4126343389D-03 NUsed= 3 OKEnD=F EnDIS=F
 InvSVX:  RCond= 1.97D-06 Info=           0 Equed=N FErr=  1.92D-15 BErr=  3.50D-17
 DidBck=T Rises=F RFO-DIIS coefs:    0.32361    0.77055   -0.09417
 Iteration  1 RMS(Cart)=  0.00064677 RMS(Int)=  0.00000079
 Iteration  2 RMS(Cart)=  0.00000079 RMS(Int)=  0.00000000
 Iteration  1 RMS(Cart)=  0.00000000 RMS(Int)=  0.00000000
 ITry= 1 IFail=0 DXMaxC= 2.95D-03 DCOld= 1.00D+10 DXMaxT= 1.50D-01 DXLimC= 3.00D+00 Rises=F
 Variable       Old X    -DE/DX   Delta X   Delta X   Delta X     New X
                                 (Linear)    (Quad)   (Total)
    R1        2.18438   0.00001   0.00000  -0.00000  -0.00000   2.18438
    R2        2.76356  -0.00001   0.00001  -0.00003  -0.00002   2.76354
    R3        2.92650  -0.00001   0.00001   0.00004   0.00006   2.92655
    R4        2.06762   0.00001  -0.00001   0.00001   0.00000   2.06762
    R5        2.06762   0.00001  -0.00001   0.00001   0.00000   2.06762
    R6        2.75662  -0.00005  -0.00008  -0.00006  -0.00014   2.75648
    R7        2.07052   0.00001   0.00002   0.00000   0.00002   2.07054
    R8        2.07052   0.00001   0.00002   0.00000   0.00002   2.07054
    R9        2.18457   0.00015   0.00004   0.00005   0.00010   2.18467
   R10        3.30702   0.03414   0.00000   0.00000   0.00000   3.30702
    A1        1.90733  -0.00007  -0.00012  -0.00001  -0.00013   1.90720
    A2        1.90436   0.00003   0.00007  -0.00004   0.00003   1.90439
    A3        1.90434   0.00003   0.00010  -0.00006   0.00004   1.90438
    A4        1.93092   0.00001  -0.00004   0.00007   0.00003   1.93095
    A5        1.93092   0.00001  -0.00004   0.00007   0.00002   1.93095
    A6        1.88554  -0.00001   0.00005  -0.00003   0.00002   1.88555
    A7        1.95423  -0.00002   0.00000  -0.00001  -0.00000   1.95423
    A8        1.93396   0.00002  -0.00005   0.00012   0.00007   1.93403
    A9        1.93395   0.00002  -0.00005   0.00012   0.00007   1.93403
   A10        1.88107  -0.00000   0.00007  -0.00014  -0.00008   1.88100
   A11        1.88111  -0.00001   0.00007  -0.00018  -0.00011   1.88101
   A12        1.87656  -0.00001  -0.00005   0.00008   0.00003   1.87659
   A13        3.11207   0.00015   0.00172   0.00051   0.00223   3.11431
   A14        3.13794   0.00003   0.00069  -0.00069  -0.00000   3.13794
   A15        3.17566   0.00000   0.00026  -0.00020   0.00006   3.17572
   A16        3.15745  -0.00005  -0.00108   0.00030  -0.00078   3.15667
   A17        3.13984  -0.00001   0.00013  -0.00026  -0.00013   3.13970
   A18        3.11484   0.00000  -0.00018   0.00014  -0.00004   3.11479
    D1       -3.14156  -0.00000   0.00003  -0.00006  -0.00002  -3.14159
    D2       -1.04081  -0.00001   0.00009  -0.00016  -0.00007  -1.04088
    D3        1.04082   0.00001  -0.00003   0.00009   0.00006   1.04088
    D4       -1.04442  -0.00001   0.00002  -0.00007  -0.00005  -1.04447
    D5        1.05633  -0.00001   0.00007  -0.00018  -0.00010   1.05623
    D6        3.13796   0.00001  -0.00005   0.00008   0.00003   3.13799
    D7        1.04450   0.00000   0.00002  -0.00002   0.00000   1.04450
    D8       -3.13793  -0.00000   0.00008  -0.00012  -0.00005  -3.13798
    D9       -1.05630   0.00001  -0.00004   0.00013   0.00008  -1.05622
         Item               Value     Threshold  Converged?
 Maximum Force            0.000154     0.000450     YES
 RMS     Force            0.000042     0.000300     YES
 Maximum Displacement     0.002949     0.001800     NO 
 RMS     Displacement     0.000647     0.001200     YES
 Predicted change in Energy=-2.116194D-07
 GradGradGradGradGradGradGradGradGradGradGradGradGradGradGradGradGradGrad

 Leave Link  103 at Wed Aug  6 21:35:01 2025, MaxMem=   104857600 cpu:               0.0 elap:               0.0
 (Enter /Applications/g16/l202.exe)
                          Input orientation:                          
 ---------------------------------------------------------------------
 Center     Atomic      Atomic             Coordinates (Angstroms)
 Number     Number       Type             X           Y           Z
 ---------------------------------------------------------------------
      1          7           0       -2.968450    0.263145   -0.000297
      2          6           0       -1.888550   -0.149140    0.000059
      3          6           0       -0.507342   -0.629647    0.000057
      4          6           0        0.455807    0.583079    0.000104
      5          6           0        1.854494    0.169098    0.000099
      6          7           0        2.961730   -0.163374    0.000239
      7          1           0        0.292536    1.209917   -0.883605
      8          1           0        0.292514    1.209861    0.883849
      9          1           0       -0.344342   -1.251474   -0.885327
     10          1           0       -0.344369   -1.251521    0.885411
     11          3           0        4.655557   -0.603204   -0.000035
 ---------------------------------------------------------------------
                    Distance matrix (angstroms):
                    1          2          3          4          5
     1  N    0.000000
     2  C    1.155925   0.000000
     3  C    2.618039   1.462403   0.000000
     4  C    3.439171   2.456044   1.548665   0.000000
     5  C    4.823861   3.756548   2.493243   1.458665   0.000000
     6  N    5.945499   4.850301   3.500267   2.614735   1.156075
     7  H    3.508652   2.717542   2.191953   1.095685   2.074597
     8  H    3.508828   2.717537   2.191951   1.095685   2.074604
     9  H    3.156468   2.093711   1.094139   2.188564   2.763491
    10  H    3.156658   2.093701   1.094139   2.188563   2.763501
    11  Li   7.673072   6.559840   5.162967   4.364077   2.905582
                    6          7          8          9         10
     6  N    0.000000
     7  H    3.129171   0.000000
     8  H    3.129098   1.767455   0.000000
     9  H    3.591421   2.542452   3.097376   0.000000
    10  H    3.591363   3.097377   2.542444   1.770738   0.000000
    11  Li   1.750000   4.806668   4.806724   5.118885   5.118945
                   11
    11  Li   0.000000
 Stoichiometry    C4H4LiN2(1+)
 Framework group  C1[X(C4H4LiN2)]
 Deg. of freedom    27
 Full point group                 C1      NOp   1
 RotChk:  IX=0 Diff= 1.25D-04
 Largest Abelian subgroup         C1      NOp   1
 Largest concise Abelian subgroup C1      NOp   1
                         Standard orientation:                         
 ---------------------------------------------------------------------
 Center     Atomic      Atomic             Coordinates (Angstroms)
 Number     Number       Type             X           Y           Z
 ---------------------------------------------------------------------
      1          7           0        3.272819   -0.169489   -0.000336
      2          6           0        2.178089    0.201628    0.000021
      3          6           0        0.779684    0.629517    0.000018
      4          6           0       -0.136876   -0.618794    0.000066
      5          6           0       -1.550229   -0.258046    0.000060
      6          7           0       -2.669255    0.032282    0.000201
      7          1           0        0.050003   -1.239003   -0.883644
      8          1           0        0.050022   -1.238946    0.883811
      9          1           0        0.593267    1.244729   -0.885365
     10          1           0        0.593292    1.244777    0.885373
     11          3           0       -4.378515    0.407689   -0.000074
 ---------------------------------------------------------------------
 Rotational constants (GHZ):          23.4313980           1.0505312           1.0182318
 Leave Link  202 at Wed Aug  6 21:35:01 2025, MaxMem=   104857600 cpu:               0.0 elap:               0.0
 (Enter /Applications/g16/l301.exe)
 Standard basis: 6-31G(d) (6D, 7F)
 Ernie: Thresh=  0.10000D-02 Tol=  0.10000D-05 Strict=F.
 There are   113 symmetry adapted cartesian basis functions of A   symmetry.
 There are   113 symmetry adapted basis functions of A   symmetry.
   113 basis functions,   212 primitive gaussians,   113 cartesian basis functions
    22 alpha electrons       22 beta electrons
       nuclear repulsion energy       196.8698019356 Hartrees.
 IExCor= 4639 DFT=T Ex+Corr=wB97XD ExCW=0 ScaHFX=  1.000000
 ScaDFX=  1.000000  1.000000  1.000000  1.000000 ScalE2=  1.000000  1.000000
 IRadAn=      5 IRanWt=     -1 IRanGd=            0 ICorTp=0 IEmpDi=121
 HFx  wShort=  0.000000 wLong=  0.200000 cFull=  0.222036 cShort=  0.000000 cLong=  0.777964
 DFx  wShort=  0.000000 wLong=  0.200000 cFull=  0.000000 cShort=  0.000000 cLong=  1.000000
 NAtoms=   11 NActive=   11 NUniq=   11 SFac= 1.00D+00 NAtFMM=   60 NAOKFM=F Big=F
 Integral buffers will be    131072 words long.
 Raffenetti 2 integral format.
 Two-electron integral symmetry is turned on.
 R6Disp:  Grimme-D2 Dispersion energy=       -0.0047596697 Hartrees.
 Nuclear repulsion after empirical dispersion term =      196.8650422660 Hartrees.
 Leave Link  301 at Wed Aug  6 21:35:01 2025, MaxMem=   104857600 cpu:               0.0 elap:               0.0
 (Enter /Applications/g16/l302.exe)
 NPDir=0 NMtPBC=     1 NCelOv=     1 NCel=       1 NClECP=     1 NCelD=      1
         NCelK=      1 NCelE2=     1 NClLst=     1 CellRange=     0.0.
 One-electron integrals computed using PRISM.
 One-electron integral symmetry used in STVInt
 NBasis=   113 RedAO= T EigKep=  8.44D-04  NBF=   113
 NBsUse=   113 1.00D-06 EigRej= -1.00D+00 NBFU=   113
 Precomputing XC quadrature grid using
 IXCGrd= 4 IRadAn=           5 IRanWt=          -1 IRanGd=           0 AccXCQ= 0.00D+00.
 Generated NRdTot=       0 NPtTot=           0 NUsed=           0 NTot=          32
 NSgBfM=   113   113   113   113   113 MxSgAt=    11 MxSgA2=    11.
 Leave Link  302 at Wed Aug  6 21:35:01 2025, MaxMem=   104857600 cpu:               0.1 elap:               0.1
 (Enter /Applications/g16/l303.exe)
 DipDrv:  MaxL=1.
 Leave Link  303 at Wed Aug  6 21:35:01 2025, MaxMem=   104857600 cpu:               0.0 elap:               0.0
 (Enter /Applications/g16/l401.exe)
 Initial guess from the checkpoint file:  "/Users/srak/g16_scratch/Gau-94959.chk"
 B after Tr=    -0.000000   -0.000000   -0.000000
         Rot=    1.000000   -0.000004   -0.000007    0.000009 Ang=  -0.00 deg.
 Guess basis will be translated and rotated to current coordinates.
 JPrj=2 DoOrth=T DoCkMO=T.
 Leave Link  401 at Wed Aug  6 21:35:01 2025, MaxMem=   104857600 cpu:               0.0 elap:               0.0
 (Enter /Applications/g16/l502.exe)
 Keep R1 ints in memory in canonical form, NReq=43174005.
 FoFCou: FMM=F IPFlag=           0 FMFlag=           0 FMFlg1=           0
         NFxFlg=           0 DoJE=F BraDBF=F KetDBF=F FulRan=T
         wScrn=  0.000000 ICntrl=       600 IOpCl=  0 I1Cent=           0 NGrid=           0
         NMat0=    1 NMatS0=   6441 NMatT0=    0 NMatD0=    1 NMtDS0=    0 NMtDT0=    0
 Symmetry not used in FoFCou.
 Two-electron integral symmetry not used.
 Closed shell SCF:
 Using DIIS extrapolation, IDIIS=  1040.
 NGot=   104857600 LenX=    63336875 LenY=    63323665
 Requested convergence on RMS density matrix=1.00D-08 within 128 cycles.
 Requested convergence on MAX density matrix=1.00D-06.
 Requested convergence on             energy=1.00D-06.
 No special actions if energy rises.

 Cycle   1  Pass 1  IDiag  1:
 E= -271.552963362741    
 DIIS: error= 1.43D-04 at cycle   1 NSaved=   1.
 NSaved= 1 IEnMin= 1 EnMin= -271.552963362741     IErMin= 1 ErrMin= 1.43D-04
 ErrMax= 1.43D-04  0.00D+00 EMaxC= 1.00D-01 BMatC= 1.47D-06 BMatP= 1.47D-06
 IDIUse=3 WtCom= 9.99D-01 WtEn= 1.43D-03
 Coeff-Com:  0.100D+01
 Coeff-En:   0.100D+01
 Coeff:      0.100D+01
 Gap=     1.639 Goal=   None    Shift=    0.000
 RMSDP=1.65D-05 MaxDP=4.39D-04              OVMax= 6.18D-04

 Cycle   2  Pass 1  IDiag  1:
 E= -271.552965706035     Delta-E=       -0.000002343295 Rises=F Damp=F
 DIIS: error= 2.17D-05 at cycle   2 NSaved=   2.
 NSaved= 2 IEnMin= 2 EnMin= -271.552965706035     IErMin= 2 ErrMin= 2.17D-05
 ErrMax= 2.17D-05  0.00D+00 EMaxC= 1.00D-01 BMatC= 6.45D-08 BMatP= 1.47D-06
 IDIUse=1 WtCom= 1.00D+00 WtEn= 0.00D+00
 Coeff-Com: -0.187D+00 0.119D+01
 Coeff:     -0.187D+00 0.119D+01
 Gap=     0.395 Goal=   None    Shift=    0.000
 RMSDP=5.14D-06 MaxDP=1.22D-04 DE=-2.34D-06 OVMax= 2.51D-04

 Cycle   3  Pass 1  IDiag  1:
 E= -271.552965869407     Delta-E=       -0.000000163372 Rises=F Damp=F
 DIIS: error= 8.08D-06 at cycle   3 NSaved=   3.
 NSaved= 3 IEnMin= 3 EnMin= -271.552965869407     IErMin= 3 ErrMin= 8.08D-06
 ErrMax= 8.08D-06  0.00D+00 EMaxC= 1.00D-01 BMatC= 8.94D-09 BMatP= 6.45D-08
 IDIUse=1 WtCom= 1.00D+00 WtEn= 0.00D+00
 Coeff-Com: -0.596D-01 0.289D+00 0.771D+00
 Coeff:     -0.596D-01 0.289D+00 0.771D+00
 Gap=     0.395 Goal=   None    Shift=    0.000
 RMSDP=1.28D-06 MaxDP=2.86D-05 DE=-1.63D-07 OVMax= 5.23D-05

 Cycle   4  Pass 1  IDiag  1:
 E= -271.552965875884     Delta-E=       -0.000000006477 Rises=F Damp=F
 DIIS: error= 8.08D-06 at cycle   4 NSaved=   4.
 NSaved= 4 IEnMin= 4 EnMin= -271.552965875884     IErMin= 4 ErrMin= 8.08D-06
 ErrMax= 8.08D-06  0.00D+00 EMaxC= 1.00D-01 BMatC= 7.36D-09 BMatP= 8.94D-09
 IDIUse=1 WtCom= 1.00D+00 WtEn= 0.00D+00
 Coeff-Com:  0.110D-01-0.129D+00 0.507D+00 0.610D+00
 Coeff:      0.110D-01-0.129D+00 0.507D+00 0.610D+00
 Gap=     0.395 Goal=   None    Shift=    0.000
 RMSDP=7.02D-07 MaxDP=1.52D-05 DE=-6.48D-09 OVMax= 3.03D-05

 Cycle   5  Pass 1  IDiag  1:
 E= -271.552965883077     Delta-E=       -0.000000007194 Rises=F Damp=F
 DIIS: error= 9.99D-07 at cycle   5 NSaved=   5.
 NSaved= 5 IEnMin= 5 EnMin= -271.552965883077     IErMin= 5 ErrMin= 9.99D-07
 ErrMax= 9.99D-07  0.00D+00 EMaxC= 1.00D-01 BMatC= 1.88D-10 BMatP= 7.36D-09
 IDIUse=1 WtCom= 1.00D+00 WtEn= 0.00D+00
 Coeff-Com:  0.112D-01-0.779D-01 0.516D-01 0.164D+00 0.851D+00
 Coeff:      0.112D-01-0.779D-01 0.516D-01 0.164D+00 0.851D+00
 Gap=     0.395 Goal=   None    Shift=    0.000
 RMSDP=2.08D-07 MaxDP=3.85D-06 DE=-7.19D-09 OVMax= 1.07D-05

 Cycle   6  Pass 1  IDiag  1:
 E= -271.552965883342     Delta-E=       -0.000000000265 Rises=F Damp=F
 DIIS: error= 4.02D-07 at cycle   6 NSaved=   6.
 NSaved= 6 IEnMin= 6 EnMin= -271.552965883342     IErMin= 6 ErrMin= 4.02D-07
 ErrMax= 4.02D-07  0.00D+00 EMaxC= 1.00D-01 BMatC= 2.35D-11 BMatP= 1.88D-10
 IDIUse=1 WtCom= 1.00D+00 WtEn= 0.00D+00
 Coeff-Com:  0.393D-02-0.237D-01-0.935D-02 0.273D-01 0.326D+00 0.676D+00
 Coeff:      0.393D-02-0.237D-01-0.935D-02 0.273D-01 0.326D+00 0.676D+00
 Gap=     0.395 Goal=   None    Shift=    0.000
 RMSDP=5.68D-08 MaxDP=1.24D-06 DE=-2.65D-10 OVMax= 2.10D-06

 Cycle   7  Pass 1  IDiag  1:
 E= -271.552965883362     Delta-E=       -0.000000000020 Rises=F Damp=F
 DIIS: error= 2.55D-07 at cycle   7 NSaved=   7.
 NSaved= 7 IEnMin= 7 EnMin= -271.552965883362     IErMin= 7 ErrMin= 2.55D-07
 ErrMax= 2.55D-07  0.00D+00 EMaxC= 1.00D-01 BMatC= 8.05D-12 BMatP= 2.35D-11
 IDIUse=1 WtCom= 1.00D+00 WtEn= 0.00D+00
 Coeff-Com:  0.129D-03 0.120D-02-0.125D-01-0.140D-01 0.153D-01 0.384D+00
 Coeff-Com:  0.626D+00
 Coeff:      0.129D-03 0.120D-02-0.125D-01-0.140D-01 0.153D-01 0.384D+00
 Coeff:      0.626D+00
 Gap=     0.395 Goal=   None    Shift=    0.000
 RMSDP=2.66D-08 MaxDP=6.23D-07 DE=-1.97D-11 OVMax= 8.99D-07

 Cycle   8  Pass 1  IDiag  1:
 E= -271.552965883365     Delta-E=       -0.000000000003 Rises=F Damp=F
 DIIS: error= 5.37D-08 at cycle   8 NSaved=   8.
 NSaved= 8 IEnMin= 8 EnMin= -271.552965883365     IErMin= 8 ErrMin= 5.37D-08
 ErrMax= 5.37D-08  0.00D+00 EMaxC= 1.00D-01 BMatC= 4.71D-13 BMatP= 8.05D-12
 IDIUse=1 WtCom= 1.00D+00 WtEn= 0.00D+00
 Coeff-Com: -0.357D-03 0.291D-02-0.317D-02-0.777D-02-0.309D-01 0.802D-01
 Coeff-Com:  0.261D+00 0.698D+00
 Coeff:     -0.357D-03 0.291D-02-0.317D-02-0.777D-02-0.309D-01 0.802D-01
 Coeff:      0.261D+00 0.698D+00
 Gap=     0.395 Goal=   None    Shift=    0.000
 RMSDP=7.38D-09 MaxDP=1.69D-07 DE=-3.35D-12 OVMax= 2.35D-07

 SCF Done:  E(RwB97XD) =  -271.552965883     A.U. after    8 cycles
            NFock=  8  Conv=0.74D-08     -V/T= 2.0090
 KE= 2.691405636317D+02 PE=-1.017211632475D+03 EE= 2.796530606941D+02
 Leave Link  502 at Wed Aug  6 21:35:06 2025, MaxMem=   104857600 cpu:               5.2 elap:               5.2
 (Enter /Applications/g16/l701.exe)
 ... and contract with generalized density number  0.
 Compute integral first derivatives.
 R6Disp: Adding Grimme-D2 dispersion energy 1st derivatives to the gradient.
 Leave Link  701 at Wed Aug  6 21:35:06 2025, MaxMem=   104857600 cpu:               0.0 elap:               0.0
 (Enter /Applications/g16/l702.exe)
 L702 exits ... SP integral derivatives will be done elsewhere.
 Leave Link  702 at Wed Aug  6 21:35:06 2025, MaxMem=   104857600 cpu:               0.0 elap:               0.0
 (Enter /Applications/g16/l703.exe)
 Integral derivatives from FoFJK, PRISM(SPDF).
 Compute integral first derivatives, UseDBF=F ICtDFT=           0.
 Calling FoFJK, ICntrl=      2127 FMM=F ISym2X=0 I1Cent= 0 IOpClX= 0 NMat=1 NMatS=1 NMatT=0.
 FoFJK:  IHMeth= 1 ICntrl=    2127 DoSepK=T KAlg= 0 I1Cent=           0 FoldK=F
 IRaf=         1 NMat=       1 IRICut=       1 DoRegI=T DoRafI=F ISym2E= 0 IDoP0=0 IntGTp=1.
 FoFCou: FMM=F IPFlag=           0 FMFlag=      100000 FMFlg1=         800
         NFxFlg=           0 DoJE=F BraDBF=F KetDBF=F FulRan=T
         wScrn=  0.000000 ICntrl=      2527 IOpCl=  0 I1Cent=           0 NGrid=           0
         NMat0=    1 NMatS0=      1 NMatT0=    0 NMatD0=    1 NMtDS0=    0 NMtDT0=    0
 Symmetry not used in FoFCou.
 Leave Link  703 at Wed Aug  6 21:35:08 2025, MaxMem=   104857600 cpu:               2.4 elap:               2.5
 (Enter /Applications/g16/l716.exe)
 Dipole        =-6.69252883D+00 5.90124344D-01-4.57291806D-05
 ***** Axes restored to original set *****
 -------------------------------------------------------------------
 Center     Atomic                   Forces (Hartrees/Bohr)
 Number     Number              X              Y              Z
 -------------------------------------------------------------------
      1        7           0.000003572    0.000004621    0.000011780
      2        6          -0.000004291   -0.000010201   -0.000025041
      3        6           0.000015418    0.000012714    0.000012882
      4        6          -0.000013678    0.000011248   -0.000006154
      5        6          -0.000035847   -0.000018507    0.000013802
      6        7          -0.033013670    0.008582764   -0.000003961
      7        1           0.000001492    0.000001281   -0.000000289
      8        1           0.000005428    0.000001377    0.000000878
      9        1          -0.000004890   -0.000001297   -0.000001451
     10        1           0.000001423   -0.000002580    0.000001240
     11        3           0.033045044   -0.008581419   -0.000003686
 -------------------------------------------------------------------
 Cartesian Forces:  Max     0.033045044 RMS     0.008401273
 Leave Link  716 at Wed Aug  6 21:35:08 2025, MaxMem=   104857600 cpu:               0.0 elap:               0.0
 (Enter /Applications/g16/l103.exe)

 GradGradGradGradGradGradGradGradGradGradGradGradGradGradGradGradGradGrad
 Berny optimization.
 Using GEDIIS/GDIIS optimizer.
 FormGI is forming the generalized inverse of G from B-inverse, IUseBI=4.
 Internal  Forces:  Max     0.034141005 RMS     0.005612754
 Search for a local minimum.
 Step number   4 out of a maximum of   47
 All quantities printed in internal units (Hartrees-Bohrs-Radians)
 RMS Force = .90017D-05 SwitMx=.10000D-02 MixMth= 2
 Mixed Optimization -- En-DIIS/RFO-DIIS
 Swapping is turned off.
 Update second derivatives using D2CorX and points    1    2    3    4
 DE= -1.98D-07 DEPred=-2.12D-07 R= 9.37D-01
 Trust test= 9.37D-01 RLast= 2.40D-03 DXMaxT set to 1.50D-01
 ITU=  0 -1  0  0
     Eigenvalues ---    0.00230   0.01427   0.02673   0.02774   0.04910
     Eigenvalues ---    0.05312   0.05578   0.05611   0.05788   0.06994
     Eigenvalues ---    0.08438   0.15427   0.16003   0.16033   0.16185
     Eigenvalues ---    0.22070   0.23714   0.27979   0.33915   0.34156
     Eigenvalues ---    0.34310   0.34342   0.35926   0.36755   1.28604
     Eigenvalues ---    1.305321000.000001000.000001000.000001000.00000
     Eigenvalues --- 1000.000001000.000001000.000001000.000001000.00000
     Eigenvalues --- 1000.000001000.00000
 En-DIIS/RFO-DIIS/Sim-DIIS IScMMF=       -3 using points:     4    3    2    1
 RFO step:  Lambda=-1.19780793D-06.
 NNeg= 0 NGDIIS= 4 SimSw=  2.50D-03 Rises=F DC= -1.98D-07 SmlDif=  1.00D-05
 NRisDI= 0 DoIntr=F SqrtH=F CThrHd= 10.0 CDAdj=  3.0
 RMS Error=  0.1739456353D-03 NUsed= 4 OKEnD=F EnDIS=F
 InvSVX:  RCond= 5.94D-07 Info=           0 Equed=N FErr=  4.57D-15 BErr=  8.45D-17
 DidBck=T Rises=F RFO-DIIS coefs:    0.27075    0.09894    0.46213    0.16818
 Iteration  1 RMS(Cart)=  0.00017506 RMS(Int)=  0.00000006
 Iteration  2 RMS(Cart)=  0.00000007 RMS(Int)=  0.00000000
 Iteration  1 RMS(Cart)=  0.00000000 RMS(Int)=  0.00000000
 ITry= 1 IFail=0 DXMaxC= 8.10D-04 DCOld= 1.00D+10 DXMaxT= 1.50D-01 DXLimC= 3.00D+00 Rises=F
 Variable       Old X    -DE/DX   Delta X   Delta X   Delta X     New X
                                 (Linear)    (Quad)   (Total)
    R1        2.18438  -0.00000  -0.00000   0.00000  -0.00000   2.18438
    R2        2.76354  -0.00000  -0.00000  -0.00000  -0.00001   2.76354
    R3        2.92655  -0.00001   0.00007  -0.00009  -0.00002   2.92653
    R4        2.06762   0.00000  -0.00001   0.00001   0.00001   2.06763
    R5        2.06762   0.00000  -0.00001   0.00002   0.00001   2.06763
    R6        2.75648   0.00000  -0.00015   0.00016   0.00001   2.75649
    R7        2.07054   0.00000   0.00003  -0.00003  -0.00000   2.07054
    R8        2.07054   0.00000   0.00003  -0.00003  -0.00000   2.07054
    R9        2.18467   0.00003   0.00009  -0.00008   0.00001   2.18467
   R10        3.30702   0.03414  -0.00000   0.00000   0.00000   3.30702
    A1        1.90720   0.00000  -0.00013   0.00015   0.00002   1.90722
    A2        1.90439  -0.00001   0.00006  -0.00009  -0.00004   1.90435
    A3        1.90438   0.00000   0.00007  -0.00008  -0.00000   1.90438
    A4        1.93095   0.00000  -0.00003   0.00005   0.00002   1.93097
    A5        1.93095  -0.00000  -0.00003   0.00005   0.00002   1.93097
    A6        1.88555  -0.00000   0.00006  -0.00008  -0.00002   1.88553
    A7        1.95423  -0.00002   0.00004  -0.00009  -0.00005   1.95418
    A8        1.93403   0.00000  -0.00001   0.00005   0.00004   1.93406
    A9        1.93403   0.00001  -0.00001   0.00005   0.00004   1.93407
   A10        1.88100   0.00000   0.00000  -0.00001  -0.00001   1.88098
   A11        1.88101   0.00000   0.00001  -0.00005  -0.00004   1.88097
   A12        1.87659  -0.00000  -0.00003   0.00005   0.00002   1.87662
   A13        3.11431  -0.00002  -0.00021  -0.00012  -0.00033   3.11398
   A14        3.13794   0.00003   0.00036  -0.00020   0.00017   3.13811
   A15        3.17572   0.00000   0.00022  -0.00022  -0.00000   3.17572
   A16        3.15667  -0.00002  -0.00026  -0.00040  -0.00066   3.15600
   A17        3.13970   0.00000   0.00004  -0.00007  -0.00004   3.13967
   A18        3.11479   0.00000  -0.00021   0.00030   0.00010   3.11489
    D1       -3.14159   0.00000   0.00002  -0.00002   0.00001  -3.14158
    D2       -1.04088  -0.00000   0.00005  -0.00007  -0.00002  -1.04090
    D3        1.04088   0.00000  -0.00001   0.00007   0.00006   1.04094
    D4       -1.04447  -0.00000  -0.00001  -0.00001  -0.00001  -1.04449
    D5        1.05623  -0.00000   0.00002  -0.00005  -0.00004   1.05619
    D6        3.13799   0.00000  -0.00004   0.00008   0.00004   3.13804
    D7        1.04450  -0.00000   0.00003  -0.00005  -0.00001   1.04449
    D8       -3.13798  -0.00000   0.00006  -0.00009  -0.00004  -3.13802
    D9       -1.05622   0.00000   0.00000   0.00004   0.00004  -1.05618
         Item               Value     Threshold  Converged?
 Maximum Force            0.000029     0.000450     YES
 RMS     Force            0.000009     0.000300     YES
 Maximum Displacement     0.000810     0.001800     YES
 RMS     Displacement     0.000175     0.001200     YES
 Predicted change in Energy=-1.514216D-08
 Optimization completed.
    -- Stationary point found.
                           ----------------------------
                           !   Optimized Parameters   !
                           ! (Angstroms and Degrees)  !
 --------------------------                            --------------------------
 ! Name  Definition              Value          Derivative Info.                !
 --------------------------------------------------------------------------------
 ! R1    R(1,2)                  1.1559         -DE/DX =    0.0                 !
 ! R2    R(2,3)                  1.4624         -DE/DX =    0.0                 !
 ! R3    R(3,4)                  1.5487         -DE/DX =    0.0                 !
 ! R4    R(3,9)                  1.0941         -DE/DX =    0.0                 !
 ! R5    R(3,10)                 1.0941         -DE/DX =    0.0                 !
 ! R6    R(4,5)                  1.4587         -DE/DX =    0.0                 !
 ! R7    R(4,7)                  1.0957         -DE/DX =    0.0                 !
 ! R8    R(4,8)                  1.0957         -DE/DX =    0.0                 !
 ! R9    R(5,6)                  1.1561         -DE/DX =    0.0                 !
 ! R10   R(6,11)                 1.75           -DE/DX =    0.0341              !
 ! A1    A(2,3,4)              109.2744         -DE/DX =    0.0                 !
 ! A2    A(2,3,9)              109.1136         -DE/DX =    0.0                 !
 ! A3    A(2,3,10)             109.1129         -DE/DX =    0.0                 !
 ! A4    A(4,3,9)              110.6352         -DE/DX =    0.0                 !
 ! A5    A(4,3,10)             110.6352         -DE/DX =    0.0                 !
 ! A6    A(9,3,10)             108.0342         -DE/DX =    0.0                 !
 ! A7    A(3,4,5)              111.969          -DE/DX =    0.0                 !
 ! A8    A(3,4,7)              110.8117         -DE/DX =    0.0                 !
 ! A9    A(3,4,8)              110.8115         -DE/DX =    0.0                 !
 ! A10   A(5,4,7)              107.7731         -DE/DX =    0.0                 !
 ! A11   A(5,4,8)              107.7737         -DE/DX =    0.0                 !
 ! A12   A(7,4,8)              107.5209         -DE/DX =    0.0                 !
 ! A13   L(1,2,3,8,-1)         178.4366         -DE/DX =    0.0                 !
 ! A14   L(4,5,6,10,-1)        179.7907         -DE/DX =    0.0                 !
 ! A15   L(5,6,11,9,-1)        181.9555         -DE/DX =    0.0                 !
 ! A16   L(1,2,3,8,-2)         180.8637         -DE/DX =    0.0                 !
 ! A17   L(4,5,6,10,-2)        179.8918         -DE/DX =    0.0                 !
 ! A18   L(5,6,11,9,-2)        178.4645         -DE/DX =    0.0                 !
 ! D1    D(2,3,4,5)           -179.9998         -DE/DX =    0.0                 !
 ! D2    D(2,3,4,7)            -59.6382         -DE/DX =    0.0                 !
 ! D3    D(2,3,4,8)             59.638          -DE/DX =    0.0                 !
 ! D4    D(9,3,4,5)            -59.844          -DE/DX =    0.0                 !
 ! D5    D(9,3,4,7)             60.5176         -DE/DX =    0.0                 !
 ! D6    D(9,3,4,8)            179.7938         -DE/DX =    0.0                 !
 ! D7    D(10,3,4,5)            59.8453         -DE/DX =    0.0                 !
 ! D8    D(10,3,4,7)          -179.7931         -DE/DX =    0.0                 !
 ! D9    D(10,3,4,8)           -60.5169         -DE/DX =    0.0                 !
 --------------------------------------------------------------------------------
 Lowest energy point so far.  Saving SCF results.
 Largest change from initial coordinates is atom    1       0.001 Angstoms.
 GradGradGradGradGradGradGradGradGradGradGradGradGradGradGradGradGradGrad

 Leave Link  103 at Wed Aug  6 21:35:08 2025, MaxMem=   104857600 cpu:               0.0 elap:               0.0
 (Enter /Applications/g16/l202.exe)
                          Input orientation:                          
 ---------------------------------------------------------------------
 Center     Atomic      Atomic             Coordinates (Angstroms)
 Number     Number       Type             X           Y           Z
 ---------------------------------------------------------------------
      1          7           0       -2.968450    0.263145   -0.000297
      2          6           0       -1.888550   -0.149140    0.000059
      3          6           0       -0.507342   -0.629647    0.000057
      4          6           0        0.455807    0.583079    0.000104
      5          6           0        1.854494    0.169098    0.000099
      6          7           0        2.961730   -0.163374    0.000239
      7          1           0        0.292536    1.209917   -0.883605
      8          1           0        0.292514    1.209861    0.883849
      9          1           0       -0.344342   -1.251474   -0.885327
     10          1           0       -0.344369   -1.251521    0.885411
     11          3           0        4.655557   -0.603204   -0.000035
 ---------------------------------------------------------------------
                    Distance matrix (angstroms):
                    1          2          3          4          5
     1  N    0.000000
     2  C    1.155925   0.000000
     3  C    2.618039   1.462403   0.000000
     4  C    3.439171   2.456044   1.548665   0.000000
     5  C    4.823861   3.756548   2.493243   1.458665   0.000000
     6  N    5.945499   4.850301   3.500267   2.614735   1.156075
     7  H    3.508652   2.717542   2.191953   1.095685   2.074597
     8  H    3.508828   2.717537   2.191951   1.095685   2.074604
     9  H    3.156468   2.093711   1.094139   2.188564   2.763491
    10  H    3.156658   2.093701   1.094139   2.188563   2.763501
    11  Li   7.673072   6.559840   5.162967   4.364077   2.905582
                    6          7          8          9         10
     6  N    0.000000
     7  H    3.129171   0.000000
     8  H    3.129098   1.767455   0.000000
     9  H    3.591421   2.542452   3.097376   0.000000
    10  H    3.591363   3.097377   2.542444   1.770738   0.000000
    11  Li   1.750000   4.806668   4.806724   5.118885   5.118945
                   11
    11  Li   0.000000
 Stoichiometry    C4H4LiN2(1+)
 Framework group  C1[X(C4H4LiN2)]
 Deg. of freedom    27
 Full point group                 C1      NOp   1
 RotChk:  IX=0 Diff= 4.22D-16
 Largest Abelian subgroup         C1      NOp   1
 Largest concise Abelian subgroup C1      NOp   1
                         Standard orientation:                         
 ---------------------------------------------------------------------
 Center     Atomic      Atomic             Coordinates (Angstroms)
 Number     Number       Type             X           Y           Z
 ---------------------------------------------------------------------
      1          7           0        3.272819   -0.169489   -0.000336
      2          6           0        2.178089    0.201628    0.000021
      3          6           0        0.779684    0.629517    0.000018
      4          6           0       -0.136876   -0.618794    0.000066
      5          6           0       -1.550229   -0.258046    0.000060
      6          7           0       -2.669255    0.032282    0.000201
      7          1           0        0.050003   -1.239003   -0.883644
      8          1           0        0.050022   -1.238946    0.883811
      9          1           0        0.593267    1.244729   -0.885365
     10          1           0        0.593292    1.244777    0.885373
     11          3           0       -4.378515    0.407689   -0.000074
 ---------------------------------------------------------------------
 Rotational constants (GHZ):          23.4313980           1.0505312           1.0182318
 Leave Link  202 at Wed Aug  6 21:35:08 2025, MaxMem=   104857600 cpu:               0.0 elap:               0.0
 (Enter /Applications/g16/l601.exe)
 Copying SCF densities to generalized density rwf, IOpCl= 0 IROHF=0.

 **********************************************************************

            Population analysis using the SCF Density.

 **********************************************************************

 Orbital symmetries:
       Occupied  (A) (A) (A) (A) (A) (A) (A) (A) (A) (A) (A) (A)
                 (A) (A) (A) (A) (A) (A) (A) (A) (A) (A)
       Virtual   (A) (A) (A) (A) (A) (A) (A) (A) (A) (A) (A) (A)
                 (A) (A) (A) (A) (A) (A) (A) (A) (A) (A) (A) (A)
                 (A) (A) (A) (A) (A) (A) (A) (A) (A) (A) (A) (A)
                 (A) (A) (A) (A) (A) (A) (A) (A) (A) (A) (A) (A)
                 (A) (A) (A) (A) (A) (A) (A) (A) (A) (A) (A) (A)
                 (A) (A) (A) (A) (A) (A) (A) (A) (A) (A) (A) (A)
                 (A) (A) (A) (A) (A) (A) (A) (A) (A) (A) (A) (A)
                 (A) (A) (A) (A) (A) (A) (A)
 The electronic state is 1-A.
 Alpha  occ. eigenvalues --  -14.67300 -14.57571 -10.57905 -10.52882 -10.50838
 Alpha  occ. eigenvalues --  -10.46170  -2.32761  -1.23261  -1.13114  -1.09041
 Alpha  occ. eigenvalues --   -0.97351  -0.80193  -0.75610  -0.75001  -0.71629
 Alpha  occ. eigenvalues --   -0.68780  -0.67138  -0.63100  -0.62025  -0.56161
 Alpha  occ. eigenvalues --   -0.53455  -0.53094
 Alpha virt. eigenvalues --   -0.13568  -0.12594  -0.12065  -0.06593  -0.06454
 Alpha virt. eigenvalues --   -0.06278  -0.01090  -0.00280   0.04306   0.04854
 Alpha virt. eigenvalues --    0.05077   0.06144   0.07439   0.08577   0.10666
 Alpha virt. eigenvalues --    0.13410   0.14512   0.14968   0.17990   0.28395
 Alpha virt. eigenvalues --    0.34124   0.37077   0.37078   0.38424   0.40528
 Alpha virt. eigenvalues --    0.47260   0.47332   0.50242   0.50477   0.53242
 Alpha virt. eigenvalues --    0.54480   0.59972   0.60355   0.64267   0.66048
 Alpha virt. eigenvalues --    0.67549   0.70110   0.74759   0.77360   0.78106
 Alpha virt. eigenvalues --    0.80548   0.81939   0.84353   0.86212   0.90070
 Alpha virt. eigenvalues --    0.93870   0.97294   1.02772   1.02959   1.06305
 Alpha virt. eigenvalues --    1.10674   1.28682   1.30135   1.32338   1.38153
 Alpha virt. eigenvalues --    1.39224   1.42746   1.45695   1.48063   1.51398
 Alpha virt. eigenvalues --    1.62633   1.64373   1.69622   1.77388   1.78340
 Alpha virt. eigenvalues --    1.81926   1.85571   1.89076   1.89152   1.91787
 Alpha virt. eigenvalues --    1.94410   1.97719   2.13635   2.14090   2.17382
 Alpha virt. eigenvalues --    2.26532   2.36829   2.61398   2.67567   2.73062
 Alpha virt. eigenvalues --    2.76205   2.77913   2.84319   3.11807   3.23630
 Alpha virt. eigenvalues --    4.00874   4.02955   4.07818   4.17341   4.47618
 Alpha virt. eigenvalues --    4.69095
          Condensed to atoms (all electrons):
               1          2          3          4          5          6
     1  N    6.623681   0.858518  -0.081156  -0.000732  -0.000069  -0.000000
     2  C    0.858518   4.602935   0.278853  -0.039217   0.004051  -0.000035
     3  C   -0.081156   0.278853   5.222976   0.308152  -0.034594  -0.001580
     4  C   -0.000732  -0.039217   0.308152   5.222431   0.290020  -0.055907
     5  C   -0.000069   0.004051  -0.034594   0.290020   4.526880   0.740668
     6  N   -0.000000  -0.000035  -0.001580  -0.055907   0.740668   6.769821
     7  H    0.000308  -0.001729  -0.026073   0.376603  -0.033095  -0.001496
     8  H    0.000308  -0.001729  -0.026073   0.376606  -0.033095  -0.001498
     9  H   -0.000556  -0.027086   0.377799  -0.031393  -0.003719   0.000055
    10  H   -0.000552  -0.027081   0.377784  -0.031390  -0.003721   0.000055
    11  Li  -0.000005  -0.000160   0.000602  -0.000027  -0.021631   0.168520
               7          8          9         10         11
     1  N    0.000308   0.000308  -0.000556  -0.000552  -0.000005
     2  C   -0.001729  -0.001729  -0.027086  -0.027081  -0.000160
     3  C   -0.026073  -0.026073   0.377799   0.377784   0.000602
     4  C    0.376603   0.376606  -0.031393  -0.031390  -0.000027
     5  C   -0.033095  -0.033095  -0.003719  -0.003721  -0.021631
     6  N   -0.001496  -0.001498   0.000055   0.000055   0.168520
     7  H    0.406094  -0.016625  -0.002250   0.002655   0.000337
     8  H   -0.016625   0.406089   0.002655  -0.002250   0.000337
     9  H   -0.002250   0.002655   0.441248  -0.020499   0.000413
    10  H    0.002655  -0.002250  -0.020499   0.441264   0.000413
    11  Li   0.000337   0.000337   0.000413   0.000413   2.059203
 Mulliken charges:
               1
     1  N   -0.399745
     2  C    0.352680
     3  C   -0.396689
     4  C   -0.415146
     5  C    0.568305
     6  N   -0.618602
     7  H    0.295271
     8  H    0.295275
     9  H    0.263332
    10  H    0.263322
    11  Li   0.791998
 Sum of Mulliken charges =   1.00000
 Mulliken charges with hydrogens summed into heavy atoms:
               1
     1  N   -0.399745
     2  C    0.352680
     3  C    0.129965
     4  C    0.175400
     5  C    0.568305
     6  N   -0.618602
    11  Li   0.791998
 Electronic spatial extent (au):  <R**2>=            904.6112
 Charge=              1.0000 electrons
 Dipole moment (field-independent basis, Debye):
    X=            -17.0107    Y=              1.4999    Z=             -0.0001  Tot=             17.0767
 Quadrupole moment (field-independent basis, Debye-Ang):
   XX=             23.1141   YY=            -30.4246   ZZ=            -32.4222
   XY=             -4.8605   XZ=              0.0043   YZ=             -0.0004
 Traceless Quadrupole moment (field-independent basis, Debye-Ang):
   XX=             36.3584   YY=            -17.1804   ZZ=            -19.1779
   XY=             -4.8605   XZ=              0.0043   YZ=             -0.0004
 Octapole moment (field-independent basis, Debye-Ang**2):
  XXX=           -399.0066  YYY=              1.5571  ZZZ=             -0.0004  XYY=             -9.3610
  XXY=             39.7268  XXZ=             -0.0048  XZZ=             -6.1471  YZZ=              0.2613
  YYZ=             -0.0002  XYZ=              0.0004
 Hexadecapole moment (field-independent basis, Debye-Ang**3):
 XXXX=            407.5537 YYYY=            -79.1427 ZZZZ=            -41.4091 XXXY=           -146.8874
 XXXZ=              0.0888 YYYX=             -8.9332 YYYZ=             -0.0003 ZZZX=              0.0280
 ZZZY=             -0.0008 XXYY=           -159.2437 XXZZ=           -167.5301 YYZZ=            -16.5967
 XXYZ=             -0.0051 YYXZ=              0.0099 ZZXY=             -2.2760
 N-N= 1.968650422660D+02 E-N=-1.017211632955D+03  KE= 2.691405636317D+02
 No NMR shielding tensors so no spin-rotation constants.
 Leave Link  601 at Wed Aug  6 21:35:08 2025, MaxMem=   104857600 cpu:               0.0 elap:               0.0
 (Enter /Applications/g16/l9999.exe)
 Unable to Open any file for archive entry.
 1\1\GINC-MBPSRAK\FOpt\RwB97XD\6-31G(d)\C4H4Li1N2(1+)\ROOT\06-Aug-2025\
 0\\#P wb97xd/6-31g(d) opt(modredundant)\\Gaussian input prepared by AS
 E\\1,1\N,-2.96844977,0.2631449135,-0.0002972704\C,-1.8885496712,-0.149
 1395721,0.0000592874\C,-0.5073419464,-0.6296473693,0.0000566047\C,0.45
 58074102,0.5830791481,0.0001042655\C,1.8544939474,0.1690978757,0.00009
 903\N,2.9617301306,-0.1633742145,0.0002394941\H,0.2925359146,1.2099168
 633,-0.8836054877\H,0.2925143627,1.2098607104,0.8838492833\H,-0.344342
 3323,-1.2514744493,-0.8853265478\H,-0.3443694844,-1.251521106,0.885411
 2454\Li,4.6555569838,-0.6032043136,-0.0000349634\\Version=Apple M1-G16
 RevC.02\State=1-A\HF=-271.5529659\RMSD=7.377e-09\RMSF=8.401e-03\Dipole
 =6.665399,-0.8429973,-0.0000457\Quadrupole=26.7011868,-12.4428568,-14.
 25833,-5.1087577,-0.003188,0.0004545\PG=C01 [X(C4H4Li1N2)]\\@
 The archive entry for this job was punched.


  THE LARGE PRINT GIVETH,
  AND THE SMALL PRINT TAKETH AWAY.

                     -- TOM WAITS
 Job cpu time:       0 days  0 hours  0 minutes 35.8 seconds.
 Elapsed time:       0 days  0 hours  0 minutes 36.9 seconds.
 File lengths (MBytes):  RWF=     10 Int=      0 D2E=      0 Chk=      2 Scr=      1
 Normal termination of Gaussian 16 at Wed Aug  6 21:35:08 2025.
