 Entering Gaussian System, Link 0=g16
 Input=/Users/srak/Desktop/imolcraft/vsite_positiondiff/distance_scan/cn__Li_dist_0__1.50.gjf
 Output=/Users/srak/Desktop/imolcraft/vsite_positiondiff/distance_scan/cn__Li_dist_0__1.50.log
 Initial command:
 /Applications/g16/l1.exe "/Users/srak/g16_scratch/Gau-74186.inp" -scrdir="/Users/srak/g16_scratch/"
 Entering Link 1 = /Applications/g16/l1.exe PID=     74187.
  
 Copyright (c) 1988-2021, Gaussian, Inc.  All Rights Reserved.
  
 This is part of the Gaussian(R) 16 program.  It is based on
 the Gaussian(R) 09 system (copyright 2009, Gaussian, Inc.),
 the Gaussian(R) 03 system (copyright 2003, Gaussian, Inc.),
 the Gaussian(R) 98 system (copyright 1998, Gaussian, Inc.),
 the Gaussian(R) 94 system (copyright 1995, Gaussian, Inc.),
 the Gaussian 92(TM) system (copyright 1992, Gaussian, Inc.),
 the Gaussian 90(TM) system (copyright 1990, Gaussian, Inc.),
 the Gaussian 88(TM) system (copyright 1988, Gaussian, Inc.),
 the Gaussian 86(TM) system (copyright 1986, Carnegie Mellon
 University), and the Gaussian 82(TM) system (copyright 1983,
 Carnegie Mellon University). Gaussian is a federally registered
 trademark of Gaussian, Inc.
  
 This software contains proprietary and confidential information,
 including trade secrets, belonging to Gaussian, Inc.
  
 This software is provided under written license and may be
 used, copied, transmitted, or stored only in accord with that
 written license.
  
 The following legend is applicable only to US Government
 contracts under FAR:
  
                    RESTRICTED RIGHTS LEGEND
  
 Use, reproduction and disclosure by the US Government is
 subject to restrictions as set forth in subparagraphs (a)
 and (c) of the Commercial Computer Software - Restricted
 Rights clause in FAR 52.227-19.
  
 Gaussian, Inc.
 340 Quinnipiac St., Bldg. 40, Wallingford CT 06492
  
  
 ---------------------------------------------------------------
 Warning -- This program may not be used in any manner that
 competes with the business of Gaussian, Inc. or will provide
 assistance to any competitor of Gaussian, Inc.  The licensee
 of this program is prohibited from giving any competitor of
 Gaussian, Inc. access to this program.  By using this program,
 the user acknowledges that Gaussian, Inc. is engaged in the
 business of creating and licensing software in the field of
 computational chemistry and represents and warrants to the
 licensee that it is not a competitor of Gaussian, Inc. and that
 it will not use this program in any manner prohibited above.
 ---------------------------------------------------------------
  

 Cite this work as:
 Gaussian 16, Revision C.02,
 M. J. Frisch, G. W. Trucks, H. B. Schlegel, G. E. Scuseria, 
 M. A. Robb, J. R. Cheeseman, G. Scalmani, V. Barone, 
 G. A. Petersson, H. Nakatsuji, X. Li, M. Caricato, A. V. Marenich, 
 J. Bloino, B. G. Janesko, R. Gomperts, B. Mennucci, H. P. Hratchian, 
 J. V. Ortiz, A. F. Izmaylov, J. L. Sonnenberg, D. Williams-Young, 
 F. Ding, F. Lipparini, F. Egidi, J. Goings, B. Peng, A. Petrone, 
 T. Henderson, D. Ranasinghe, V. G. Zakrzewski, J. Gao, N. Rega, 
 G. Zheng, W. Liang, M. Hada, M. Ehara, K. Toyota, R. Fukuda, 
 J. Hasegawa, M. Ishida, T. Nakajima, Y. Honda, O. Kitao, H. Nakai, 
 T. Vreven, K. Throssell, J. A. Montgomery, Jr., J. E. Peralta, 
 F. Ogliaro, M. J. Bearpark, J. J. Heyd, E. N. Brothers, K. N. Kudin, 
 V. N. Staroverov, T. A. Keith, R. Kobayashi, J. Normand, 
 K. Raghavachari, A. P. Rendell, J. C. Burant, S. S. Iyengar, 
 J. Tomasi, M. Cossi, J. M. Millam, M. Klene, C. Adamo, R. Cammi, 
 J. W. Ochterski, R. L. Martin, K. Morokuma, O. Farkas, 
 J. B. Foresman, and D. J. Fox, Gaussian, Inc., Wallingford CT, 2019.
 
 *********************************************
 Gaussian 16:  Apple M1-G16RevC.02  7-Dec-2021
                   7-Aug-2025 
 *********************************************
 -----------------------------------
 #p opt=modredundant wb97xd/6-31g(d)
 -----------------------------------
 1/18=120,19=15,26=3,38=1/1,3;
 2/9=110,12=2,17=6,18=5,40=1/2;
 3/5=1,6=6,7=1,11=2,25=1,30=1,71=1,74=-58/1,2,3;
 4//1;
 5/5=2,38=5/2;
 6/7=2,8=2,9=2,10=2,28=1/1;
 7//1,2,3,16;
 1/18=20,19=15,26=3/3(2);
 2/9=110/2;
 99//99;
 2/9=110/2;
 3/5=1,6=6,7=1,11=2,25=1,30=1,71=1,74=-58/1,2,3;
 4/5=5,16=3,69=1/1;
 5/5=2,38=5/2;
 7//1,2,3,16;
 1/18=20,19=15,26=3/3(-5);
 2/9=110/2;
 6/7=2,8=2,9=2,10=2,19=2,28=1/1;
 99/9=1/99;
 Leave Link    1 at Thu Aug  7 18:41:52 2025, MaxMem=           0 cpu:               0.0 elap:               0.0
 (Enter /Applications/g16/l101.exe)
 ------------------------------
 Gaussian input prepared by ASE
 ------------------------------
 Symbolic Z-matrix:
 Charge =  1 Multiplicity = 1
 N                     3.26138  -0.17795  -0.00026 
 C                     2.16825   0.1978   -0.0001 
 C                     0.77172   0.63135  -0.00002 
 C                    -0.14817  -0.61537   0.00005 
 C                    -1.55931  -0.25213   0.00014 
 N                    -2.67851   0.04159   0.00025 
 H                     0.03617  -1.23636  -0.88395 
 H                     0.03626  -1.23634   0.88405 
 H                     0.58708   1.24681  -0.88559 
 H                     0.58719   1.24682   0.88556 
 Li                   -4.14296   0.36626  -0.00011 
 
 The following ModRedundant input section has been read:
 B       6      11 F                                                           
 
 ITRead=  0  0  0  0  0  0  0  0  0  0  0
 MicOpt= -1 -1 -1 -1 -1 -1 -1 -1 -1 -1 -1
 NAtoms=     11 NQM=       11 NQMF=       0 NMMI=      0 NMMIF=      0
                NMic=       0 NMicF=      0.
                    Isotopes and Nuclear Properties:
 (Nuclear quadrupole moments (NQMom) in fm**2, nuclear magnetic moments (NMagM)
  in nuclear magnetons)

  Atom         1           2           3           4           5           6           7           8           9          10
 IAtWgt=          14          12          12          12          12          14           1           1           1           1
 AtmWgt=  14.0030740  12.0000000  12.0000000  12.0000000  12.0000000  14.0030740   1.0078250   1.0078250   1.0078250   1.0078250
 NucSpn=           2           0           0           0           0           2           1           1           1           1
 AtZEff=  -0.0000000  -0.0000000  -0.0000000  -0.0000000  -0.0000000  -0.0000000  -0.0000000  -0.0000000  -0.0000000  -0.0000000
 NQMom=    2.0440000   0.0000000   0.0000000   0.0000000   0.0000000   2.0440000   0.0000000   0.0000000   0.0000000   0.0000000
 NMagM=    0.4037610   0.0000000   0.0000000   0.0000000   0.0000000   0.4037610   2.7928460   2.7928460   2.7928460   2.7928460
 AtZNuc=   7.0000000   6.0000000   6.0000000   6.0000000   6.0000000   7.0000000   1.0000000   1.0000000   1.0000000   1.0000000

  Atom        11
 IAtWgt=           7
 AtmWgt=   7.0160045
 NucSpn=           3
 AtZEff=  -0.0000000
 NQMom=   -4.0100000
 NMagM=    3.2564240
 AtZNuc=   3.0000000
 Leave Link  101 at Thu Aug  7 18:41:52 2025, MaxMem=   104857600 cpu:               0.0 elap:               0.1
 (Enter /Applications/g16/l103.exe)

 GradGradGradGradGradGradGradGradGradGradGradGradGradGradGradGradGradGrad
 Berny optimization.
 Initialization pass.
                           ----------------------------
                           !    Initial Parameters    !
                           ! (Angstroms and Degrees)  !
 --------------------------                            --------------------------
 ! Name  Definition              Value          Derivative Info.                !
 --------------------------------------------------------------------------------
 ! R1    R(1,2)                  1.1559         estimate D2E/DX2                !
 ! R2    R(2,3)                  1.4623         estimate D2E/DX2                !
 ! R3    R(3,4)                  1.5493         estimate D2E/DX2                !
 ! R4    R(3,9)                  1.0941         estimate D2E/DX2                !
 ! R5    R(3,10)                 1.0941         estimate D2E/DX2                !
 ! R6    R(4,5)                  1.4571         estimate D2E/DX2                !
 ! R7    R(4,7)                  1.0959         estimate D2E/DX2                !
 ! R8    R(4,8)                  1.0959         estimate D2E/DX2                !
 ! R9    R(5,6)                  1.1571         estimate D2E/DX2                !
 ! R10   R(6,11)                 1.5            Frozen                          !
 ! A1    A(2,3,4)              109.1752         estimate D2E/DX2                !
 ! A2    A(2,3,9)              109.1414         estimate D2E/DX2                !
 ! A3    A(2,3,10)             109.1416         estimate D2E/DX2                !
 ! A4    A(4,3,9)              110.6389         estimate D2E/DX2                !
 ! A5    A(4,3,10)             110.6388         estimate D2E/DX2                !
 ! A6    A(9,3,10)             108.0721         estimate D2E/DX2                !
 ! A7    A(3,4,5)              111.9869         estimate D2E/DX2                !
 ! A8    A(3,4,7)              110.8583         estimate D2E/DX2                !
 ! A9    A(3,4,8)              110.8583         estimate D2E/DX2                !
 ! A10   A(5,4,7)              107.7095         estimate D2E/DX2                !
 ! A11   A(5,4,8)              107.708          estimate D2E/DX2                !
 ! A12   A(7,4,8)              107.5331         estimate D2E/DX2                !
 ! A13   L(1,2,3,7,-1)         178.4189         estimate D2E/DX2                !
 ! A14   L(4,5,6,10,-1)        179.7531         estimate D2E/DX2                !
 ! A15   L(5,6,11,9,-1)        181.9968         estimate D2E/DX2                !
 ! A16   L(1,2,3,7,-2)         179.1579         estimate D2E/DX2                !
 ! A17   L(4,5,6,10,-2)        179.8631         estimate D2E/DX2                !
 ! A18   L(5,6,11,9,-2)        178.427          estimate D2E/DX2                !
 ! D1    D(2,3,4,5)            179.9996         estimate D2E/DX2                !
 ! D2    D(2,3,4,7)            -59.6756         estimate D2E/DX2                !
 ! D3    D(2,3,4,8)             59.6767         estimate D2E/DX2                !
 ! D4    D(9,3,4,5)            -59.8712         estimate D2E/DX2                !
 ! D5    D(9,3,4,7)             60.4536         estimate D2E/DX2                !
 ! D6    D(9,3,4,8)            179.8059         estimate D2E/DX2                !
 ! D7    D(10,3,4,5)            59.8702         estimate D2E/DX2                !
 ! D8    D(10,3,4,7)          -179.805          estimate D2E/DX2                !
 ! D9    D(10,3,4,8)           -60.4527         estimate D2E/DX2                !
 --------------------------------------------------------------------------------
 Trust Radius=3.00D-01 FncErr=1.00D-07 GrdErr=1.00D-06 EigMax=2.50D+02 EigMin=1.00D-04
 Number of steps in this run=     47 maximum allowed number of steps=    100.
 GradGradGradGradGradGradGradGradGradGradGradGradGradGradGradGradGradGrad

 Leave Link  103 at Thu Aug  7 18:41:52 2025, MaxMem=   104857600 cpu:               0.0 elap:               0.0
 (Enter /Applications/g16/l202.exe)
                          Input orientation:                          
 ---------------------------------------------------------------------
 Center     Atomic      Atomic             Coordinates (Angstroms)
 Number     Number       Type             X           Y           Z
 ---------------------------------------------------------------------
      1          7           0        3.261377   -0.177950   -0.000257
      2          6           0        2.168255    0.197798   -0.000099
      3          6           0        0.771723    0.631345   -0.000018
      4          6           0       -0.148168   -0.615365    0.000048
      5          6           0       -1.559306   -0.252126    0.000139
      6          7           0       -2.678514    0.041587    0.000246
      7          1           0        0.036165   -1.236365   -0.883952
      8          1           0        0.036258   -1.236341    0.884046
      9          1           0        0.587083    1.246809   -0.885586
     10          1           0        0.587187    1.246824    0.885560
     11          3           0       -4.142956    0.366256   -0.000113
 ---------------------------------------------------------------------
                    Distance matrix (angstroms):
                    1          2          3          4          5
     1  N    0.000000
     2  C    1.155899   0.000000
     3  C    2.617888   1.462281   0.000000
     4  C    3.437489   2.455005   1.549350   0.000000
     5  C    4.821254   3.754616   2.492833   1.457139   0.000000
     6  N    5.943947   4.849286   3.500279   2.614237   1.157106
     7  H    3.507585   2.717320   2.193337   1.095936   2.072648
     8  H    3.507645   2.717329   2.193337   1.095936   2.072630
     9  H    3.156833   2.093948   1.094129   2.189208   2.763748
    10  H    3.156888   2.093949   1.094128   2.189207   2.763739
    11  Li   7.424305   6.313459   4.921823   4.113625   2.656622
                    6          7          8          9         10
     6  N    0.000000
     7  H    3.128010   0.000000
     8  H    3.127969   1.767998   0.000000
     9  H    3.591849   2.543554   3.098554   0.000000
    10  H    3.591821   3.098552   2.543547   1.771146   0.000000
    11  Li   1.500000   4.562304   4.562443   4.892106   4.892246
                   11
    11  Li   0.000000
 Stoichiometry    C4H4LiN2(1+)
 Framework group  C1[X(C4H4LiN2)]
 Deg. of freedom    27
 Full point group                 C1      NOp   1
 Largest Abelian subgroup         C1      NOp   1
 Largest concise Abelian subgroup C1      NOp   1
                         Standard orientation:                         
 ---------------------------------------------------------------------
 Center     Atomic      Atomic             Coordinates (Angstroms)
 Number     Number       Type             X           Y           Z
 ---------------------------------------------------------------------
      1          7           0        3.254543   -0.182408   -0.000259
      2          6           0        2.162104    0.195321   -0.000101
      3          6           0        0.766360    0.631400   -0.000020
      4          6           0       -0.155790   -0.613641    0.000046
      5          6           0       -1.566267   -0.247844    0.000137
      6          7           0       -2.684940    0.047898    0.000244
      7          1           0        0.027417   -1.234974   -0.883954
      8          1           0        0.027510   -1.234950    0.884044
      9          1           0        0.582837    1.247197   -0.885588
     10          1           0        0.582941    1.247212    0.885558
     11          3           0       -4.148791    0.375222   -0.000115
 ---------------------------------------------------------------------
 Rotational constants (GHZ):          23.6955991           1.0835092           1.0497147
 Leave Link  202 at Thu Aug  7 18:41:52 2025, MaxMem=   104857600 cpu:               0.0 elap:               0.0
 (Enter /Applications/g16/l301.exe)
 Standard basis: 6-31G(d) (6D, 7F)
 Ernie: Thresh=  0.10000D-02 Tol=  0.10000D-05 Strict=F.
 There are   113 symmetry adapted cartesian basis functions of A   symmetry.
 There are   113 symmetry adapted basis functions of A   symmetry.
   113 basis functions,   212 primitive gaussians,   113 cartesian basis functions
    22 alpha electrons       22 beta electrons
       nuclear repulsion energy       198.6367630321 Hartrees.
 IExCor= 4639 DFT=T Ex+Corr=wB97XD ExCW=0 ScaHFX=  1.000000
 ScaDFX=  1.000000  1.000000  1.000000  1.000000 ScalE2=  1.000000  1.000000
 IRadAn=      5 IRanWt=     -1 IRanGd=            0 ICorTp=0 IEmpDi=121
 HFx  wShort=  0.000000 wLong=  0.200000 cFull=  0.222036 cShort=  0.000000 cLong=  0.777964
 DFx  wShort=  0.000000 wLong=  0.200000 cFull=  0.000000 cShort=  0.000000 cLong=  1.000000
 NAtoms=   11 NActive=   11 NUniq=   11 SFac= 1.00D+00 NAtFMM=   60 NAOKFM=F Big=F
 Integral buffers will be    131072 words long.
 Raffenetti 2 integral format.
 Two-electron integral symmetry is turned on.
 R6Disp:  Grimme-D2 Dispersion energy=       -0.0048569321 Hartrees.
 Nuclear repulsion after empirical dispersion term =      198.6319061000 Hartrees.
 Leave Link  301 at Thu Aug  7 18:41:52 2025, MaxMem=   104857600 cpu:               0.0 elap:               0.0
 (Enter /Applications/g16/l302.exe)
 NPDir=0 NMtPBC=     1 NCelOv=     1 NCel=       1 NClECP=     1 NCelD=      1
         NCelK=      1 NCelE2=     1 NClLst=     1 CellRange=     0.0.
 One-electron integrals computed using PRISM.
 One-electron integral symmetry used in STVInt
 NBasis=   113 RedAO= T EigKep=  8.04D-04  NBF=   113
 NBsUse=   113 1.00D-06 EigRej= -1.00D+00 NBFU=   113
 Precomputing XC quadrature grid using
 IXCGrd= 4 IRadAn=           5 IRanWt=          -1 IRanGd=           0 AccXCQ= 0.00D+00.
 Generated NRdTot=       0 NPtTot=           0 NUsed=           0 NTot=          32
 NSgBfM=   113   113   113   113   113 MxSgAt=    11 MxSgA2=    11.
 Leave Link  302 at Thu Aug  7 18:41:52 2025, MaxMem=   104857600 cpu:               0.1 elap:               0.1
 (Enter /Applications/g16/l303.exe)
 DipDrv:  MaxL=1.
 Leave Link  303 at Thu Aug  7 18:41:52 2025, MaxMem=   104857600 cpu:               0.0 elap:               0.0
 (Enter /Applications/g16/l401.exe)
 ExpMin= 3.60D-02 ExpMax= 4.17D+03 ExpMxC= 6.27D+02 IAcc=3 IRadAn=         5 AccDes= 0.00D+00
 Harris functional with IExCor= 4639 and IRadAn=       5 diagonalized for initial guess.
 HarFok:  IExCor= 4639 AccDes= 0.00D+00 IRadAn=         5 IDoV= 1 UseB2=F ITyADJ=14
 ICtDFT=  3500011 ScaDFX=  1.000000  1.000000  1.000000  1.000000
 FoFCou: FMM=F IPFlag=           0 FMFlag=      100000 FMFlg1=           0
         NFxFlg=           0 DoJE=T BraDBF=F KetDBF=T FulRan=T
         wScrn=  0.000000 ICntrl=       500 IOpCl=  0 I1Cent=   200000004 NGrid=           0
         NMat0=    1 NMatS0=      1 NMatT0=    0 NMatD0=    1 NMtDS0=    0 NMtDT0=    0
 Petite list used in FoFCou.
 Harris En= -259.762339955585    
 JPrj=0 DoOrth=F DoCkMO=F.
 Leave Link  401 at Thu Aug  7 18:41:52 2025, MaxMem=   104857600 cpu:               0.6 elap:               0.6
 (Enter /Applications/g16/l502.exe)
 Keep R1 ints in memory in canonical form, NReq=43174005.
 FoFCou: FMM=F IPFlag=           0 FMFlag=           0 FMFlg1=           0
         NFxFlg=           0 DoJE=F BraDBF=F KetDBF=F FulRan=T
         wScrn=  0.000000 ICntrl=       600 IOpCl=  0 I1Cent=           0 NGrid=           0
         NMat0=    1 NMatS0=   6441 NMatT0=    0 NMatD0=    1 NMtDS0=    0 NMtDT0=    0
 Symmetry not used in FoFCou.
 Two-electron integral symmetry not used.
 Closed shell SCF:
 Using DIIS extrapolation, IDIIS=  1040.
 NGot=   104857600 LenX=    63336875 LenY=    63323665
 Requested convergence on RMS density matrix=1.00D-08 within 128 cycles.
 Requested convergence on MAX density matrix=1.00D-06.
 Requested convergence on             energy=1.00D-06.
 No special actions if energy rises.

 Cycle   1  Pass 1  IDiag  1:
 E= -271.429296437705    
 DIIS: error= 6.07D-02 at cycle   1 NSaved=   1.
 NSaved= 1 IEnMin= 1 EnMin= -271.429296437705     IErMin= 1 ErrMin= 6.07D-02
 ErrMax= 6.07D-02  0.00D+00 EMaxC= 1.00D-01 BMatC= 2.65D-01 BMatP= 2.65D-01
 IDIUse=3 WtCom= 3.93D-01 WtEn= 6.07D-01
 Coeff-Com:  0.100D+01
 Coeff-En:   0.100D+01
 Coeff:      0.100D+01
 Gap=     0.417 Goal=   None    Shift=    0.000
 GapD=    0.417 DampG=2.000 DampE=0.500 DampFc=1.0000 IDamp=-1.
 RMSDP=6.14D-03 MaxDP=1.09D-01              OVMax= 1.28D-01

 Cycle   2  Pass 1  IDiag  1:
 E= -271.438289271962     Delta-E=       -0.008992834257 Rises=F Damp=F
 DIIS: error= 2.87D-02 at cycle   2 NSaved=   2.
 NSaved= 2 IEnMin= 2 EnMin= -271.438289271962     IErMin= 2 ErrMin= 2.87D-02
 ErrMax= 2.87D-02  0.00D+00 EMaxC= 1.00D-01 BMatC= 9.37D-02 BMatP= 2.65D-01
 IDIUse=3 WtCom= 7.13D-01 WtEn= 2.87D-01
 Coeff-Com:  0.321D+00 0.679D+00
 Coeff-En:   0.464D+00 0.536D+00
 Coeff:      0.362D+00 0.638D+00
 Gap=     0.388 Goal=   None    Shift=    0.000
 RMSDP=2.99D-03 MaxDP=8.43D-02 DE=-8.99D-03 OVMax= 1.19D-01

 Cycle   3  Pass 1  IDiag  1:
 E= -271.480780455014     Delta-E=       -0.042491183052 Rises=F Damp=F
 DIIS: error= 1.83D-02 at cycle   3 NSaved=   3.
 NSaved= 3 IEnMin= 3 EnMin= -271.480780455014     IErMin= 3 ErrMin= 1.83D-02
 ErrMax= 1.83D-02  0.00D+00 EMaxC= 1.00D-01 BMatC= 4.26D-02 BMatP= 9.37D-02
 IDIUse=3 WtCom= 8.17D-01 WtEn= 1.83D-01
 Coeff-Com:  0.249D-01 0.400D+00 0.576D+00
 Coeff-En:   0.000D+00 0.339D+00 0.661D+00
 Coeff:      0.203D-01 0.389D+00 0.591D+00
 Gap=     0.398 Goal=   None    Shift=    0.000
 RMSDP=1.29D-03 MaxDP=4.17D-02 DE=-4.25D-02 OVMax= 5.62D-02

 Cycle   4  Pass 1  IDiag  1:
 E= -271.515534104875     Delta-E=       -0.034753649862 Rises=F Damp=F
 DIIS: error= 1.44D-03 at cycle   4 NSaved=   4.
 NSaved= 4 IEnMin= 4 EnMin= -271.515534104875     IErMin= 4 ErrMin= 1.44D-03
 ErrMax= 1.44D-03  0.00D+00 EMaxC= 1.00D-01 BMatC= 4.64D-04 BMatP= 4.26D-02
 IDIUse=3 WtCom= 9.86D-01 WtEn= 1.44D-02
 Coeff-Com:  0.534D-03 0.111D+00 0.207D+00 0.682D+00
 Coeff-En:   0.000D+00 0.000D+00 0.000D+00 0.100D+01
 Coeff:      0.526D-03 0.109D+00 0.204D+00 0.687D+00
 Gap=     0.394 Goal=   None    Shift=    0.000
 RMSDP=2.59D-04 MaxDP=8.40D-03 DE=-3.48D-02 OVMax= 6.29D-03

 Cycle   5  Pass 1  IDiag  1:
 E= -271.515874784439     Delta-E=       -0.000340679564 Rises=F Damp=F
 DIIS: error= 8.25D-04 at cycle   5 NSaved=   5.
 NSaved= 5 IEnMin= 5 EnMin= -271.515874784439     IErMin= 5 ErrMin= 8.25D-04
 ErrMax= 8.25D-04  0.00D+00 EMaxC= 1.00D-01 BMatC= 7.53D-05 BMatP= 4.64D-04
 IDIUse=3 WtCom= 9.92D-01 WtEn= 8.25D-03
 Coeff-Com: -0.801D-03 0.323D-01 0.703D-01 0.361D+00 0.537D+00
 Coeff-En:   0.000D+00 0.000D+00 0.000D+00 0.138D-01 0.986D+00
 Coeff:     -0.795D-03 0.320D-01 0.698D-01 0.358D+00 0.541D+00
 Gap=     0.394 Goal=   None    Shift=    0.000
 RMSDP=7.07D-05 MaxDP=1.93D-03 DE=-3.41D-04 OVMax= 3.38D-03

 Cycle   6  Pass 1  IDiag  1:
 E= -271.515933374744     Delta-E=       -0.000058590305 Rises=F Damp=F
 DIIS: error= 2.84D-04 at cycle   6 NSaved=   6.
 NSaved= 6 IEnMin= 6 EnMin= -271.515933374744     IErMin= 6 ErrMin= 2.84D-04
 ErrMax= 2.84D-04  0.00D+00 EMaxC= 1.00D-01 BMatC= 8.21D-06 BMatP= 7.53D-05
 IDIUse=3 WtCom= 9.97D-01 WtEn= 2.84D-03
 Coeff-Com: -0.437D-03-0.681D-02-0.664D-02 0.417D-01 0.267D+00 0.705D+00
 Coeff-En:   0.000D+00 0.000D+00 0.000D+00 0.000D+00 0.380D-01 0.962D+00
 Coeff:     -0.436D-03-0.679D-02-0.662D-02 0.416D-01 0.266D+00 0.706D+00
 Gap=     0.395 Goal=   None    Shift=    0.000
 RMSDP=4.28D-05 MaxDP=1.79D-03 DE=-5.86D-05 OVMax= 8.17D-04

 Cycle   7  Pass 1  IDiag  1:
 E= -271.515940653884     Delta-E=       -0.000007279140 Rises=F Damp=F
 DIIS: error= 4.27D-05 at cycle   7 NSaved=   7.
 NSaved= 7 IEnMin= 7 EnMin= -271.515940653884     IErMin= 7 ErrMin= 4.27D-05
 ErrMax= 4.27D-05  0.00D+00 EMaxC= 1.00D-01 BMatC= 1.98D-07 BMatP= 8.21D-06
 IDIUse=1 WtCom= 1.00D+00 WtEn= 0.00D+00
 Coeff-Com: -0.453D-05-0.415D-02-0.641D-02-0.150D-01 0.313D-01 0.173D+00
 Coeff-Com:  0.821D+00
 Coeff:     -0.453D-05-0.415D-02-0.641D-02-0.150D-01 0.313D-01 0.173D+00
 Coeff:      0.821D+00
 Gap=     0.395 Goal=   None    Shift=    0.000
 RMSDP=9.46D-06 MaxDP=3.67D-04 DE=-7.28D-06 OVMax= 1.38D-04

 Cycle   8  Pass 1  IDiag  1:
 E= -271.515940896772     Delta-E=       -0.000000242888 Rises=F Damp=F
 DIIS: error= 1.01D-05 at cycle   8 NSaved=   8.
 NSaved= 8 IEnMin= 8 EnMin= -271.515940896772     IErMin= 8 ErrMin= 1.01D-05
 ErrMax= 1.01D-05  0.00D+00 EMaxC= 1.00D-01 BMatC= 1.53D-08 BMatP= 1.98D-07
 IDIUse=1 WtCom= 1.00D+00 WtEn= 0.00D+00
 Coeff-Com:  0.178D-05-0.572D-03-0.110D-02-0.722D-02-0.135D-01-0.110D-01
 Coeff-Com:  0.211D+00 0.822D+00
 Coeff:      0.178D-05-0.572D-03-0.110D-02-0.722D-02-0.135D-01-0.110D-01
 Coeff:      0.211D+00 0.822D+00
 Gap=     0.395 Goal=   None    Shift=    0.000
 RMSDP=2.81D-06 MaxDP=1.11D-04 DE=-2.43D-07 OVMax= 4.08D-05

 Cycle   9  Pass 1  IDiag  1:
 E= -271.515940917882     Delta-E=       -0.000000021109 Rises=F Damp=F
 DIIS: error= 2.10D-06 at cycle   9 NSaved=   9.
 NSaved= 9 IEnMin= 9 EnMin= -271.515940917882     IErMin= 9 ErrMin= 2.10D-06
 ErrMax= 2.10D-06  0.00D+00 EMaxC= 1.00D-01 BMatC= 5.37D-10 BMatP= 1.53D-08
 IDIUse=1 WtCom= 1.00D+00 WtEn= 0.00D+00
 Coeff-Com:  0.100D-06 0.153D-03 0.210D-03-0.113D-03-0.341D-02-0.101D-01
 Coeff-Com: -0.251D-01 0.773D-01 0.961D+00
 Coeff:      0.100D-06 0.153D-03 0.210D-03-0.113D-03-0.341D-02-0.101D-01
 Coeff:     -0.251D-01 0.773D-01 0.961D+00
 Gap=     0.395 Goal=   None    Shift=    0.000
 RMSDP=5.90D-07 MaxDP=1.59D-05 DE=-2.11D-08 OVMax= 1.40D-05

 Cycle  10  Pass 1  IDiag  1:
 E= -271.515940919107     Delta-E=       -0.000000001225 Rises=F Damp=F
 DIIS: error= 8.38D-07 at cycle  10 NSaved=  10.
 NSaved=10 IEnMin=10 EnMin= -271.515940919107     IErMin=10 ErrMin= 8.38D-07
 ErrMax= 8.38D-07  0.00D+00 EMaxC= 1.00D-01 BMatC= 5.47D-11 BMatP= 5.37D-10
 IDIUse=1 WtCom= 1.00D+00 WtEn= 0.00D+00
 Coeff-Com:  0.124D-05 0.722D-04 0.115D-03 0.402D-03 0.339D-04-0.138D-02
 Coeff-Com: -0.165D-01-0.320D-01 0.171D+00 0.878D+00
 Coeff:      0.124D-05 0.722D-04 0.115D-03 0.402D-03 0.339D-04-0.138D-02
 Coeff:     -0.165D-01-0.320D-01 0.171D+00 0.878D+00
 Gap=     0.395 Goal=   None    Shift=    0.000
 RMSDP=1.49D-07 MaxDP=3.06D-06 DE=-1.23D-09 OVMax= 5.77D-06

 Cycle  11  Pass 1  IDiag  1:
 E= -271.515940919239     Delta-E=       -0.000000000133 Rises=F Damp=F
 DIIS: error= 2.66D-07 at cycle  11 NSaved=  11.
 NSaved=11 IEnMin=11 EnMin= -271.515940919239     IErMin=11 ErrMin= 2.66D-07
 ErrMax= 2.66D-07  0.00D+00 EMaxC= 1.00D-01 BMatC= 5.08D-12 BMatP= 5.47D-11
 IDIUse=1 WtCom= 1.00D+00 WtEn= 0.00D+00
 Coeff-Com:  0.596D-07-0.948D-05-0.117D-04 0.205D-04 0.240D-03 0.754D-03
 Coeff-Com:  0.197D-02-0.618D-02-0.911D-01 0.259D-01 0.107D+01
 Coeff:      0.596D-07-0.948D-05-0.117D-04 0.205D-04 0.240D-03 0.754D-03
 Coeff:      0.197D-02-0.618D-02-0.911D-01 0.259D-01 0.107D+01
 Gap=     0.395 Goal=   None    Shift=    0.000
 RMSDP=5.50D-08 MaxDP=1.53D-06 DE=-1.33D-10 OVMax= 2.87D-06

 Cycle  12  Pass 1  IDiag  1:
 E= -271.515940919257     Delta-E=       -0.000000000018 Rises=F Damp=F
 DIIS: error= 9.70D-08 at cycle  12 NSaved=  12.
 NSaved=12 IEnMin=12 EnMin= -271.515940919257     IErMin=12 ErrMin= 9.70D-08
 ErrMax= 9.70D-08  0.00D+00 EMaxC= 1.00D-01 BMatC= 3.38D-13 BMatP= 5.08D-12
 IDIUse=1 WtCom= 1.00D+00 WtEn= 0.00D+00
 Coeff-Com: -0.129D-06-0.385D-05-0.563D-05-0.269D-04-0.222D-04 0.650D-05
 Coeff-Com:  0.662D-03 0.280D-02 0.197D-02-0.742D-01-0.186D+00 0.125D+01
 Coeff:     -0.129D-06-0.385D-05-0.563D-05-0.269D-04-0.222D-04 0.650D-05
 Coeff:      0.662D-03 0.280D-02 0.197D-02-0.742D-01-0.186D+00 0.125D+01
 Gap=     0.395 Goal=   None    Shift=    0.000
 RMSDP=1.84D-08 MaxDP=5.16D-07 DE=-1.80D-11 OVMax= 1.08D-06

 Cycle  13  Pass 1  IDiag  1:
 E= -271.515940919260     Delta-E=       -0.000000000002 Rises=F Damp=F
 DIIS: error= 1.18D-08 at cycle  13 NSaved=  13.
 NSaved=13 IEnMin=13 EnMin= -271.515940919260     IErMin=13 ErrMin= 1.18D-08
 ErrMax= 1.18D-08  0.00D+00 EMaxC= 1.00D-01 BMatC= 1.95D-14 BMatP= 3.38D-13
 IDIUse=1 WtCom= 1.00D+00 WtEn= 0.00D+00
 Coeff-Com: -0.309D-07-0.422D-06-0.907D-06-0.398D-05-0.493D-05-0.158D-04
 Coeff-Com:  0.249D-04 0.546D-03 0.359D-02-0.921D-02-0.598D-01 0.139D+00
 Coeff-Com:  0.926D+00
 Coeff:     -0.309D-07-0.422D-06-0.907D-06-0.398D-05-0.493D-05-0.158D-04
 Coeff:      0.249D-04 0.546D-03 0.359D-02-0.921D-02-0.598D-01 0.139D+00
 Coeff:      0.926D+00
 Gap=     0.395 Goal=   None    Shift=    0.000
 RMSDP=2.68D-09 MaxDP=4.92D-08 DE=-2.27D-12 OVMax= 1.24D-07

 SCF Done:  E(RwB97XD) =  -271.515940919     A.U. after   13 cycles
            NFock= 13  Conv=0.27D-08     -V/T= 2.0078
 KE= 2.694122581444D+02 PE=-1.020597333196D+03 EE= 2.810372280322D+02
 Leave Link  502 at Thu Aug  7 18:42:01 2025, MaxMem=   104857600 cpu:               8.1 elap:               8.2
 (Enter /Applications/g16/l601.exe)
 Copying SCF densities to generalized density rwf, IOpCl= 0 IROHF=0.

 **********************************************************************

            Population analysis using the SCF Density.

 **********************************************************************

 Orbital symmetries:
       Occupied  (A) (A) (A) (A) (A) (A) (A) (A) (A) (A) (A) (A)
                 (A) (A) (A) (A) (A) (A) (A) (A) (A) (A)
       Virtual   (A) (A) (A) (A) (A) (A) (A) (A) (A) (A) (A) (A)
                 (A) (A) (A) (A) (A) (A) (A) (A) (A) (A) (A) (A)
                 (A) (A) (A) (A) (A) (A) (A) (A) (A) (A) (A) (A)
                 (A) (A) (A) (A) (A) (A) (A) (A) (A) (A) (A) (A)
                 (A) (A) (A) (A) (A) (A) (A) (A) (A) (A) (A) (A)
                 (A) (A) (A) (A) (A) (A) (A) (A) (A) (A) (A) (A)
                 (A) (A) (A) (A) (A) (A) (A) (A) (A) (A) (A) (A)
                 (A) (A) (A) (A) (A) (A) (A)
 The electronic state is 1-A.
 Alpha  occ. eigenvalues --  -14.67287 -14.58085 -10.59473 -10.53756 -10.51530
 Alpha  occ. eigenvalues --  -10.46668  -2.31388  -1.24556  -1.13683  -1.09883
 Alpha  occ. eigenvalues --   -0.98183  -0.81200  -0.76481  -0.76097  -0.72790
 Alpha  occ. eigenvalues --   -0.69711  -0.68129  -0.64372  -0.63204  -0.56630
 Alpha  occ. eigenvalues --   -0.53972  -0.53592
 Alpha virt. eigenvalues --   -0.14089  -0.13524  -0.13379  -0.06988  -0.06430
 Alpha virt. eigenvalues --   -0.06264  -0.01522  -0.00796   0.04137   0.04740
 Alpha virt. eigenvalues --    0.05019   0.05985   0.07908   0.09270   0.10173
 Alpha virt. eigenvalues --    0.12804   0.14432   0.14436   0.22174   0.28057
 Alpha virt. eigenvalues --    0.33521   0.36462   0.36462   0.38974   0.41586
 Alpha virt. eigenvalues --    0.47082   0.47327   0.48466   0.51805   0.52954
 Alpha virt. eigenvalues --    0.54191   0.59987   0.60010   0.63916   0.65668
 Alpha virt. eigenvalues --    0.69694   0.74216   0.75617   0.76944   0.77560
 Alpha virt. eigenvalues --    0.80775   0.83390   0.84871   0.85907   0.90543
 Alpha virt. eigenvalues --    0.93741   0.95975   1.00926   1.03567   1.09705
 Alpha virt. eigenvalues --    1.14033   1.29385   1.30350   1.31527   1.37468
 Alpha virt. eigenvalues --    1.38660   1.42208   1.45157   1.47570   1.50911
 Alpha virt. eigenvalues --    1.61811   1.64858   1.68983   1.76681   1.77453
 Alpha virt. eigenvalues --    1.81296   1.85384   1.88228   1.88903   1.91287
 Alpha virt. eigenvalues --    1.93908   1.97300   2.12993   2.13166   2.16841
 Alpha virt. eigenvalues --    2.25787   2.35744   2.59428   2.66121   2.72477
 Alpha virt. eigenvalues --    2.75569   2.76941   2.82424   3.10119   3.22848
 Alpha virt. eigenvalues --    3.99478   4.02709   4.08389   4.17019   4.46753
 Alpha virt. eigenvalues --    4.68468
          Condensed to atoms (all electrons):
               1          2          3          4          5          6
     1  N    6.622542   0.856058  -0.080944  -0.000701  -0.000060  -0.000000
     2  C    0.856058   4.603541   0.278464  -0.038470   0.003879  -0.000028
     3  C   -0.080944   0.278464   5.227252   0.302068  -0.032664  -0.001246
     4  C   -0.000701  -0.038470   0.302068   5.258512   0.285615  -0.065917
     5  C   -0.000060   0.003879  -0.032664   0.285615   4.743220   0.453713
     6  N   -0.000000  -0.000028  -0.001246  -0.065917   0.453713   7.012545
     7  H    0.000316  -0.001681  -0.025529   0.374143  -0.032345  -0.001358
     8  H    0.000316  -0.001681  -0.025528   0.374135  -0.032341  -0.001357
     9  H   -0.000555  -0.026829   0.377515  -0.031855  -0.003574   0.000150
    10  H   -0.000554  -0.026827   0.377511  -0.031853  -0.003576   0.000150
    11  Li  -0.000009  -0.000121   0.000711  -0.001919  -0.082557   0.273711
               7          8          9         10         11
     1  N    0.000316   0.000316  -0.000555  -0.000554  -0.000009
     2  C   -0.001681  -0.001681  -0.026829  -0.026827  -0.000121
     3  C   -0.025529  -0.025528   0.377515   0.377511   0.000711
     4  C    0.374143   0.374135  -0.031855  -0.031853  -0.001919
     5  C   -0.032345  -0.032341  -0.003574  -0.003576  -0.082557
     6  N   -0.001358  -0.001357   0.000150   0.000150   0.273711
     7  H    0.400683  -0.016129  -0.002217   0.002607   0.000369
     8  H   -0.016129   0.400683   0.002607  -0.002217   0.000368
     9  H   -0.002217   0.002607   0.438132  -0.020239   0.000472
    10  H    0.002607  -0.002217  -0.020239   0.438131   0.000472
    11  Li   0.000369   0.000368   0.000472   0.000472   2.109827
 Mulliken charges:
               1
     1  N   -0.396410
     2  C    0.353696
     3  C   -0.397610
     4  C   -0.423759
     5  C    0.700690
     6  N   -0.670362
     7  H    0.301142
     8  H    0.301145
     9  H    0.266394
    10  H    0.266396
    11  Li   0.698677
 Sum of Mulliken charges =   1.00000
 Mulliken charges with hydrogens summed into heavy atoms:
               1
     1  N   -0.396410
     2  C    0.353696
     3  C    0.135181
     4  C    0.178528
     5  C    0.700690
     6  N   -0.670362
    11  Li   0.698677
 Electronic spatial extent (au):  <R**2>=            888.4120
 Charge=              1.0000 electrons
 Dipole moment (field-independent basis, Debye):
    X=            -15.6535    Y=              1.2985    Z=             -0.0005  Tot=             15.7072
 Quadrupole moment (field-independent basis, Debye-Ang):
   XX=             13.7818   YY=            -30.4482   ZZ=            -32.3551
   XY=             -3.6242   XZ=              0.0047   YZ=             -0.0005
 Traceless Quadrupole moment (field-independent basis, Debye-Ang):
   XX=             30.1223   YY=            -14.1077   ZZ=            -16.0146
   XY=             -3.6242   XZ=              0.0047   YZ=             -0.0005
 Octapole moment (field-independent basis, Debye-Ang**2):
  XXX=           -336.0232  YYY=              1.2131  ZZZ=             -0.0006  XYY=             -8.1641
  XXY=             33.1615  XXZ=             -0.0100  XZZ=             -5.6125  YZZ=              0.1507
  YYZ=             -0.0003  XYZ=              0.0008
 Hexadecapole moment (field-independent basis, Debye-Ang**3):
 XXXX=             82.7496 YYYY=            -78.8182 ZZZZ=            -41.4738 XXXY=           -109.2452
 XXXZ=              0.0981 YYYX=             -6.9083 YYYZ=              0.0005 ZZZX=              0.0318
 ZZZY=              0.0003 XXYY=           -161.9532 XXZZ=           -166.5360 YYZZ=            -16.4900
 XXYZ=             -0.0052 YYXZ=              0.0112 ZZXY=             -1.7125
 N-N= 1.986319061000D+02 E-N=-1.020597333070D+03  KE= 2.694122581444D+02
 No NMR shielding tensors so no spin-rotation constants.
 Leave Link  601 at Thu Aug  7 18:42:01 2025, MaxMem=   104857600 cpu:               0.0 elap:               0.0
 (Enter /Applications/g16/l701.exe)
 ... and contract with generalized density number  0.
 Compute integral first derivatives.
 R6Disp: Adding Grimme-D2 dispersion energy 1st derivatives to the gradient.
 Leave Link  701 at Thu Aug  7 18:42:01 2025, MaxMem=   104857600 cpu:               0.0 elap:               0.0
 (Enter /Applications/g16/l702.exe)
 L702 exits ... SP integral derivatives will be done elsewhere.
 Leave Link  702 at Thu Aug  7 18:42:01 2025, MaxMem=   104857600 cpu:               0.0 elap:               0.0
 (Enter /Applications/g16/l703.exe)
 Integral derivatives from FoFJK, PRISM(SPDF).
 Compute integral first derivatives, UseDBF=F ICtDFT=           0.
 Calling FoFJK, ICntrl=      2127 FMM=F ISym2X=0 I1Cent= 0 IOpClX= 0 NMat=1 NMatS=1 NMatT=0.
 FoFJK:  IHMeth= 1 ICntrl=    2127 DoSepK=T KAlg= 0 I1Cent=           0 FoldK=F
 IRaf=         1 NMat=       1 IRICut=       1 DoRegI=T DoRafI=F ISym2E= 0 IDoP0=0 IntGTp=1.
 FoFCou: FMM=F IPFlag=           0 FMFlag=      100000 FMFlg1=         800
         NFxFlg=           0 DoJE=F BraDBF=F KetDBF=F FulRan=T
         wScrn=  0.000000 ICntrl=      2527 IOpCl=  0 I1Cent=           0 NGrid=           0
         NMat0=    1 NMatS0=      1 NMatT0=    0 NMatD0=    1 NMtDS0=    0 NMtDT0=    0
 Symmetry not used in FoFCou.
 Leave Link  703 at Thu Aug  7 18:42:03 2025, MaxMem=   104857600 cpu:               2.5 elap:               2.5
 (Enter /Applications/g16/l716.exe)
 Dipole        =-6.15854140D+00 5.10885078D-01-1.99196627D-04
 ***** Axes restored to original set *****
 -------------------------------------------------------------------
 Center     Atomic                   Forces (Hartrees/Bohr)
 Number     Number              X              Y              Z
 -------------------------------------------------------------------
      1        7          -0.000046997   -0.000001567    0.000003012
      2        6          -0.000051478   -0.000061593   -0.000006161
      3        6           0.000097559    0.000319573    0.000002798
      4        6          -0.000530584    0.000193338    0.000000799
      5        6           0.002994129   -0.000965968    0.000002263
      6        7           0.134944844   -0.029731423    0.000028146
      7        1          -0.000129334   -0.000070327   -0.000106868
      8        1          -0.000128286   -0.000070521    0.000106730
      9        1           0.000007358    0.000001563   -0.000012414
     10        1           0.000006157    0.000002112    0.000012865
     11        3          -0.137163368    0.030384813   -0.000031170
 -------------------------------------------------------------------
 Cartesian Forces:  Max     0.137163368 RMS     0.034307655
 Leave Link  716 at Thu Aug  7 18:42:03 2025, MaxMem=   104857600 cpu:               0.0 elap:               0.0
 (Enter /Applications/g16/l103.exe)

 GradGradGradGradGradGradGradGradGradGradGradGradGradGradGradGradGradGrad
 Berny optimization.
 FormGI is forming the generalized inverse of G from B-inverse, IUseBI=4.
 Internal  Forces:  Max     0.140488465 RMS     0.023099826
 Search for a local minimum.
 Step number   1 out of a maximum of   47
 All quantities printed in internal units (Hartrees-Bohrs-Radians)
 RMS Force = .41714D-03 SwitMx=.10000D-02 MixMth= 2
 Mixed Optimization -- En-DIIS/RFO-DIIS
 Second derivative matrix not updated -- first step.
 ITU=  0
     Eigenvalues ---    0.00230   0.01265   0.01265   0.04905   0.04905
     Eigenvalues ---    0.05319   0.05645   0.05725   0.05800   0.06059
     Eigenvalues ---    0.06059   0.16000   0.16000   0.16000   0.16000
     Eigenvalues ---    0.22259   0.22339   0.27706   0.34136   0.34136
     Eigenvalues ---    0.34340   0.34340   0.36680   0.37325   1.29707
     Eigenvalues ---    1.305151000.000001000.000001000.000001000.00000
     Eigenvalues --- 1000.000001000.000001000.000001000.000001000.00000
     Eigenvalues --- 1000.000001000.00000
 RFO step:  Lambda=-7.55665365D-06 EMin= 2.30000000D-03
 Linear search not attempted -- first point.
 Iteration  1 RMS(Cart)=  0.00132567 RMS(Int)=  0.00000174
 Iteration  2 RMS(Cart)=  0.00000199 RMS(Int)=  0.00000029
 Iteration  3 RMS(Cart)=  0.00000000 RMS(Int)=  0.00000029
 Iteration  1 RMS(Cart)=  0.00000000 RMS(Int)=  0.00000000
 ITry= 1 IFail=0 DXMaxC= 4.68D-03 DCOld= 1.00D+10 DXMaxT= 3.00D-01 DXLimC= 3.00D+00 Rises=F
 Variable       Old X    -DE/DX   Delta X   Delta X   Delta X     New X
                                 (Linear)    (Quad)   (Total)
    R1        2.18433  -0.00004   0.00000  -0.00003  -0.00003   2.18430
    R2        2.76331  -0.00008   0.00000  -0.00021  -0.00021   2.76310
    R3        2.92785   0.00022   0.00000   0.00078   0.00078   2.92863
    R4        2.06760   0.00001   0.00000   0.00003   0.00003   2.06763
    R5        2.06760   0.00001   0.00000   0.00003   0.00003   2.06763
    R6        2.75359  -0.00083   0.00000  -0.00222  -0.00222   2.75137
    R7        2.07102   0.00010   0.00000   0.00031   0.00031   2.07132
    R8        2.07102   0.00010   0.00000   0.00031   0.00031   2.07133
    R9        2.18661   0.00231   0.00000   0.00178   0.00178   2.18840
   R10        2.83459   0.14049   0.00000   0.00000   0.00000   2.83459
    A1        1.90547  -0.00021   0.00000  -0.00103  -0.00103   1.90444
    A2        1.90488   0.00007   0.00000   0.00014   0.00014   1.90501
    A3        1.90488   0.00007   0.00000   0.00015   0.00015   1.90503
    A4        1.93101   0.00004   0.00000   0.00024   0.00024   1.93125
    A5        1.93101   0.00004   0.00000   0.00024   0.00024   1.93125
    A6        1.88621  -0.00000   0.00000   0.00028   0.00028   1.88649
    A7        1.95454   0.00008   0.00000   0.00009   0.00009   1.95463
    A8        1.93484   0.00011   0.00000   0.00090   0.00089   1.93574
    A9        1.93484   0.00011   0.00000   0.00090   0.00089   1.93574
   A10        1.87988  -0.00014   0.00000  -0.00120  -0.00120   1.87869
   A11        1.87986  -0.00014   0.00000  -0.00118  -0.00118   1.87868
   A12        1.87681  -0.00005   0.00000   0.00041   0.00041   1.87721
   A13        3.11400  -0.00003   0.00000  -0.00239  -0.00239   3.11161
   A14        3.13728  -0.00007   0.00000  -0.00148  -0.00148   3.13580
   A15        3.17644   0.00007   0.00000   0.00108   0.00108   3.17753
   A16        3.12689  -0.00002   0.00000  -0.00131  -0.00131   3.12558
   A17        3.13920  -0.00003   0.00000  -0.00053  -0.00053   3.13867
   A18        3.11414  -0.00001   0.00000  -0.00022  -0.00022   3.11392
    D1        3.14159   0.00000   0.00000   0.00003   0.00003  -3.14157
    D2       -1.04154  -0.00005   0.00000  -0.00082  -0.00082  -1.04236
    D3        1.04155   0.00005   0.00000   0.00086   0.00086   1.04241
    D4       -1.04495  -0.00002   0.00000  -0.00031  -0.00031  -1.04526
    D5        1.05511  -0.00007   0.00000  -0.00116  -0.00116   1.05396
    D6        3.13820   0.00002   0.00000   0.00052   0.00052   3.13872
    D7        1.04493   0.00003   0.00000   0.00035   0.00035   1.04528
    D8       -3.13819  -0.00002   0.00000  -0.00050  -0.00050  -3.13869
    D9       -1.05510   0.00007   0.00000   0.00118   0.00118  -1.05392
         Item               Value     Threshold  Converged?
 Maximum Force            0.002312     0.000450     NO 
 RMS     Force            0.000417     0.000300     NO 
 Maximum Displacement     0.004684     0.001800     NO 
 RMS     Displacement     0.001326     0.001200     NO 
 Predicted change in Energy=-3.778617D-06
 Lowest energy point so far.  Saving SCF results.
 GradGradGradGradGradGradGradGradGradGradGradGradGradGradGradGradGradGrad

 Leave Link  103 at Thu Aug  7 18:42:03 2025, MaxMem=   104857600 cpu:               0.0 elap:               0.0
 (Enter /Applications/g16/l202.exe)
                          Input orientation:                          
 ---------------------------------------------------------------------
 Center     Atomic      Atomic             Coordinates (Angstroms)
 Number     Number       Type             X           Y           Z
 ---------------------------------------------------------------------
      1          7           0        3.259857   -0.180428   -0.000011
      2          6           0        2.167868    0.198544   -0.000016
      3          6           0        0.771585    0.632526   -0.000066
      4          6           0       -0.147683   -0.615159   -0.000041
      5          6           0       -1.557966   -0.253317   -0.000119
      6          7           0       -2.677868    0.041467    0.000108
      7          1           0        0.035916   -1.236352   -0.884259
      8          1           0        0.035831   -1.236255    0.884264
      9          1           0        0.587015    1.247836   -0.885774
     10          1           0        0.586956    1.247914    0.885575
     11          3           0       -4.142407    0.365696    0.000352
 ---------------------------------------------------------------------
                    Distance matrix (angstroms):
                    1          2          3          4          5
     1  N    0.000000
     2  C    1.155881   0.000000
     3  C    2.617708   1.462172   0.000000
     4  C    3.435160   2.454361   1.549765   0.000000
     5  C    4.818375   3.753134   2.492293   1.455963   0.000000
     6  N    5.941870   4.848281   3.499725   2.613999   1.158049
     7  H    3.505805   2.717725   2.194472   1.096098   2.070874
     8  H    3.505860   2.717753   2.194473   1.096098   2.070867
     9  H    3.157309   2.093962   1.094144   2.189762   2.763836
    10  H    3.157345   2.093975   1.094145   2.189761   2.763845
    11  Li   7.422383   6.312488   4.921231   4.113380   2.657539
                    6          7          8          9         10
     6  N    0.000000
     7  H    3.127227   0.000000
     8  H    3.127054   1.768523   0.000000
     9  H    3.591597   2.544583   3.099604   0.000000
    10  H    3.591467   3.099602   2.544570   1.771350   0.000000
    11  Li   1.500000   4.561521   4.561274   4.891914   4.891708
                   11
    11  Li   0.000000
 Stoichiometry    C4H4LiN2(1+)
 Framework group  C1[X(C4H4LiN2)]
 Deg. of freedom    27
 Full point group                 C1      NOp   1
 RotChk:  IX=2 Diff= 1.42D-04
 Largest Abelian subgroup         C1      NOp   1
 Largest concise Abelian subgroup C1      NOp   1
                         Standard orientation:                         
 ---------------------------------------------------------------------
 Center     Atomic      Atomic             Coordinates (Angstroms)
 Number     Number       Type             X           Y           Z
 ---------------------------------------------------------------------
      1          7           0        3.252985   -0.184290   -0.000013
      2          6           0        2.161647    0.196552   -0.000018
      3          6           0        0.766109    0.632924   -0.000068
      4          6           0       -0.155294   -0.613185   -0.000043
      5          6           0       -1.564956   -0.248928   -0.000121
      6          7           0       -2.684351    0.047774    0.000106
      7          1           0        0.027240   -1.234690   -0.884261
      8          1           0        0.027156   -1.234593    0.884262
      9          1           0        0.582593    1.248550   -0.885776
     10          1           0        0.582534    1.248628    0.885573
     11          3           0       -4.148333    0.374510    0.000350
 ---------------------------------------------------------------------
 Rotational constants (GHZ):          23.6499923           1.0841872           1.0502669
 Leave Link  202 at Thu Aug  7 18:42:03 2025, MaxMem=   104857600 cpu:               0.0 elap:               0.0
 (Enter /Applications/g16/l301.exe)
 Standard basis: 6-31G(d) (6D, 7F)
 Ernie: Thresh=  0.10000D-02 Tol=  0.10000D-05 Strict=F.
 There are   113 symmetry adapted cartesian basis functions of A   symmetry.
 There are   113 symmetry adapted basis functions of A   symmetry.
   113 basis functions,   212 primitive gaussians,   113 cartesian basis functions
    22 alpha electrons       22 beta electrons
       nuclear repulsion energy       198.6473912808 Hartrees.
 IExCor= 4639 DFT=T Ex+Corr=wB97XD ExCW=0 ScaHFX=  1.000000
 ScaDFX=  1.000000  1.000000  1.000000  1.000000 ScalE2=  1.000000  1.000000
 IRadAn=      5 IRanWt=     -1 IRanGd=            0 ICorTp=0 IEmpDi=121
 HFx  wShort=  0.000000 wLong=  0.200000 cFull=  0.222036 cShort=  0.000000 cLong=  0.777964
 DFx  wShort=  0.000000 wLong=  0.200000 cFull=  0.000000 cShort=  0.000000 cLong=  1.000000
 NAtoms=   11 NActive=   11 NUniq=   11 SFac= 1.00D+00 NAtFMM=   60 NAOKFM=F Big=F
 Integral buffers will be    131072 words long.
 Raffenetti 2 integral format.
 Two-electron integral symmetry is turned on.
 R6Disp:  Grimme-D2 Dispersion energy=       -0.0048578713 Hartrees.
 Nuclear repulsion after empirical dispersion term =      198.6425334095 Hartrees.
 Leave Link  301 at Thu Aug  7 18:42:03 2025, MaxMem=   104857600 cpu:               0.0 elap:               0.0
 (Enter /Applications/g16/l302.exe)
 NPDir=0 NMtPBC=     1 NCelOv=     1 NCel=       1 NClECP=     1 NCelD=      1
         NCelK=      1 NCelE2=     1 NClLst=     1 CellRange=     0.0.
 One-electron integrals computed using PRISM.
 One-electron integral symmetry used in STVInt
 NBasis=   113 RedAO= T EigKep=  8.04D-04  NBF=   113
 NBsUse=   113 1.00D-06 EigRej= -1.00D+00 NBFU=   113
 Precomputing XC quadrature grid using
 IXCGrd= 4 IRadAn=           5 IRanWt=          -1 IRanGd=           0 AccXCQ= 0.00D+00.
 Generated NRdTot=       0 NPtTot=           0 NUsed=           0 NTot=          32
 NSgBfM=   113   113   113   113   113 MxSgAt=    11 MxSgA2=    11.
 Leave Link  302 at Thu Aug  7 18:42:03 2025, MaxMem=   104857600 cpu:               0.1 elap:               0.1
 (Enter /Applications/g16/l303.exe)
 DipDrv:  MaxL=1.
 Leave Link  303 at Thu Aug  7 18:42:03 2025, MaxMem=   104857600 cpu:               0.0 elap:               0.0
 (Enter /Applications/g16/l401.exe)
 Initial guess from the checkpoint file:  "/Users/srak/g16_scratch/Gau-74187.chk"
 B after Tr=    -0.000000   -0.000000   -0.000000
         Rot=    1.000000   -0.000018    0.000013   -0.000012 Ang=  -0.00 deg.
 Guess basis will be translated and rotated to current coordinates.
 JPrj=2 DoOrth=T DoCkMO=T.
 Leave Link  401 at Thu Aug  7 18:42:03 2025, MaxMem=   104857600 cpu:               0.0 elap:               0.0
 (Enter /Applications/g16/l502.exe)
 Keep R1 ints in memory in canonical form, NReq=43174005.
 FoFCou: FMM=F IPFlag=           0 FMFlag=           0 FMFlg1=           0
         NFxFlg=           0 DoJE=F BraDBF=F KetDBF=F FulRan=T
         wScrn=  0.000000 ICntrl=       600 IOpCl=  0 I1Cent=           0 NGrid=           0
         NMat0=    1 NMatS0=   6441 NMatT0=    0 NMatD0=    1 NMtDS0=    0 NMtDT0=    0
 Symmetry not used in FoFCou.
 Two-electron integral symmetry not used.
 Closed shell SCF:
 Using DIIS extrapolation, IDIIS=  1040.
 NGot=   104857600 LenX=    63336875 LenY=    63323665
 Requested convergence on RMS density matrix=1.00D-08 within 128 cycles.
 Requested convergence on MAX density matrix=1.00D-06.
 Requested convergence on             energy=1.00D-06.
 No special actions if energy rises.

 Cycle   1  Pass 1  IDiag  1:
 E= -271.515937548121    
 DIIS: error= 2.01D-04 at cycle   1 NSaved=   1.
 NSaved= 1 IEnMin= 1 EnMin= -271.515937548121     IErMin= 1 ErrMin= 2.01D-04
 ErrMax= 2.01D-04  0.00D+00 EMaxC= 1.00D-01 BMatC= 4.23D-06 BMatP= 4.23D-06
 IDIUse=3 WtCom= 9.98D-01 WtEn= 2.01D-03
 Coeff-Com:  0.100D+01
 Coeff-En:   0.100D+01
 Coeff:      0.100D+01
 Gap=     1.350 Goal=   None    Shift=    0.000
 RMSDP=2.95D-05 MaxDP=6.53D-04              OVMax= 9.31D-04

 Cycle   2  Pass 1  IDiag  1:
 E= -271.515943945937     Delta-E=       -0.000006397816 Rises=F Damp=F
 DIIS: error= 3.82D-05 at cycle   2 NSaved=   2.
 NSaved= 2 IEnMin= 2 EnMin= -271.515943945937     IErMin= 2 ErrMin= 3.82D-05
 ErrMax= 3.82D-05  0.00D+00 EMaxC= 1.00D-01 BMatC= 2.99D-07 BMatP= 4.23D-06
 IDIUse=1 WtCom= 1.00D+00 WtEn= 0.00D+00
 Coeff-Com: -0.491D-01 0.105D+01
 Coeff:     -0.491D-01 0.105D+01
 Gap=     0.395 Goal=   None    Shift=    0.000
 RMSDP=8.58D-06 MaxDP=1.83D-04 DE=-6.40D-06 OVMax= 3.31D-04

 Cycle   3  Pass 1  IDiag  1:
 E= -271.515944215800     Delta-E=       -0.000000269864 Rises=F Damp=F
 DIIS: error= 4.86D-05 at cycle   3 NSaved=   3.
 NSaved= 3 IEnMin= 3 EnMin= -271.515944215800     IErMin= 2 ErrMin= 3.82D-05
 ErrMax= 4.86D-05  0.00D+00 EMaxC= 1.00D-01 BMatC= 2.97D-07 BMatP= 2.99D-07
 IDIUse=1 WtCom= 1.00D+00 WtEn= 0.00D+00
 Coeff-Com: -0.882D-01 0.561D+00 0.527D+00
 Coeff:     -0.882D-01 0.561D+00 0.527D+00
 Gap=     0.395 Goal=   None    Shift=    0.000
 RMSDP=4.15D-06 MaxDP=1.30D-04 DE=-2.70D-07 OVMax= 1.65D-04

 Cycle   4  Pass 1  IDiag  1:
 E= -271.515944456049     Delta-E=       -0.000000240248 Rises=F Damp=F
 DIIS: error= 1.52D-05 at cycle   4 NSaved=   4.
 NSaved= 4 IEnMin= 4 EnMin= -271.515944456049     IErMin= 4 ErrMin= 1.52D-05
 ErrMax= 1.52D-05  0.00D+00 EMaxC= 1.00D-01 BMatC= 2.37D-08 BMatP= 2.97D-07
 IDIUse=1 WtCom= 1.00D+00 WtEn= 0.00D+00
 Coeff-Com: -0.247D-01 0.458D-01 0.227D+00 0.751D+00
 Coeff:     -0.247D-01 0.458D-01 0.227D+00 0.751D+00
 Gap=     0.395 Goal=   None    Shift=    0.000
 RMSDP=1.38D-06 MaxDP=3.15D-05 DE=-2.40D-07 OVMax= 6.23D-05

 Cycle   5  Pass 1  IDiag  1:
 E= -271.515944482340     Delta-E=       -0.000000026291 Rises=F Damp=F
 DIIS: error= 2.80D-06 at cycle   5 NSaved=   5.
 NSaved= 5 IEnMin= 5 EnMin= -271.515944482340     IErMin= 5 ErrMin= 2.80D-06
 ErrMax= 2.80D-06  0.00D+00 EMaxC= 1.00D-01 BMatC= 1.06D-09 BMatP= 2.37D-08
 IDIUse=1 WtCom= 1.00D+00 WtEn= 0.00D+00
 Coeff-Com:  0.477D-02-0.508D-01-0.179D-01 0.132D+00 0.932D+00
 Coeff:      0.477D-02-0.508D-01-0.179D-01 0.132D+00 0.932D+00
 Gap=     0.395 Goal=   None    Shift=    0.000
 RMSDP=5.31D-07 MaxDP=9.04D-06 DE=-2.63D-08 OVMax= 2.91D-05

 Cycle   6  Pass 1  IDiag  1:
 E= -271.515944484177     Delta-E=       -0.000000001837 Rises=F Damp=F
 DIIS: error= 1.47D-06 at cycle   6 NSaved=   6.
 NSaved= 6 IEnMin= 6 EnMin= -271.515944484177     IErMin= 6 ErrMin= 1.47D-06
 ErrMax= 1.47D-06  0.00D+00 EMaxC= 1.00D-01 BMatC= 2.74D-10 BMatP= 1.06D-09
 IDIUse=1 WtCom= 1.00D+00 WtEn= 0.00D+00
 Coeff-Com:  0.454D-02-0.278D-01-0.310D-01-0.140D-01 0.415D+00 0.653D+00
 Coeff:      0.454D-02-0.278D-01-0.310D-01-0.140D-01 0.415D+00 0.653D+00
 Gap=     0.395 Goal=   None    Shift=    0.000
 RMSDP=2.06D-07 MaxDP=5.57D-06 DE=-1.84D-09 OVMax= 7.92D-06

 Cycle   7  Pass 1  IDiag  1:
 E= -271.515944484415     Delta-E=       -0.000000000238 Rises=F Damp=F
 DIIS: error= 8.72D-07 at cycle   7 NSaved=   7.
 NSaved= 7 IEnMin= 7 EnMin= -271.515944484415     IErMin= 7 ErrMin= 8.72D-07
 ErrMax= 8.72D-07  0.00D+00 EMaxC= 1.00D-01 BMatC= 7.59D-11 BMatP= 2.74D-10
 IDIUse=1 WtCom= 1.00D+00 WtEn= 0.00D+00
 Coeff-Com:  0.188D-02-0.795D-02-0.155D-01-0.310D-01 0.925D-01 0.388D+00
 Coeff-Com:  0.572D+00
 Coeff:      0.188D-02-0.795D-02-0.155D-01-0.310D-01 0.925D-01 0.388D+00
 Coeff:      0.572D+00
 Gap=     0.395 Goal=   None    Shift=    0.000
 RMSDP=7.36D-08 MaxDP=1.72D-06 DE=-2.38D-10 OVMax= 2.96D-06

 Cycle   8  Pass 1  IDiag  1:
 E= -271.515944484482     Delta-E=       -0.000000000067 Rises=F Damp=F
 DIIS: error= 1.28D-07 at cycle   8 NSaved=   8.
 NSaved= 8 IEnMin= 8 EnMin= -271.515944484482     IErMin= 8 ErrMin= 1.28D-07
 ErrMax= 1.28D-07  0.00D+00 EMaxC= 1.00D-01 BMatC= 1.70D-12 BMatP= 7.59D-11
 IDIUse=1 WtCom= 1.00D+00 WtEn= 0.00D+00
 Coeff-Com:  0.613D-04 0.682D-03-0.823D-03-0.647D-02-0.163D-01 0.351D-01
 Coeff-Com:  0.148D+00 0.840D+00
 Coeff:      0.613D-04 0.682D-03-0.823D-03-0.647D-02-0.163D-01 0.351D-01
 Coeff:      0.148D+00 0.840D+00
 Gap=     0.395 Goal=   None    Shift=    0.000
 RMSDP=1.87D-08 MaxDP=2.83D-07 DE=-6.70D-11 OVMax= 6.16D-07

 Cycle   9  Pass 1  IDiag  1:
 E= -271.515944484487     Delta-E=       -0.000000000005 Rises=F Damp=F
 DIIS: error= 2.98D-08 at cycle   9 NSaved=   9.
 NSaved= 9 IEnMin= 9 EnMin= -271.515944484487     IErMin= 9 ErrMin= 2.98D-08
 ErrMax= 2.98D-08  0.00D+00 EMaxC= 1.00D-01 BMatC= 1.19D-13 BMatP= 1.70D-12
 IDIUse=1 WtCom= 1.00D+00 WtEn= 0.00D+00
 Coeff-Com: -0.135D-03 0.824D-03 0.103D-02 0.823D-03-0.117D-01-0.208D-01
 Coeff-Com: -0.561D-02 0.225D+00 0.811D+00
 Coeff:     -0.135D-03 0.824D-03 0.103D-02 0.823D-03-0.117D-01-0.208D-01
 Coeff:     -0.561D-02 0.225D+00 0.811D+00
 Gap=     0.395 Goal=   None    Shift=    0.000
 RMSDP=5.66D-09 MaxDP=1.27D-07 DE=-4.89D-12 OVMax= 1.40D-07

 SCF Done:  E(RwB97XD) =  -271.515944484     A.U. after    9 cycles
            NFock=  9  Conv=0.57D-08     -V/T= 2.0078
 KE= 2.694088774802D+02 PE=-1.020615192472D+03 EE= 2.810478370979D+02
 Leave Link  502 at Thu Aug  7 18:42:09 2025, MaxMem=   104857600 cpu:               5.7 elap:               5.7
 (Enter /Applications/g16/l701.exe)
 ... and contract with generalized density number  0.
 Compute integral first derivatives.
 R6Disp: Adding Grimme-D2 dispersion energy 1st derivatives to the gradient.
 Leave Link  701 at Thu Aug  7 18:42:09 2025, MaxMem=   104857600 cpu:               0.0 elap:               0.0
 (Enter /Applications/g16/l702.exe)
 L702 exits ... SP integral derivatives will be done elsewhere.
 Leave Link  702 at Thu Aug  7 18:42:09 2025, MaxMem=   104857600 cpu:               0.0 elap:               0.0
 (Enter /Applications/g16/l703.exe)
 Integral derivatives from FoFJK, PRISM(SPDF).
 Compute integral first derivatives, UseDBF=F ICtDFT=           0.
 Calling FoFJK, ICntrl=      2127 FMM=F ISym2X=0 I1Cent= 0 IOpClX= 0 NMat=1 NMatS=1 NMatT=0.
 FoFJK:  IHMeth= 1 ICntrl=    2127 DoSepK=T KAlg= 0 I1Cent=           0 FoldK=F
 IRaf=         1 NMat=       1 IRICut=       1 DoRegI=T DoRafI=F ISym2E= 0 IDoP0=0 IntGTp=1.
 FoFCou: FMM=F IPFlag=           0 FMFlag=      100000 FMFlg1=         800
         NFxFlg=           0 DoJE=F BraDBF=F KetDBF=F FulRan=T
         wScrn=  0.000000 ICntrl=      2527 IOpCl=  0 I1Cent=           0 NGrid=           0
         NMat0=    1 NMatS0=      1 NMatT0=    0 NMatD0=    1 NMtDS0=    0 NMtDT0=    0
 Symmetry not used in FoFCou.
 Leave Link  703 at Thu Aug  7 18:42:11 2025, MaxMem=   104857600 cpu:               2.4 elap:               2.4
 (Enter /Applications/g16/l716.exe)
 Dipole        =-6.15485765D+00 5.11140245D-01 3.62608774D-04
 ***** Axes restored to original set *****
 -------------------------------------------------------------------
 Center     Atomic                   Forces (Hartrees/Bohr)
 Number     Number              X              Y              Z
 -------------------------------------------------------------------
      1        7           0.000030994    0.000058059    0.000001038
      2        6          -0.000037537   -0.000165850   -0.000001023
      3        6           0.000087763    0.000145569   -0.000000391
      4        6          -0.000208485    0.000006819   -0.000013075
      5        6           0.000125155    0.000038693    0.000025100
      6        7           0.137082165   -0.030342058   -0.000034343
      7        1           0.000061896   -0.000015993   -0.000002895
      8        1           0.000057374   -0.000015824    0.000003301
      9        1          -0.000035621   -0.000023209    0.000006657
     10        1          -0.000035014   -0.000023564   -0.000006712
     11        3          -0.137128690    0.030337359    0.000022343
 -------------------------------------------------------------------
 Cartesian Forces:  Max     0.137128690 RMS     0.034569618
 Leave Link  716 at Thu Aug  7 18:42:11 2025, MaxMem=   104857600 cpu:               0.0 elap:               0.0
 (Enter /Applications/g16/l103.exe)

 GradGradGradGradGradGradGradGradGradGradGradGradGradGradGradGradGradGrad
 Berny optimization.
 Using GEDIIS/GDIIS optimizer.
 FormGI is forming the generalized inverse of G from B-inverse, IUseBI=4.
 Internal  Forces:  Max     0.140444349 RMS     0.023088949
 Search for a local minimum.
 Step number   2 out of a maximum of   47
 All quantities printed in internal units (Hartrees-Bohrs-Radians)
 RMS Force = .43462D-04 SwitMx=.10000D-02 MixMth= 2
 Mixed Optimization -- En-DIIS/RFO-DIIS
 Swapping is turned off.
 Update second derivatives using D2CorX and points    1    2
 DE= -3.57D-06 DEPred=-3.78D-06 R= 9.44D-01
 TightC=F SS=  1.41D+00  RLast= 5.56D-03 DXNew= 5.0454D-01 1.6669D-02
 Trust test= 9.44D-01 RLast= 5.56D-03 DXMaxT set to 3.00D-01
 ITU=  1  0
     Eigenvalues ---    0.00230   0.01264   0.01378   0.04901   0.05030
     Eigenvalues ---    0.05317   0.05651   0.05788   0.05943   0.06058
     Eigenvalues ---    0.06112   0.15864   0.16000   0.16000   0.16536
     Eigenvalues ---    0.21554   0.22319   0.27704   0.33876   0.34136
     Eigenvalues ---    0.34340   0.34342   0.35770   0.36766   1.24046
     Eigenvalues ---    1.305331000.000001000.000001000.000001000.00000
     Eigenvalues --- 1000.000001000.000001000.000001000.000001000.00000
     Eigenvalues --- 1000.000001000.00000
 En-DIIS/RFO-DIIS/Sim-DIIS IScMMF=       -3 using points:     2    1
 RFO step:  Lambda=-2.15348428D-05.
 NNeg= 0 NGDIIS= 2 SimSw=  2.50D-03 Rises=F DC= -3.57D-06 SmlDif=  1.00D-05
 NRisDI= 0 DoIntr=F SqrtH=F CThrHd= 10.0 CDAdj=  3.0
 RMS Error=  0.1656068918D-02 NUsed= 2 OKEnD=F EnDIS=F
 InvSVX:  RCond= 3.47D-05 Info=           0 Equed=N FErr=  6.63D-15 BErr=  1.38D-17
 DidBck=T Rises=F RFO-DIIS coefs:    0.17286    0.82714
 Iteration  1 RMS(Cart)=  0.00247581 RMS(Int)=  0.00001159
 Iteration  2 RMS(Cart)=  0.00001225 RMS(Int)=  0.00000023
 Iteration  3 RMS(Cart)=  0.00000000 RMS(Int)=  0.00000023
 Iteration  1 RMS(Cart)=  0.00000000 RMS(Int)=  0.00000000
 ITry= 1 IFail=0 DXMaxC= 9.63D-03 DCOld= 1.00D+10 DXMaxT= 3.00D-01 DXLimC= 3.00D+00 Rises=F
 Variable       Old X    -DE/DX   Delta X   Delta X   Delta X     New X
                                 (Linear)    (Quad)   (Total)
    R1        2.18430   0.00001   0.00003  -0.00003  -0.00000   2.18430
    R2        2.76310   0.00003   0.00017  -0.00015   0.00002   2.76312
    R3        2.92863  -0.00000  -0.00065   0.00083   0.00018   2.92882
    R4        2.06763  -0.00001  -0.00002  -0.00000  -0.00003   2.06761
    R5        2.06763  -0.00001  -0.00003  -0.00000  -0.00003   2.06761
    R6        2.75137  -0.00007   0.00184  -0.00254  -0.00070   2.75067
    R7        2.07132   0.00002  -0.00025   0.00039   0.00013   2.07146
    R8        2.07133   0.00002  -0.00025   0.00038   0.00013   2.07146
    R9        2.18840   0.00004  -0.00147   0.00193   0.00045   2.18885
   R10        2.83459   0.14044   0.00000   0.00000   0.00000   2.83459
    A1        1.90444  -0.00008   0.00085  -0.00142  -0.00057   1.90387
    A2        1.90501   0.00006  -0.00011   0.00049   0.00038   1.90539
    A3        1.90503   0.00006  -0.00012   0.00050   0.00037   1.90540
    A4        1.93125  -0.00003  -0.00020   0.00003  -0.00017   1.93108
    A5        1.93125  -0.00003  -0.00020   0.00003  -0.00017   1.93108
    A6        1.88649   0.00003  -0.00023   0.00041   0.00018   1.88668
    A7        1.95463  -0.00000  -0.00007   0.00020   0.00013   1.95475
    A8        1.93574  -0.00004  -0.00074   0.00063  -0.00011   1.93563
    A9        1.93574  -0.00004  -0.00074   0.00064  -0.00010   1.93564
   A10        1.87869   0.00004   0.00099  -0.00084   0.00015   1.87884
   A11        1.87868   0.00004   0.00098  -0.00088   0.00010   1.87878
   A12        1.87721   0.00001  -0.00034   0.00016  -0.00017   1.87704
   A13        3.11161   0.00013   0.00198   0.00734   0.00931   3.12092
   A14        3.13580   0.00010   0.00123   0.00034   0.00157   3.13737
   A15        3.17753   0.00005  -0.00090   0.00198   0.00109   3.17861
   A16        3.12558   0.00004   0.00108   0.00195   0.00304   3.12862
   A17        3.13867   0.00001   0.00044  -0.00035   0.00009   3.13876
   A18        3.11392  -0.00002   0.00018  -0.00048  -0.00029   3.11362
    D1       -3.14157  -0.00000  -0.00002  -0.00005  -0.00007   3.14154
    D2       -1.04236   0.00002   0.00068  -0.00055   0.00013  -1.04222
    D3        1.04241  -0.00002  -0.00071   0.00049  -0.00022   1.04219
    D4       -1.04526   0.00000   0.00026  -0.00033  -0.00007  -1.04533
    D5        1.05396   0.00003   0.00096  -0.00082   0.00014   1.05409
    D6        3.13872  -0.00002  -0.00043   0.00021  -0.00022   3.13851
    D7        1.04528  -0.00000  -0.00029   0.00023  -0.00006   1.04522
    D8       -3.13869   0.00002   0.00041  -0.00027   0.00014  -3.13854
    D9       -1.05392  -0.00002  -0.00098   0.00077  -0.00021  -1.05413
         Item               Value     Threshold  Converged?
 Maximum Force            0.000132     0.000450     YES
 RMS     Force            0.000043     0.000300     YES
 Maximum Displacement     0.009626     0.001800     NO 
 RMS     Displacement     0.002475     0.001200     NO 
 Predicted change in Energy=-9.061418D-07
 Lowest energy point so far.  Saving SCF results.
 GradGradGradGradGradGradGradGradGradGradGradGradGradGradGradGradGradGrad

 Leave Link  103 at Thu Aug  7 18:42:12 2025, MaxMem=   104857600 cpu:               0.0 elap:               0.0
 (Enter /Applications/g16/l202.exe)
                          Input orientation:                          
 ---------------------------------------------------------------------
 Center     Atomic      Atomic             Coordinates (Angstroms)
 Number     Number       Type             X           Y           Z
 ---------------------------------------------------------------------
      1          7           0        3.262619   -0.175335    0.000876
      2          6           0        2.167714    0.195126   -0.000509
      3          6           0        0.772186    0.631561   -0.000251
      4          6           0       -0.148622   -0.615110   -0.000112
      5          6           0       -1.558163   -0.251865    0.000215
      6          7           0       -2.678415    0.042529    0.000098
      7          1           0        0.034249   -1.236502   -0.884427
      8          1           0        0.034579   -1.236557    0.884097
      9          1           0        0.588037    1.247015   -0.885929
     10          1           0        0.588345    1.246979    0.885516
     11          3           0       -4.143424    0.364631    0.000441
 ---------------------------------------------------------------------
                    Distance matrix (angstroms):
                    1          2          3          4          5
     1  N    0.000000
     2  C    1.155881   0.000000
     3  C    2.617888   1.462181   0.000000
     4  C    3.439472   2.453954   1.549863   0.000000
     5  C    4.821389   3.752593   2.492181   1.455593   0.000000
     6  N    5.945027   4.848531   3.500515   2.613875   1.158289
     7  H    3.511724   2.717083   2.194533   1.096168   2.070719
     8  H    3.510913   2.717077   2.194539   1.096168   2.070674
     9  H    3.156404   2.094234   1.094130   2.189714   2.763705
    10  H    3.155520   2.094240   1.094130   2.189710   2.763654
    11  Li   7.425700   6.313413   4.922851   4.113190   2.657751
                    6          7          8          9         10
     6  N    0.000000
     7  H    3.126796   0.000000
     8  H    3.126956   1.768524   0.000000
     9  H    3.592428   2.544512   3.099587   0.000000
    10  H    3.592546   3.099580   2.544525   1.771445   0.000000
    11  Li   1.500000   4.560655   4.560741   4.893973   4.894029
                   11
    11  Li   0.000000
 Stoichiometry    C4H4LiN2(1+)
 Framework group  C1[X(C4H4LiN2)]
 Deg. of freedom    27
 Full point group                 C1      NOp   1
 RotChk:  IX=2 Diff= 5.00D-04
 Largest Abelian subgroup         C1      NOp   1
 Largest concise Abelian subgroup C1      NOp   1
                         Standard orientation:                         
 ---------------------------------------------------------------------
 Center     Atomic      Atomic             Coordinates (Angstroms)
 Number     Number       Type             X           Y           Z
 ---------------------------------------------------------------------
      1          7           0        3.255536   -0.180475    0.000706
      2          6           0        2.161361    0.192137   -0.000571
      3          6           0        0.766693    0.631312   -0.000183
      4          6           0       -0.156562   -0.613547   -0.000338
      5          6           0       -1.565386   -0.247534    0.000100
      6          7           0       -2.685058    0.049060    0.000073
      7          1           0        0.025075   -1.235078   -0.884811
      8          1           0        0.025431   -1.235572    0.883713
      9          1           0        0.583741    1.247347   -0.885706
     10          1           0        0.584074    1.246871    0.885739
     11          3           0       -4.149431    0.374040    0.000519
 ---------------------------------------------------------------------
 Rotational constants (GHZ):          23.7301277           1.0833282           1.0496189
 Leave Link  202 at Thu Aug  7 18:42:12 2025, MaxMem=   104857600 cpu:               0.0 elap:               0.0
 (Enter /Applications/g16/l301.exe)
 Standard basis: 6-31G(d) (6D, 7F)
 Ernie: Thresh=  0.10000D-02 Tol=  0.10000D-05 Strict=F.
 There are   113 symmetry adapted cartesian basis functions of A   symmetry.
 There are   113 symmetry adapted basis functions of A   symmetry.
   113 basis functions,   212 primitive gaussians,   113 cartesian basis functions
    22 alpha electrons       22 beta electrons
       nuclear repulsion energy       198.6288184967 Hartrees.
 IExCor= 4639 DFT=T Ex+Corr=wB97XD ExCW=0 ScaHFX=  1.000000
 ScaDFX=  1.000000  1.000000  1.000000  1.000000 ScalE2=  1.000000  1.000000
 IRadAn=      5 IRanWt=     -1 IRanGd=            0 ICorTp=0 IEmpDi=121
 HFx  wShort=  0.000000 wLong=  0.200000 cFull=  0.222036 cShort=  0.000000 cLong=  0.777964
 DFx  wShort=  0.000000 wLong=  0.200000 cFull=  0.000000 cShort=  0.000000 cLong=  1.000000
 NAtoms=   11 NActive=   11 NUniq=   11 SFac= 1.00D+00 NAtFMM=   60 NAOKFM=F Big=F
 Integral buffers will be    131072 words long.
 Raffenetti 2 integral format.
 Two-electron integral symmetry is turned on.
 R6Disp:  Grimme-D2 Dispersion energy=       -0.0048560337 Hartrees.
 Nuclear repulsion after empirical dispersion term =      198.6239624630 Hartrees.
 Leave Link  301 at Thu Aug  7 18:42:12 2025, MaxMem=   104857600 cpu:               0.0 elap:               0.0
 (Enter /Applications/g16/l302.exe)
 NPDir=0 NMtPBC=     1 NCelOv=     1 NCel=       1 NClECP=     1 NCelD=      1
         NCelK=      1 NCelE2=     1 NClLst=     1 CellRange=     0.0.
 One-electron integrals computed using PRISM.
 One-electron integral symmetry used in STVInt
 NBasis=   113 RedAO= T EigKep=  8.01D-04  NBF=   113
 NBsUse=   113 1.00D-06 EigRej= -1.00D+00 NBFU=   113
 Precomputing XC quadrature grid using
 IXCGrd= 4 IRadAn=           5 IRanWt=          -1 IRanGd=           0 AccXCQ= 0.00D+00.
 Generated NRdTot=       0 NPtTot=           0 NUsed=           0 NTot=          32
 NSgBfM=   113   113   113   113   113 MxSgAt=    11 MxSgA2=    11.
 Leave Link  302 at Thu Aug  7 18:42:12 2025, MaxMem=   104857600 cpu:               0.1 elap:               0.1
 (Enter /Applications/g16/l303.exe)
 DipDrv:  MaxL=1.
 Leave Link  303 at Thu Aug  7 18:42:12 2025, MaxMem=   104857600 cpu:               0.0 elap:               0.0
 (Enter /Applications/g16/l401.exe)
 Initial guess from the checkpoint file:  "/Users/srak/g16_scratch/Gau-74187.chk"
 B after Tr=     0.000000    0.000000   -0.000000
         Rot=    1.000000   -0.000052    0.000011    0.000045 Ang=  -0.01 deg.
 Guess basis will be translated and rotated to current coordinates.
 JPrj=2 DoOrth=T DoCkMO=T.
 Leave Link  401 at Thu Aug  7 18:42:12 2025, MaxMem=   104857600 cpu:               0.0 elap:               0.0
 (Enter /Applications/g16/l502.exe)
 Keep R1 ints in memory in canonical form, NReq=43174005.
 FoFCou: FMM=F IPFlag=           0 FMFlag=           0 FMFlg1=           0
         NFxFlg=           0 DoJE=F BraDBF=F KetDBF=F FulRan=T
         wScrn=  0.000000 ICntrl=       600 IOpCl=  0 I1Cent=           0 NGrid=           0
         NMat0=    1 NMatS0=   6441 NMatT0=    0 NMatD0=    1 NMtDS0=    0 NMtDT0=    0
 Symmetry not used in FoFCou.
 Two-electron integral symmetry not used.
 Closed shell SCF:
 Using DIIS extrapolation, IDIIS=  1040.
 NGot=   104857600 LenX=    63336875 LenY=    63323665
 Requested convergence on RMS density matrix=1.00D-08 within 128 cycles.
 Requested convergence on MAX density matrix=1.00D-06.
 Requested convergence on             energy=1.00D-06.
 No special actions if energy rises.

 Cycle   1  Pass 1  IDiag  1:
 E= -271.515904060578    
 DIIS: error= 5.38D-04 at cycle   1 NSaved=   1.
 NSaved= 1 IEnMin= 1 EnMin= -271.515904060578     IErMin= 1 ErrMin= 5.38D-04
 ErrMax= 5.38D-04  0.00D+00 EMaxC= 1.00D-01 BMatC= 2.21D-05 BMatP= 2.21D-05
 IDIUse=3 WtCom= 9.95D-01 WtEn= 5.38D-03
 Coeff-Com:  0.100D+01
 Coeff-En:   0.100D+01
 Coeff:      0.100D+01
 Gap=     1.350 Goal=   None    Shift=    0.000
 RMSDP=6.92D-05 MaxDP=1.67D-03              OVMax= 2.37D-03

 Cycle   2  Pass 1  IDiag  1:
 E= -271.515939528433     Delta-E=       -0.000035467855 Rises=F Damp=F
 DIIS: error= 8.22D-05 at cycle   2 NSaved=   2.
 NSaved= 2 IEnMin= 2 EnMin= -271.515939528433     IErMin= 2 ErrMin= 8.22D-05
 ErrMax= 8.22D-05  0.00D+00 EMaxC= 1.00D-01 BMatC= 9.69D-07 BMatP= 2.21D-05
 IDIUse=1 WtCom= 1.00D+00 WtEn= 0.00D+00
 Coeff-Com: -0.186D+00 0.119D+01
 Coeff:     -0.186D+00 0.119D+01
 Gap=     0.395 Goal=   None    Shift=    0.000
 RMSDP=2.06D-05 MaxDP=4.71D-04 DE=-3.55D-05 OVMax= 9.70D-04

 Cycle   3  Pass 1  IDiag  1:
 E= -271.515942013828     Delta-E=       -0.000002485395 Rises=F Damp=F
 DIIS: error= 2.65D-05 at cycle   3 NSaved=   3.
 NSaved= 3 IEnMin= 3 EnMin= -271.515942013828     IErMin= 3 ErrMin= 2.65D-05
 ErrMax= 2.65D-05  0.00D+00 EMaxC= 1.00D-01 BMatC= 1.23D-07 BMatP= 9.69D-07
 IDIUse=1 WtCom= 1.00D+00 WtEn= 0.00D+00
 Coeff-Com: -0.557D-01 0.263D+00 0.793D+00
 Coeff:     -0.557D-01 0.263D+00 0.793D+00
 Gap=     0.395 Goal=   None    Shift=    0.000
 RMSDP=5.00D-06 MaxDP=1.04D-04 DE=-2.49D-06 OVMax= 2.08D-04

 Cycle   4  Pass 1  IDiag  1:
 E= -271.515942107319     Delta-E=       -0.000000093491 Rises=F Damp=F
 DIIS: error= 2.46D-05 at cycle   4 NSaved=   4.
 NSaved= 4 IEnMin= 4 EnMin= -271.515942107319     IErMin= 4 ErrMin= 2.46D-05
 ErrMax= 2.46D-05  0.00D+00 EMaxC= 1.00D-01 BMatC= 1.06D-07 BMatP= 1.23D-07
 IDIUse=1 WtCom= 1.00D+00 WtEn= 0.00D+00
 Coeff-Com:  0.960D-02-0.121D+00 0.515D+00 0.597D+00
 Coeff:      0.960D-02-0.121D+00 0.515D+00 0.597D+00
 Gap=     0.395 Goal=   None    Shift=    0.000
 RMSDP=2.70D-06 MaxDP=5.51D-05 DE=-9.35D-08 OVMax= 1.11D-04

 Cycle   5  Pass 1  IDiag  1:
 E= -271.515942209661     Delta-E=       -0.000000102341 Rises=F Damp=F
 DIIS: error= 4.02D-06 at cycle   5 NSaved=   5.
 NSaved= 5 IEnMin= 5 EnMin= -271.515942209661     IErMin= 5 ErrMin= 4.02D-06
 ErrMax= 4.02D-06  0.00D+00 EMaxC= 1.00D-01 BMatC= 3.45D-09 BMatP= 1.06D-07
 IDIUse=1 WtCom= 1.00D+00 WtEn= 0.00D+00
 Coeff-Com:  0.112D-01-0.799D-01 0.653D-01 0.187D+00 0.817D+00
 Coeff:      0.112D-01-0.799D-01 0.653D-01 0.187D+00 0.817D+00
 Gap=     0.395 Goal=   None    Shift=    0.000
 RMSDP=8.38D-07 MaxDP=1.58D-05 DE=-1.02D-07 OVMax= 4.16D-05

 Cycle   6  Pass 1  IDiag  1:
 E= -271.515942214204     Delta-E=       -0.000000004543 Rises=F Damp=F
 DIIS: error= 1.45D-06 at cycle   6 NSaved=   6.
 NSaved= 6 IEnMin= 6 EnMin= -271.515942214204     IErMin= 6 ErrMin= 1.45D-06
 ErrMax= 1.45D-06  0.00D+00 EMaxC= 1.00D-01 BMatC= 3.63D-10 BMatP= 3.45D-09
 IDIUse=1 WtCom= 1.00D+00 WtEn= 0.00D+00
 Coeff-Com:  0.378D-02-0.226D-01-0.112D-01 0.270D-01 0.298D+00 0.705D+00
 Coeff:      0.378D-02-0.226D-01-0.112D-01 0.270D-01 0.298D+00 0.705D+00
 Gap=     0.395 Goal=   None    Shift=    0.000
 RMSDP=2.28D-07 MaxDP=4.94D-06 DE=-4.54D-09 OVMax= 8.44D-06

 Cycle   7  Pass 1  IDiag  1:
 E= -271.515942214505     Delta-E=       -0.000000000301 Rises=F Damp=F
 DIIS: error= 9.90D-07 at cycle   7 NSaved=   7.
 NSaved= 7 IEnMin= 7 EnMin= -271.515942214505     IErMin= 7 ErrMin= 9.90D-07
 ErrMax= 9.90D-07  0.00D+00 EMaxC= 1.00D-01 BMatC= 1.20D-10 BMatP= 3.63D-10
 IDIUse=1 WtCom= 1.00D+00 WtEn= 0.00D+00
 Coeff-Com:  0.375D-03-0.193D-03-0.140D-01-0.126D-01 0.318D-01 0.387D+00
 Coeff-Com:  0.607D+00
 Coeff:      0.375D-03-0.193D-03-0.140D-01-0.126D-01 0.318D-01 0.387D+00
 Coeff:      0.607D+00
 Gap=     0.395 Goal=   None    Shift=    0.000
 RMSDP=1.04D-07 MaxDP=2.39D-06 DE=-3.01D-10 OVMax= 3.52D-06

 Cycle   8  Pass 1  IDiag  1:
 E= -271.515942214607     Delta-E=       -0.000000000102 Rises=F Damp=F
 DIIS: error= 2.36D-07 at cycle   8 NSaved=   8.
 NSaved= 8 IEnMin= 8 EnMin= -271.515942214607     IErMin= 8 ErrMin= 2.36D-07
 ErrMax= 2.36D-07  0.00D+00 EMaxC= 1.00D-01 BMatC= 9.62D-12 BMatP= 1.20D-10
 IDIUse=1 WtCom= 1.00D+00 WtEn= 0.00D+00
 Coeff-Com: -0.349D-03 0.289D-02-0.330D-02-0.812D-02-0.292D-01 0.623D-01
 Coeff-Com:  0.267D+00 0.708D+00
 Coeff:     -0.349D-03 0.289D-02-0.330D-02-0.812D-02-0.292D-01 0.623D-01
 Coeff:      0.267D+00 0.708D+00
 Gap=     0.395 Goal=   None    Shift=    0.000
 RMSDP=3.25D-08 MaxDP=7.55D-07 DE=-1.02D-10 OVMax= 1.09D-06

 Cycle   9  Pass 1  IDiag  1:
 E= -271.515942214613     Delta-E=       -0.000000000006 Rises=F Damp=F
 DIIS: error= 3.42D-08 at cycle   9 NSaved=   9.
 NSaved= 9 IEnMin= 9 EnMin= -271.515942214613     IErMin= 9 ErrMin= 3.42D-08
 ErrMax= 3.42D-08  0.00D+00 EMaxC= 1.00D-01 BMatC= 1.40D-13 BMatP= 9.62D-12
 IDIUse=1 WtCom= 1.00D+00 WtEn= 0.00D+00
 Coeff-Com: -0.383D-04 0.168D-03 0.550D-03 0.452D-04-0.503D-02-0.179D-01
 Coeff-Com: -0.584D-02 0.710D-01 0.957D+00
 Coeff:     -0.383D-04 0.168D-03 0.550D-03 0.452D-04-0.503D-02-0.179D-01
 Coeff:     -0.584D-02 0.710D-01 0.957D+00
 Gap=     0.395 Goal=   None    Shift=    0.000
 RMSDP=1.06D-08 MaxDP=2.82D-07 DE=-6.37D-12 OVMax= 2.59D-07

 Cycle  10  Pass 1  IDiag  1:
 E= -271.515942214617     Delta-E=       -0.000000000004 Rises=F Damp=F
 DIIS: error= 9.25D-09 at cycle  10 NSaved=  10.
 NSaved=10 IEnMin=10 EnMin= -271.515942214617     IErMin=10 ErrMin= 9.25D-09
 ErrMax= 9.25D-09  0.00D+00 EMaxC= 1.00D-01 BMatC= 1.21D-14 BMatP= 1.40D-13
 IDIUse=1 WtCom= 1.00D+00 WtEn= 0.00D+00
 Coeff-Com:  0.157D-04-0.162D-03 0.355D-03 0.539D-03 0.743D-03-0.806D-02
 Coeff-Com: -0.195D-01-0.310D-01 0.187D+00 0.870D+00
 Coeff:      0.157D-04-0.162D-03 0.355D-03 0.539D-03 0.743D-03-0.806D-02
 Coeff:     -0.195D-01-0.310D-01 0.187D+00 0.870D+00
 Gap=     0.395 Goal=   None    Shift=    0.000
 RMSDP=3.04D-09 MaxDP=7.88D-08 DE=-4.09D-12 OVMax= 8.79D-08

 SCF Done:  E(RwB97XD) =  -271.515942215     A.U. after   10 cycles
            NFock= 10  Conv=0.30D-08     -V/T= 2.0078
 KE= 2.694082905139D+02 PE=-1.020577770192D+03 EE= 2.810295750007D+02
 Leave Link  502 at Thu Aug  7 18:42:18 2025, MaxMem=   104857600 cpu:               6.2 elap:               6.2
 (Enter /Applications/g16/l701.exe)
 ... and contract with generalized density number  0.
 Compute integral first derivatives.
 R6Disp: Adding Grimme-D2 dispersion energy 1st derivatives to the gradient.
 Leave Link  701 at Thu Aug  7 18:42:18 2025, MaxMem=   104857600 cpu:               0.0 elap:               0.0
 (Enter /Applications/g16/l702.exe)
 L702 exits ... SP integral derivatives will be done elsewhere.
 Leave Link  702 at Thu Aug  7 18:42:18 2025, MaxMem=   104857600 cpu:               0.0 elap:               0.0
 (Enter /Applications/g16/l703.exe)
 Integral derivatives from FoFJK, PRISM(SPDF).
 Compute integral first derivatives, UseDBF=F ICtDFT=           0.
 Calling FoFJK, ICntrl=      2127 FMM=F ISym2X=0 I1Cent= 0 IOpClX= 0 NMat=1 NMatS=1 NMatT=0.
 FoFJK:  IHMeth= 1 ICntrl=    2127 DoSepK=T KAlg= 0 I1Cent=           0 FoldK=F
 IRaf=         1 NMat=       1 IRICut=       1 DoRegI=T DoRafI=F ISym2E= 0 IDoP0=0 IntGTp=1.
 FoFCou: FMM=F IPFlag=           0 FMFlag=      100000 FMFlg1=         800
         NFxFlg=           0 DoJE=F BraDBF=F KetDBF=F FulRan=T
         wScrn=  0.000000 ICntrl=      2527 IOpCl=  0 I1Cent=           0 NGrid=           0
         NMat0=    1 NMatS0=      1 NMatT0=    0 NMatD0=    1 NMtDS0=    0 NMtDT0=    0
 Symmetry not used in FoFCou.
 Leave Link  703 at Thu Aug  7 18:42:20 2025, MaxMem=   104857600 cpu:               2.4 elap:               2.4
 (Enter /Applications/g16/l716.exe)
 Dipole        =-6.15719228D+00 5.06677600D-01 1.48536790D-04
 ***** Axes restored to original set *****
 -------------------------------------------------------------------
 Center     Atomic                   Forces (Hartrees/Bohr)
 Number     Number              X              Y              Z
 -------------------------------------------------------------------
      1        7          -0.000111312   -0.000245482   -0.000051466
      2        6           0.000229347    0.000558081    0.000106665
      3        6          -0.000038611   -0.000306340   -0.000054312
      4        6          -0.000060872    0.000035110    0.000018672
      5        6          -0.000675450    0.000068484   -0.000039090
      6        7           0.137685631   -0.030234960   -0.000012345
      7        1           0.000023924    0.000014396    0.000017435
      8        1           0.000038326    0.000014544   -0.000018233
      9        1           0.000022573   -0.000025064   -0.000005626
     10        1           0.000046376   -0.000027496    0.000007541
     11        3          -0.137159931    0.030148727    0.000030758
 -------------------------------------------------------------------
 Cartesian Forces:  Max     0.137685631 RMS     0.034638524
 Leave Link  716 at Thu Aug  7 18:42:20 2025, MaxMem=   104857600 cpu:               0.0 elap:               0.0
 (Enter /Applications/g16/l103.exe)

 GradGradGradGradGradGradGradGradGradGradGradGradGradGradGradGradGradGrad
 Berny optimization.
 Using GEDIIS/GDIIS optimizer.
 FormGI is forming the generalized inverse of G from B-inverse, IUseBI=4.
 Internal  Forces:  Max     0.140434240 RMS     0.023087688
 Search for a local minimum.
 Step number   3 out of a maximum of   47
 All quantities printed in internal units (Hartrees-Bohrs-Radians)
 RMS Force = .14470D-03 SwitMx=.10000D-02 MixMth= 2
 Mixed Optimization -- En-DIIS/RFO-DIIS
 Swapping is turned off.
 Update second derivatives using D2CorX and points    1    2    3
 DE=  2.27D-06 DEPred=-9.06D-07 R=-2.50D+00
 Trust test=-2.50D+00 RLast= 1.01D-02 DXMaxT set to 1.50D-01
 ITU= -1  1  0
     Eigenvalues ---    0.00230   0.01259   0.04226   0.04906   0.05315
     Eigenvalues ---    0.05486   0.05652   0.05789   0.06013   0.06061
     Eigenvalues ---    0.06975   0.15462   0.16000   0.16013   0.16536
     Eigenvalues ---    0.20621   0.23264   0.26472   0.30466   0.34136
     Eigenvalues ---    0.34319   0.34340   0.34458   0.36730   1.01596
     Eigenvalues ---    1.305401000.000001000.000001000.000001000.00000
     Eigenvalues --- 1000.000001000.000001000.000001000.000001000.00000
     Eigenvalues --- 1000.000001000.00000
 En-DIIS/RFO-DIIS/Sim-DIIS IScMMF=       -3 using points:     3    2    1
 RFO step:  Lambda=-2.49261977D-05.
 NNeg= 0 NGDIIS= 3 SimSw=  2.50D-03 Rises=T DC=  2.27D-06 SmlDif=  1.00D-05
 NRisDI= 1 DoIntr=F SqrtH=F CThrHd= 10.0 CDAdj=  3.0
 RMS Error=  0.1363524173D-02 NUsed= 3 OKEnD=T EnDIS=T
 InvSVX:  RCond= 1.72D-05 Info=           0 Equed=N FErr=  1.68D-15 BErr=  6.79D-17
 EnCoef did     2 forward-backward iterations
 IWarn =    0
 DidBck=T Rises=T En-DIIS coefs:    0.34764    0.39417    0.25819
 Iteration  1 RMS(Cart)=  0.00301358 RMS(Int)=  0.00001404
 Iteration  2 RMS(Cart)=  0.00001353 RMS(Int)=  0.00000006
 Iteration  3 RMS(Cart)=  0.00000000 RMS(Int)=  0.00000006
 Iteration  1 RMS(Cart)=  0.00000000 RMS(Int)=  0.00000000
 ITry= 1 IFail=0 DXMaxC= 1.35D-02 DCOld= 1.00D+10 DXMaxT= 1.50D-01 DXLimC= 3.00D+00 Rises=F
 Variable       Old X    -DE/DX   Delta X   Delta X   Delta X     New X
                                 (Linear)    (Quad)   (Total)
    R1        2.18430  -0.00003   0.00001  -0.00002  -0.00001   2.18429
    R2        2.76312   0.00002   0.00004  -0.00002   0.00002   2.76314
    R3        2.92882   0.00005  -0.00032   0.00053   0.00021   2.92902
    R4        2.06761  -0.00001   0.00001  -0.00004  -0.00003   2.06758
    R5        2.06761  -0.00002   0.00001  -0.00004  -0.00003   2.06757
    R6        2.75067   0.00014   0.00103  -0.00144  -0.00041   2.75026
    R7        2.07146  -0.00002  -0.00017   0.00024   0.00008   2.07154
    R8        2.07146  -0.00002  -0.00016   0.00024   0.00008   2.07154
    R9        2.18885  -0.00053  -0.00076   0.00098   0.00023   2.18908
   R10        2.83459   0.14043  -0.00000   0.00000   0.00000   2.83459
    A1        1.90387   0.00023   0.00064  -0.00070  -0.00006   1.90381
    A2        1.90539  -0.00009  -0.00028   0.00041   0.00013   1.90552
    A3        1.90540  -0.00011  -0.00028   0.00031   0.00003   1.90543
    A4        1.93108  -0.00004   0.00005  -0.00018  -0.00014   1.93095
    A5        1.93108  -0.00002   0.00005  -0.00018  -0.00012   1.93096
    A6        1.88668   0.00002  -0.00019   0.00036   0.00017   1.88684
    A7        1.95475   0.00007  -0.00011   0.00032   0.00021   1.95496
    A8        1.93563  -0.00004  -0.00016   0.00004  -0.00012   1.93551
    A9        1.93564  -0.00005  -0.00016   0.00004  -0.00013   1.93551
   A10        1.87884  -0.00000   0.00021  -0.00014   0.00007   1.87891
   A11        1.87878   0.00001   0.00024  -0.00015   0.00009   1.87887
   A12        1.87704   0.00002   0.00001  -0.00014  -0.00013   1.87691
   A13        3.12092  -0.00058  -0.00546  -0.00373  -0.00919   3.11174
   A14        3.13737  -0.00009  -0.00064   0.00092   0.00028   3.13765
   A15        3.17861   0.00002  -0.00099   0.00180   0.00081   3.17943
   A16        3.12862  -0.00011  -0.00164   0.00076  -0.00089   3.12773
   A17        3.13876  -0.00000   0.00008  -0.00006   0.00002   3.13878
   A18        3.11362  -0.00001   0.00025  -0.00048  -0.00023   3.11339
    D1        3.14154  -0.00000   0.00004  -0.00012  -0.00008   3.14147
    D2       -1.04222   0.00001   0.00012  -0.00005   0.00008  -1.04214
    D3        1.04219  -0.00003  -0.00008  -0.00017  -0.00025   1.04194
    D4       -1.04533   0.00001   0.00012  -0.00017  -0.00004  -1.04537
    D5        1.05409   0.00003   0.00021  -0.00010   0.00011   1.05421
    D6        3.13851  -0.00001   0.00001  -0.00022  -0.00021   3.13829
    D7        1.04522  -0.00000  -0.00005   0.00005  -0.00000   1.04522
    D8       -3.13854   0.00001   0.00003   0.00012   0.00015  -3.13839
    D9       -1.05413  -0.00002  -0.00017  -0.00001  -0.00017  -1.05430
         Item               Value     Threshold  Converged?
 Maximum Force            0.000582     0.000450     NO 
 RMS     Force            0.000145     0.000300     YES
 Maximum Displacement     0.013505     0.001800     NO 
 RMS     Displacement     0.003014     0.001200     NO 
 Predicted change in Energy=-2.465724D-06
 GradGradGradGradGradGradGradGradGradGradGradGradGradGradGradGradGradGrad

 Leave Link  103 at Thu Aug  7 18:42:20 2025, MaxMem=   104857600 cpu:               0.0 elap:               0.0
 (Enter /Applications/g16/l202.exe)
                          Input orientation:                          
 ---------------------------------------------------------------------
 Center     Atomic      Atomic             Coordinates (Angstroms)
 Number     Number       Type             X           Y           Z
 ---------------------------------------------------------------------
      1          7           0        3.259735   -0.182481   -0.001283
      2          6           0        2.167992    0.197182    0.000402
      3          6           0        0.772323    0.633196    0.000196
      4          6           0       -0.148094   -0.613900    0.000215
      5          6           0       -1.557634   -0.251521    0.000186
      6          7           0       -2.678250    0.041964   -0.000330
      7          1           0        0.035417   -1.235313   -0.884005
      8          1           0        0.035355   -1.235239    0.884500
      9          1           0        0.588084    1.248390   -0.885626
     10          1           0        0.587958    1.248517    0.885900
     11          3           0       -4.143782    0.361678   -0.000142
 ---------------------------------------------------------------------
                    Distance matrix (angstroms):
                    1          2          3          4          5
     1  N    0.000000
     2  C    1.155876   0.000000
     3  C    2.617738   1.462190   0.000000
     4  C    3.435029   2.453999   1.549973   0.000000
     5  C    4.817864   3.752549   2.492273   1.455377   0.000000
     6  N    5.942226   4.848727   3.500858   2.613780   1.158410
     7  H    3.504837   2.717001   2.194576   1.096209   2.070616
     8  H    3.505644   2.716910   2.194576   1.096210   2.070586
     9  H    3.157084   2.094324   1.094115   2.189703   2.763784
    10  H    3.158044   2.094259   1.094113   2.189705   2.763724
    11  Li   7.423488   6.313917   4.923597   4.113061   2.657851
                    6          7          8          9         10
     6  N    0.000000
     7  H    3.126708   0.000000
     8  H    3.126951   1.768505   0.000000
     9  H    3.592791   2.544450   3.099560   0.000000
    10  H    3.592950   3.099561   2.544488   1.771526   0.000000
    11  Li   1.500000   4.560405   4.560474   4.894986   4.894989
                   11
    11  Li   0.000000
 Stoichiometry    C4H4LiN2(1+)
 Framework group  C1[X(C4H4LiN2)]
 Deg. of freedom    27
 Full point group                 C1      NOp   1
 RotChk:  IX=0 Diff= 6.69D-04
 Largest Abelian subgroup         C1      NOp   1
 Largest concise Abelian subgroup C1      NOp   1
                         Standard orientation:                         
 ---------------------------------------------------------------------
 Center     Atomic      Atomic             Coordinates (Angstroms)
 Number     Number       Type             X           Y           Z
 ---------------------------------------------------------------------
      1          7           0        3.252929   -0.185729   -0.001172
      2          6           0        2.161781    0.195639    0.000512
      3          6           0        0.766794    0.633832    0.000306
      4          6           0       -0.155570   -0.611825    0.000325
      5          6           0       -1.564542   -0.247244    0.000296
      6          7           0       -2.684698    0.047991   -0.000220
      7          1           0        0.026970   -1.233524   -0.883895
      8          1           0        0.026909   -1.233449    0.884610
      9          1           0        0.583516    1.249313   -0.885516
     10          1           0        0.583391    1.249441    0.886010
     11          3           0       -4.149728    0.369994   -0.000032
 ---------------------------------------------------------------------
 Rotational constants (GHZ):          23.6916467           1.0839334           1.0501120
 Leave Link  202 at Thu Aug  7 18:42:20 2025, MaxMem=   104857600 cpu:               0.0 elap:               0.0
 (Enter /Applications/g16/l301.exe)
 Standard basis: 6-31G(d) (6D, 7F)
 Ernie: Thresh=  0.10000D-02 Tol=  0.10000D-05 Strict=F.
 There are   113 symmetry adapted cartesian basis functions of A   symmetry.
 There are   113 symmetry adapted basis functions of A   symmetry.
   113 basis functions,   212 primitive gaussians,   113 cartesian basis functions
    22 alpha electrons       22 beta electrons
       nuclear repulsion energy       198.6433762166 Hartrees.
 IExCor= 4639 DFT=T Ex+Corr=wB97XD ExCW=0 ScaHFX=  1.000000
 ScaDFX=  1.000000  1.000000  1.000000  1.000000 ScalE2=  1.000000  1.000000
 IRadAn=      5 IRanWt=     -1 IRanGd=            0 ICorTp=0 IEmpDi=121
 HFx  wShort=  0.000000 wLong=  0.200000 cFull=  0.222036 cShort=  0.000000 cLong=  0.777964
 DFx  wShort=  0.000000 wLong=  0.200000 cFull=  0.000000 cShort=  0.000000 cLong=  1.000000
 NAtoms=   11 NActive=   11 NUniq=   11 SFac= 1.00D+00 NAtFMM=   60 NAOKFM=F Big=F
 Integral buffers will be    131072 words long.
 Raffenetti 2 integral format.
 Two-electron integral symmetry is turned on.
 R6Disp:  Grimme-D2 Dispersion energy=       -0.0048574175 Hartrees.
 Nuclear repulsion after empirical dispersion term =      198.6385187992 Hartrees.
 Leave Link  301 at Thu Aug  7 18:42:20 2025, MaxMem=   104857600 cpu:               0.0 elap:               0.0
 (Enter /Applications/g16/l302.exe)
 NPDir=0 NMtPBC=     1 NCelOv=     1 NCel=       1 NClECP=     1 NCelD=      1
         NCelK=      1 NCelE2=     1 NClLst=     1 CellRange=     0.0.
 One-electron integrals computed using PRISM.
 One-electron integral symmetry used in STVInt
 NBasis=   113 RedAO= T EigKep=  8.03D-04  NBF=   113
 NBsUse=   113 1.00D-06 EigRej= -1.00D+00 NBFU=   113
 Precomputing XC quadrature grid using
 IXCGrd= 4 IRadAn=           5 IRanWt=          -1 IRanGd=           0 AccXCQ= 0.00D+00.
 Generated NRdTot=       0 NPtTot=           0 NUsed=           0 NTot=          32
 NSgBfM=   113   113   113   113   113 MxSgAt=    11 MxSgA2=    11.
 Leave Link  302 at Thu Aug  7 18:42:20 2025, MaxMem=   104857600 cpu:               0.1 elap:               0.1
 (Enter /Applications/g16/l303.exe)
 DipDrv:  MaxL=1.
 Leave Link  303 at Thu Aug  7 18:42:20 2025, MaxMem=   104857600 cpu:               0.0 elap:               0.0
 (Enter /Applications/g16/l401.exe)
 Initial guess from the checkpoint file:  "/Users/srak/g16_scratch/Gau-74187.chk"
 B after Tr=    -0.000000    0.000000    0.000000
         Rot=    1.000000    0.000021   -0.000034   -0.000026 Ang=   0.01 deg.
 Guess basis will be translated and rotated to current coordinates.
 JPrj=2 DoOrth=T DoCkMO=T.
 Leave Link  401 at Thu Aug  7 18:42:20 2025, MaxMem=   104857600 cpu:               0.0 elap:               0.0
 (Enter /Applications/g16/l502.exe)
 Keep R1 ints in memory in canonical form, NReq=43174005.
 FoFCou: FMM=F IPFlag=           0 FMFlag=           0 FMFlg1=           0
         NFxFlg=           0 DoJE=F BraDBF=F KetDBF=F FulRan=T
         wScrn=  0.000000 ICntrl=       600 IOpCl=  0 I1Cent=           0 NGrid=           0
         NMat0=    1 NMatS0=   6441 NMatT0=    0 NMatD0=    1 NMtDS0=    0 NMtDT0=    0
 Symmetry not used in FoFCou.
 Two-electron integral symmetry not used.
 Closed shell SCF:
 Using DIIS extrapolation, IDIIS=  1040.
 NGot=   104857600 LenX=    63336875 LenY=    63323665
 Requested convergence on RMS density matrix=1.00D-08 within 128 cycles.
 Requested convergence on MAX density matrix=1.00D-06.
 Requested convergence on             energy=1.00D-06.
 No special actions if energy rises.

 Cycle   1  Pass 1  IDiag  1:
 E= -271.515898195388    
 DIIS: error= 5.70D-04 at cycle   1 NSaved=   1.
 NSaved= 1 IEnMin= 1 EnMin= -271.515898195388     IErMin= 1 ErrMin= 5.70D-04
 ErrMax= 5.70D-04  0.00D+00 EMaxC= 1.00D-01 BMatC= 2.68D-05 BMatP= 2.68D-05
 IDIUse=3 WtCom= 9.94D-01 WtEn= 5.70D-03
 Coeff-Com:  0.100D+01
 Coeff-En:   0.100D+01
 Coeff:      0.100D+01
 Gap=     1.351 Goal=   None    Shift=    0.000
 RMSDP=6.98D-05 MaxDP=1.80D-03              OVMax= 2.65D-03

 Cycle   2  Pass 1  IDiag  1:
 E= -271.515941023086     Delta-E=       -0.000042827698 Rises=F Damp=F
 DIIS: error= 9.62D-05 at cycle   2 NSaved=   2.
 NSaved= 2 IEnMin= 2 EnMin= -271.515941023086     IErMin= 2 ErrMin= 9.62D-05
 ErrMax= 9.62D-05  0.00D+00 EMaxC= 1.00D-01 BMatC= 1.16D-06 BMatP= 2.68D-05
 IDIUse=1 WtCom= 1.00D+00 WtEn= 0.00D+00
 Coeff-Com: -0.190D+00 0.119D+01
 Coeff:     -0.190D+00 0.119D+01
 Gap=     0.395 Goal=   None    Shift=    0.000
 RMSDP=2.13D-05 MaxDP=4.99D-04 DE=-4.28D-05 OVMax= 1.07D-03

 Cycle   3  Pass 1  IDiag  1:
 E= -271.515944064796     Delta-E=       -0.000003041710 Rises=F Damp=F
 DIIS: error= 2.64D-05 at cycle   3 NSaved=   3.
 NSaved= 3 IEnMin= 3 EnMin= -271.515944064796     IErMin= 3 ErrMin= 2.64D-05
 ErrMax= 2.64D-05  0.00D+00 EMaxC= 1.00D-01 BMatC= 5.71D-08 BMatP= 1.16D-06
 IDIUse=1 WtCom= 1.00D+00 WtEn= 0.00D+00
 Coeff-Com: -0.138D-01-0.316D-02 0.102D+01
 Coeff:     -0.138D-01-0.316D-02 0.102D+01
 Gap=     0.395 Goal=   None    Shift=    0.000
 RMSDP=5.05D-06 MaxDP=1.13D-04 DE=-3.04D-06 OVMax= 2.89D-04

 Cycle   4  Pass 1  IDiag  1:
 E= -271.515944170898     Delta-E=       -0.000000106102 Rises=F Damp=F
 DIIS: error= 2.46D-05 at cycle   4 NSaved=   4.
 NSaved= 4 IEnMin= 4 EnMin= -271.515944170898     IErMin= 4 ErrMin= 2.46D-05
 ErrMax= 2.46D-05  0.00D+00 EMaxC= 1.00D-01 BMatC= 6.03D-08 BMatP= 5.71D-08
 IDIUse=1 WtCom= 1.00D+00 WtEn= 0.00D+00
 Coeff-Com:  0.121D-01-0.129D+00 0.585D+00 0.532D+00
 Coeff:      0.121D-01-0.129D+00 0.585D+00 0.532D+00
 Gap=     0.395 Goal=   None    Shift=    0.000
 RMSDP=2.25D-06 MaxDP=5.49D-05 DE=-1.06D-07 OVMax= 9.41D-05

 Cycle   5  Pass 1  IDiag  1:
 E= -271.515944225338     Delta-E=       -0.000000054439 Rises=F Damp=F
 DIIS: error= 6.19D-06 at cycle   5 NSaved=   5.
 NSaved= 5 IEnMin= 5 EnMin= -271.515944225338     IErMin= 5 ErrMin= 6.19D-06
 ErrMax= 6.19D-06  0.00D+00 EMaxC= 1.00D-01 BMatC= 5.15D-09 BMatP= 5.71D-08
 IDIUse=1 WtCom= 1.00D+00 WtEn= 0.00D+00
 Coeff-Com:  0.105D-01-0.706D-01 0.338D-01 0.238D+00 0.788D+00
 Coeff:      0.105D-01-0.706D-01 0.338D-01 0.238D+00 0.788D+00
 Gap=     0.395 Goal=   None    Shift=    0.000
 RMSDP=8.92D-07 MaxDP=1.94D-05 DE=-5.44D-08 OVMax= 4.36D-05

 Cycle   6  Pass 1  IDiag  1:
 E= -271.515944231418     Delta-E=       -0.000000006081 Rises=F Damp=F
 DIIS: error= 6.40D-07 at cycle   6 NSaved=   6.
 NSaved= 6 IEnMin= 6 EnMin= -271.515944231418     IErMin= 6 ErrMin= 6.40D-07
 ErrMax= 6.40D-07  0.00D+00 EMaxC= 1.00D-01 BMatC= 9.86D-11 BMatP= 5.15D-09
 IDIUse=1 WtCom= 1.00D+00 WtEn= 0.00D+00
 Coeff-Com:  0.121D-02-0.529D-02-0.188D-01 0.102D-01 0.113D+00 0.900D+00
 Coeff:      0.121D-02-0.529D-02-0.188D-01 0.102D-01 0.113D+00 0.900D+00
 Gap=     0.395 Goal=   None    Shift=    0.000
 RMSDP=1.68D-07 MaxDP=3.09D-06 DE=-6.08D-09 OVMax= 6.99D-06

 Cycle   7  Pass 1  IDiag  1:
 E= -271.515944231507     Delta-E=       -0.000000000088 Rises=F Damp=F
 DIIS: error= 7.42D-07 at cycle   7 NSaved=   7.
 NSaved= 7 IEnMin= 7 EnMin= -271.515944231507     IErMin= 6 ErrMin= 6.40D-07
 ErrMax= 7.42D-07  0.00D+00 EMaxC= 1.00D-01 BMatC= 6.77D-11 BMatP= 9.86D-11
 IDIUse=1 WtCom= 1.00D+00 WtEn= 0.00D+00
 Coeff-Com: -0.358D-03 0.389D-02-0.117D-01-0.178D-01-0.213D-01 0.494D+00
 Coeff-Com:  0.554D+00
 Coeff:     -0.358D-03 0.389D-02-0.117D-01-0.178D-01-0.213D-01 0.494D+00
 Coeff:      0.554D+00
 Gap=     0.395 Goal=   None    Shift=    0.000
 RMSDP=6.73D-08 MaxDP=1.88D-06 DE=-8.81D-11 OVMax= 2.52D-06

 Cycle   8  Pass 1  IDiag  1:
 E= -271.515944231565     Delta-E=       -0.000000000059 Rises=F Damp=F
 DIIS: error= 2.05D-07 at cycle   8 NSaved=   8.
 NSaved= 8 IEnMin= 8 EnMin= -271.515944231565     IErMin= 8 ErrMin= 2.05D-07
 ErrMax= 2.05D-07  0.00D+00 EMaxC= 1.00D-01 BMatC= 5.08D-12 BMatP= 6.77D-11
 IDIUse=1 WtCom= 1.00D+00 WtEn= 0.00D+00
 Coeff-Com: -0.298D-03 0.234D-02-0.281D-02-0.962D-02-0.248D-01 0.125D+00
 Coeff-Com:  0.263D+00 0.648D+00
 Coeff:     -0.298D-03 0.234D-02-0.281D-02-0.962D-02-0.248D-01 0.125D+00
 Coeff:      0.263D+00 0.648D+00
 Gap=     0.395 Goal=   None    Shift=    0.000
 RMSDP=2.24D-08 MaxDP=4.54D-07 DE=-5.85D-11 OVMax= 5.69D-07

 Cycle   9  Pass 1  IDiag  1:
 E= -271.515944231567     Delta-E=       -0.000000000002 Rises=F Damp=F
 DIIS: error= 4.21D-08 at cycle   9 NSaved=   9.
 NSaved= 9 IEnMin= 9 EnMin= -271.515944231567     IErMin= 9 ErrMin= 4.21D-08
 ErrMax= 4.21D-08  0.00D+00 EMaxC= 1.00D-01 BMatC= 2.01D-13 BMatP= 5.08D-12
 IDIUse=1 WtCom= 1.00D+00 WtEn= 0.00D+00
 Coeff-Com: -0.252D-04 0.763D-04 0.741D-03-0.545D-03-0.448D-02-0.254D-01
 Coeff-Com:  0.261D-02 0.160D+00 0.867D+00
 Coeff:     -0.252D-04 0.763D-04 0.741D-03-0.545D-03-0.448D-02-0.254D-01
 Coeff:      0.261D-02 0.160D+00 0.867D+00
 Gap=     0.395 Goal=   None    Shift=    0.000
 RMSDP=9.62D-09 MaxDP=2.42D-07 DE=-2.39D-12 OVMax= 2.31D-07

 SCF Done:  E(RwB97XD) =  -271.515944232     A.U. after    9 cycles
            NFock=  9  Conv=0.96D-08     -V/T= 2.0078
 KE= 2.694075969966D+02 PE=-1.020606092910D+03 EE= 2.810440328829D+02
 Leave Link  502 at Thu Aug  7 18:42:26 2025, MaxMem=   104857600 cpu:               5.7 elap:               5.7
 (Enter /Applications/g16/l701.exe)
 ... and contract with generalized density number  0.
 Compute integral first derivatives.
 R6Disp: Adding Grimme-D2 dispersion energy 1st derivatives to the gradient.
 Leave Link  701 at Thu Aug  7 18:42:26 2025, MaxMem=   104857600 cpu:               0.0 elap:               0.0
 (Enter /Applications/g16/l702.exe)
 L702 exits ... SP integral derivatives will be done elsewhere.
 Leave Link  702 at Thu Aug  7 18:42:26 2025, MaxMem=   104857600 cpu:               0.0 elap:               0.0
 (Enter /Applications/g16/l703.exe)
 Integral derivatives from FoFJK, PRISM(SPDF).
 Compute integral first derivatives, UseDBF=F ICtDFT=           0.
 Calling FoFJK, ICntrl=      2127 FMM=F ISym2X=0 I1Cent= 0 IOpClX= 0 NMat=1 NMatS=1 NMatT=0.
 FoFJK:  IHMeth= 1 ICntrl=    2127 DoSepK=T KAlg= 0 I1Cent=           0 FoldK=F
 IRaf=         1 NMat=       1 IRICut=       1 DoRegI=T DoRafI=F ISym2E= 0 IDoP0=0 IntGTp=1.
 FoFCou: FMM=F IPFlag=           0 FMFlag=      100000 FMFlg1=         800
         NFxFlg=           0 DoJE=F BraDBF=F KetDBF=F FulRan=T
         wScrn=  0.000000 ICntrl=      2527 IOpCl=  0 I1Cent=           0 NGrid=           0
         NMat0=    1 NMatS0=      1 NMatT0=    0 NMatD0=    1 NMtDS0=    0 NMtDT0=    0
 Symmetry not used in FoFCou.
 Leave Link  703 at Thu Aug  7 18:42:28 2025, MaxMem=   104857600 cpu:               2.4 elap:               2.4
 (Enter /Applications/g16/l716.exe)
 Dipole        =-6.15547654D+00 5.06115886D-01 1.21629171D-03
 ***** Axes restored to original set *****
 -------------------------------------------------------------------
 Center     Atomic                   Forces (Hartrees/Bohr)
 Number     Number              X              Y              Z
 -------------------------------------------------------------------
      1        7           0.000026177    0.000020047    0.000060426
      2        6          -0.000020149   -0.000015895   -0.000129771
      3        6           0.000010885   -0.000063597    0.000070171
      4        6           0.000169028   -0.000027687    0.000027598
      5        6          -0.001057700    0.000178208   -0.000048832
      6        7           0.138012131   -0.030088235    0.000010063
      7        1           0.000020614    0.000029625    0.000033416
      8        1           0.000030290    0.000027735   -0.000035723
      9        1           0.000021561    0.000001517    0.000006083
     10        1          -0.000010073    0.000007753   -0.000007776
     11        3          -0.137202765    0.029930529    0.000014345
 -------------------------------------------------------------------
 Cartesian Forces:  Max     0.138012131 RMS     0.034673501
 Leave Link  716 at Thu Aug  7 18:42:28 2025, MaxMem=   104857600 cpu:               0.0 elap:               0.0
 (Enter /Applications/g16/l103.exe)

 GradGradGradGradGradGradGradGradGradGradGradGradGradGradGradGradGradGrad
 Berny optimization.
 Using GEDIIS/GDIIS optimizer.
 FormGI is forming the generalized inverse of G from B-inverse, IUseBI=4.
 Internal  Forces:  Max     0.140429403 RMS     0.023086911
 Search for a local minimum.
 Step number   4 out of a maximum of   47
 All quantities printed in internal units (Hartrees-Bohrs-Radians)
 RMS Force = .14761D-03 SwitMx=.10000D-02 MixMth= 2
 Mixed Optimization -- En-DIIS/RFO-DIIS
 Swapping is turned off.
 Update second derivatives using D2CorX and points    1    2    3    4
 DE= -2.02D-06 DEPred=-2.47D-06 R= 8.18D-01
 TightC=F SS=  1.41D+00  RLast= 9.31D-03 DXNew= 2.5227D-01 2.7921D-02
 Trust test= 8.18D-01 RLast= 9.31D-03 DXMaxT set to 1.50D-01
 ITU=  1 -1  1  0
     Eigenvalues ---    0.00230   0.01445   0.04765   0.04913   0.05313
     Eigenvalues ---    0.05585   0.05788   0.05906   0.06058   0.06758
     Eigenvalues ---    0.07186   0.15737   0.16008   0.16100   0.16368
     Eigenvalues ---    0.20838   0.23759   0.26881   0.33572   0.34136
     Eigenvalues ---    0.34307   0.34343   0.34990   0.36741   1.30539
     Eigenvalues ---    1.341401000.000001000.000001000.000001000.00000
     Eigenvalues --- 1000.000001000.000001000.000001000.000001000.00000
     Eigenvalues --- 1000.000001000.00000
 En-DIIS/RFO-DIIS/Sim-DIIS IScMMF=       -3 using points:     4    3    2    1
 RFO step:  Lambda=-2.08509161D-05.
 NNeg= 0 NGDIIS= 4 SimSw=  2.50D-03 Rises=T DC= -2.02D-06 SmlDif=  1.00D-05
 NRisDI= 2 DoIntr=T SqrtH=F CThrHd= 10.0 CDAdj=  3.0
 RMS Error=  0.4431886298D-03 NUsed= 4 OKEnD=T EnDIS=T
 InvSVX:  RCond= 5.37D-06 Info=           0 Equed=N FErr=  2.68D-15 BErr=  6.24D-17
 EnCoef did   100 forward-backward iterations
 IWarn =    2
 Energies =   -271.515940919      -271.515944484      -271.515942215      -271.515944232    
 Point number   1 has energy  -0.2715159409D+03 and has been removed
 EnCoef did     6 forward-backward iterations
 IWarn =    0
 DidBck=T Rises=T En-DIIS coefs:    0.13337    0.33139    0.53524    0.00000
 Iteration  1 RMS(Cart)=  0.00180410 RMS(Int)=  0.00000259
 Iteration  2 RMS(Cart)=  0.00000272 RMS(Int)=  0.00000001
 Iteration  3 RMS(Cart)=  0.00000000 RMS(Int)=  0.00000001
 Iteration  1 RMS(Cart)=  0.00000000 RMS(Int)=  0.00000000
 ITry= 1 IFail=0 DXMaxC= 6.55D-03 DCOld= 1.00D+10 DXMaxT= 1.50D-01 DXLimC= 3.00D+00 Rises=F
 Variable       Old X    -DE/DX   Delta X   Delta X   Delta X     New X
                                 (Linear)    (Quad)   (Total)
    R1        2.18429   0.00002   0.00001   0.00000   0.00001   2.18430
    R2        2.76314   0.00000  -0.00002   0.00000  -0.00002   2.76311
    R3        2.92902  -0.00002  -0.00028   0.00000  -0.00028   2.92874
    R4        2.06758  -0.00001   0.00004   0.00000   0.00004   2.06762
    R5        2.06757  -0.00000   0.00004   0.00000   0.00004   2.06762
    R6        2.75026   0.00025   0.00073   0.00000   0.00073   2.75099
    R7        2.07154  -0.00004  -0.00014   0.00000  -0.00014   2.07140
    R8        2.07154  -0.00004  -0.00014   0.00000  -0.00014   2.07140
    R9        2.18908  -0.00082  -0.00044   0.00000  -0.00044   2.18864
   R10        2.83459   0.14043  -0.00000   0.00000  -0.00000   2.83459
    A1        1.90381   0.00005   0.00036   0.00000   0.00036   1.90416
    A2        1.90552  -0.00004  -0.00032   0.00000  -0.00032   1.90521
    A3        1.90543  -0.00001  -0.00023   0.00000  -0.00023   1.90521
    A4        1.93095   0.00001   0.00021   0.00000   0.00021   1.93116
    A5        1.93096  -0.00001   0.00020   0.00000   0.00020   1.93116
    A6        1.88684  -0.00001  -0.00024   0.00000  -0.00024   1.88660
    A7        1.95496   0.00003  -0.00025   0.00000  -0.00025   1.95471
    A8        1.93551  -0.00003   0.00016   0.00000   0.00016   1.93567
    A9        1.93551  -0.00004   0.00016   0.00000   0.00016   1.93567
   A10        1.87891   0.00001  -0.00014   0.00000  -0.00014   1.87877
   A11        1.87887   0.00002  -0.00013   0.00000  -0.00013   1.87874
   A12        1.87691   0.00002   0.00021   0.00000   0.00021   1.87712
   A13        3.11174   0.00011   0.00297   0.00000   0.00297   3.11471
   A14        3.13765  -0.00012  -0.00108   0.00000  -0.00108   3.13657
   A15        3.17943  -0.00000  -0.00129   0.00000  -0.00129   3.17814
   A16        3.12773  -0.00008  -0.00086   0.00000  -0.00086   3.12688
   A17        3.13878  -0.00000  -0.00006   0.00000  -0.00006   3.13872
   A18        3.11339  -0.00001   0.00036   0.00000   0.00036   3.11375
    D1        3.14147   0.00001   0.00011   0.00000   0.00011   3.14157
    D2       -1.04214   0.00002  -0.00014   0.00000  -0.00014  -1.04228
    D3        1.04194  -0.00001   0.00033   0.00000   0.00033   1.04228
    D4       -1.04537   0.00000   0.00007   0.00000   0.00007  -1.04530
    D5        1.05421   0.00001  -0.00017   0.00000  -0.00017   1.05403
    D6        3.13829  -0.00001   0.00030   0.00000   0.00030   3.13860
    D7        1.04522  -0.00001   0.00003   0.00000   0.00003   1.04525
    D8       -3.13839   0.00000  -0.00021   0.00000  -0.00021  -3.13860
    D9       -1.05430  -0.00002   0.00026   0.00000   0.00026  -1.05404
         Item               Value     Threshold  Converged?
 Maximum Force            0.000823     0.000450     NO 
 RMS     Force            0.000148     0.000300     YES
 Maximum Displacement     0.006549     0.001800     NO 
 RMS     Displacement     0.001804     0.001200     NO 
 Predicted change in Energy=-4.036600D-07
 GradGradGradGradGradGradGradGradGradGradGradGradGradGradGradGradGradGrad

 Leave Link  103 at Thu Aug  7 18:42:28 2025, MaxMem=   104857600 cpu:               0.0 elap:               0.0
 (Enter /Applications/g16/l202.exe)
                          Input orientation:                          
 ---------------------------------------------------------------------
 Center     Atomic      Atomic             Coordinates (Angstroms)
 Number     Number       Type             X           Y           Z
 ---------------------------------------------------------------------
      1          7           0        3.260764   -0.179016    0.000111
      2          6           0        2.167833    0.197230   -0.000123
      3          6           0        0.771882    0.632296   -0.000092
      4          6           0       -0.148050   -0.614975   -0.000030
      5          6           0       -1.557988   -0.252596    0.000032
      6          7           0       -2.678101    0.041885    0.000046
      7          1           0        0.035297   -1.236263   -0.884281
      8          1           0        0.035352   -1.236220    0.884240
      9          1           0        0.587496    1.247639   -0.885805
     10          1           0        0.587549    1.247685    0.885600
     11          3           0       -4.142929    0.364807    0.000315
 ---------------------------------------------------------------------
                    Distance matrix (angstroms):
                    1          2          3          4          5
     1  N    0.000000
     2  C    1.155880   0.000000
     3  C    2.617778   1.462177   0.000000
     4  C    3.436579   2.454178   1.549825   0.000000
     5  C    4.819314   3.752877   2.492253   1.455762   0.000000
     6  N    5.942972   4.848424   3.500138   2.613929   1.158177
     7  H    3.507643   2.717416   2.194506   1.096136   2.070788
     8  H    3.507513   2.717416   2.194509   1.096136   2.070766
     9  H    3.156985   2.094101   1.094136   2.189738   2.763786
    10  H    3.156841   2.094101   1.094135   2.189737   2.763766
    11  Li   7.423639   6.312987   4.922085   4.113275   2.657651
                    6          7          8          9         10
     6  N    0.000000
     7  H    3.127015   0.000000
     8  H    3.127008   1.768521   0.000000
     9  H    3.592032   2.544541   3.099592   0.000000
    10  H    3.592023   3.099589   2.544544   1.771405   0.000000
    11  Li   1.500000   4.561086   4.560991   4.893007   4.892916
                   11
    11  Li   0.000000
 Stoichiometry    C4H4LiN2(1+)
 Framework group  C1[X(C4H4LiN2)]
 Deg. of freedom    27
 Full point group                 C1      NOp   1
 RotChk:  IX=2 Diff= 3.02D-04
 Largest Abelian subgroup         C1      NOp   1
 Largest concise Abelian subgroup C1      NOp   1
                         Standard orientation:                         
 ---------------------------------------------------------------------
 Center     Atomic      Atomic             Coordinates (Angstroms)
 Number     Number       Type             X           Y           Z
 ---------------------------------------------------------------------
      1          7           0        3.253830   -0.183218    0.000100
      2          6           0        2.161569    0.194968   -0.000135
      3          6           0        0.766393    0.632512   -0.000104
      4          6           0       -0.155752   -0.613123   -0.000042
      5          6           0       -1.565045   -0.248241    0.000021
      6          7           0       -2.684633    0.048229    0.000034
      7          1           0        0.026490   -1.234735   -0.884293
      8          1           0        0.026546   -1.234693    0.884228
      9          1           0        0.583099    1.248181   -0.885817
     10          1           0        0.583153    1.248227    0.885588
     11          3           0       -4.148886    0.373751    0.000303
 ---------------------------------------------------------------------
 Rotational constants (GHZ):          23.6822029           1.0838664           1.0500297
 Leave Link  202 at Thu Aug  7 18:42:28 2025, MaxMem=   104857600 cpu:               0.0 elap:               0.0
 (Enter /Applications/g16/l301.exe)
 Standard basis: 6-31G(d) (6D, 7F)
 Ernie: Thresh=  0.10000D-02 Tol=  0.10000D-05 Strict=F.
 There are   113 symmetry adapted cartesian basis functions of A   symmetry.
 There are   113 symmetry adapted basis functions of A   symmetry.
   113 basis functions,   212 primitive gaussians,   113 cartesian basis functions
    22 alpha electrons       22 beta electrons
       nuclear repulsion energy       198.6406306056 Hartrees.
 IExCor= 4639 DFT=T Ex+Corr=wB97XD ExCW=0 ScaHFX=  1.000000
 ScaDFX=  1.000000  1.000000  1.000000  1.000000 ScalE2=  1.000000  1.000000
 IRadAn=      5 IRanWt=     -1 IRanGd=            0 ICorTp=0 IEmpDi=121
 HFx  wShort=  0.000000 wLong=  0.200000 cFull=  0.222036 cShort=  0.000000 cLong=  0.777964
 DFx  wShort=  0.000000 wLong=  0.200000 cFull=  0.000000 cShort=  0.000000 cLong=  1.000000
 NAtoms=   11 NActive=   11 NUniq=   11 SFac= 1.00D+00 NAtFMM=   60 NAOKFM=F Big=F
 Integral buffers will be    131072 words long.
 Raffenetti 2 integral format.
 Two-electron integral symmetry is turned on.
 R6Disp:  Grimme-D2 Dispersion energy=       -0.0048571977 Hartrees.
 Nuclear repulsion after empirical dispersion term =      198.6357734078 Hartrees.
 Leave Link  301 at Thu Aug  7 18:42:29 2025, MaxMem=   104857600 cpu:               0.0 elap:               0.0
 (Enter /Applications/g16/l302.exe)
 NPDir=0 NMtPBC=     1 NCelOv=     1 NCel=       1 NClECP=     1 NCelD=      1
         NCelK=      1 NCelE2=     1 NClLst=     1 CellRange=     0.0.
 One-electron integrals computed using PRISM.
 One-electron integral symmetry used in STVInt
 NBasis=   113 RedAO= T EigKep=  8.03D-04  NBF=   113
 NBsUse=   113 1.00D-06 EigRej= -1.00D+00 NBFU=   113
 Precomputing XC quadrature grid using
 IXCGrd= 4 IRadAn=           5 IRanWt=          -1 IRanGd=           0 AccXCQ= 0.00D+00.
 Generated NRdTot=       0 NPtTot=           0 NUsed=           0 NTot=          32
 NSgBfM=   113   113   113   113   113 MxSgAt=    11 MxSgA2=    11.
 Leave Link  302 at Thu Aug  7 18:42:29 2025, MaxMem=   104857600 cpu:               0.1 elap:               0.1
 (Enter /Applications/g16/l303.exe)
 DipDrv:  MaxL=1.
 Leave Link  303 at Thu Aug  7 18:42:29 2025, MaxMem=   104857600 cpu:               0.0 elap:               0.0
 (Enter /Applications/g16/l401.exe)
 Initial guess from the checkpoint file:  "/Users/srak/g16_scratch/Gau-74187.chk"
 B after Tr=    -0.000000    0.000000   -0.000000
         Rot=    1.000000    0.000051    0.000026   -0.000001 Ang=   0.01 deg.
 Guess basis will be translated and rotated to current coordinates.
 JPrj=2 DoOrth=T DoCkMO=T.
 Leave Link  401 at Thu Aug  7 18:42:29 2025, MaxMem=   104857600 cpu:               0.0 elap:               0.0
 (Enter /Applications/g16/l502.exe)
 Keep R1 ints in memory in canonical form, NReq=43174005.
 FoFCou: FMM=F IPFlag=           0 FMFlag=           0 FMFlg1=           0
         NFxFlg=           0 DoJE=F BraDBF=F KetDBF=F FulRan=T
         wScrn=  0.000000 ICntrl=       600 IOpCl=  0 I1Cent=           0 NGrid=           0
         NMat0=    1 NMatS0=   6441 NMatT0=    0 NMatD0=    1 NMtDS0=    0 NMtDT0=    0
 Symmetry not used in FoFCou.
 Two-electron integral symmetry not used.
 Closed shell SCF:
 Using DIIS extrapolation, IDIIS=  1040.
 NGot=   104857600 LenX=    63336875 LenY=    63323665
 Requested convergence on RMS density matrix=1.00D-08 within 128 cycles.
 Requested convergence on MAX density matrix=1.00D-06.
 Requested convergence on             energy=1.00D-06.
 No special actions if energy rises.

 Cycle   1  Pass 1  IDiag  1:
 E= -271.515936151907    
 DIIS: error= 2.05D-04 at cycle   1 NSaved=   1.
 NSaved= 1 IEnMin= 1 EnMin= -271.515936151907     IErMin= 1 ErrMin= 2.05D-04
 ErrMax= 2.05D-04  0.00D+00 EMaxC= 1.00D-01 BMatC= 4.96D-06 BMatP= 4.96D-06
 IDIUse=3 WtCom= 9.98D-01 WtEn= 2.05D-03
 Coeff-Com:  0.100D+01
 Coeff-En:   0.100D+01
 Coeff:      0.100D+01
 Gap=     1.350 Goal=   None    Shift=    0.000
 RMSDP=2.91D-05 MaxDP=6.67D-04              OVMax= 1.06D-03

 Cycle   2  Pass 1  IDiag  1:
 E= -271.515944061567     Delta-E=       -0.000007909660 Rises=F Damp=F
 DIIS: error= 4.18D-05 at cycle   2 NSaved=   2.
 NSaved= 2 IEnMin= 2 EnMin= -271.515944061567     IErMin= 2 ErrMin= 4.18D-05
 ErrMax= 4.18D-05  0.00D+00 EMaxC= 1.00D-01 BMatC= 2.24D-07 BMatP= 4.96D-06
 IDIUse=1 WtCom= 1.00D+00 WtEn= 0.00D+00
 Coeff-Com: -0.175D+00 0.117D+01
 Coeff:     -0.175D+00 0.117D+01
 Gap=     0.395 Goal=   None    Shift=    0.000
 RMSDP=8.59D-06 MaxDP=1.80D-04 DE=-7.91D-06 OVMax= 4.15D-04

 Cycle   3  Pass 1  IDiag  1:
 E= -271.515944588123     Delta-E=       -0.000000526556 Rises=F Damp=F
 DIIS: error= 1.36D-05 at cycle   3 NSaved=   3.
 NSaved= 3 IEnMin= 3 EnMin= -271.515944588123     IErMin= 3 ErrMin= 1.36D-05
 ErrMax= 1.36D-05  0.00D+00 EMaxC= 1.00D-01 BMatC= 3.38D-08 BMatP= 2.24D-07
 IDIUse=1 WtCom= 1.00D+00 WtEn= 0.00D+00
 Coeff-Com: -0.621D-01 0.302D+00 0.760D+00
 Coeff:     -0.621D-01 0.302D+00 0.760D+00
 Gap=     0.395 Goal=   None    Shift=    0.000
 RMSDP=2.31D-06 MaxDP=6.07D-05 DE=-5.27D-07 OVMax= 9.09D-05

 Cycle   4  Pass 1  IDiag  1:
 E= -271.515944614250     Delta-E=       -0.000000026128 Rises=F Damp=F
 DIIS: error= 1.38D-05 at cycle   4 NSaved=   4.
 NSaved= 4 IEnMin= 4 EnMin= -271.515944614250     IErMin= 3 ErrMin= 1.36D-05
 ErrMax= 1.38D-05  0.00D+00 EMaxC= 1.00D-01 BMatC= 2.28D-08 BMatP= 3.38D-08
 IDIUse=1 WtCom= 1.00D+00 WtEn= 0.00D+00
 Coeff-Com:  0.720D-04-0.661D-01 0.463D+00 0.603D+00
 Coeff:      0.720D-04-0.661D-01 0.463D+00 0.603D+00
 Gap=     0.395 Goal=   None    Shift=    0.000
 RMSDP=1.20D-06 MaxDP=2.85D-05 DE=-2.61D-08 OVMax= 4.65D-05

 Cycle   5  Pass 1  IDiag  1:
 E= -271.515944636156     Delta-E=       -0.000000021906 Rises=F Damp=F
 DIIS: error= 2.20D-06 at cycle   5 NSaved=   5.
 NSaved= 5 IEnMin= 5 EnMin= -271.515944636156     IErMin= 5 ErrMin= 2.20D-06
 ErrMax= 2.20D-06  0.00D+00 EMaxC= 1.00D-01 BMatC= 8.04D-10 BMatP= 2.28D-08
 IDIUse=1 WtCom= 1.00D+00 WtEn= 0.00D+00
 Coeff-Com:  0.107D-01-0.728D-01 0.310D-02 0.156D+00 0.903D+00
 Coeff:      0.107D-01-0.728D-01 0.310D-02 0.156D+00 0.903D+00
 Gap=     0.395 Goal=   None    Shift=    0.000
 RMSDP=4.16D-07 MaxDP=5.48D-06 DE=-2.19D-08 OVMax= 2.33D-05

 Cycle   6  Pass 1  IDiag  1:
 E= -271.515944637430     Delta-E=       -0.000000001273 Rises=F Damp=F
 DIIS: error= 4.34D-07 at cycle   6 NSaved=   6.
 NSaved= 6 IEnMin= 6 EnMin= -271.515944637430     IErMin= 6 ErrMin= 4.34D-07
 ErrMax= 4.34D-07  0.00D+00 EMaxC= 1.00D-01 BMatC= 2.73D-11 BMatP= 8.04D-10
 IDIUse=1 WtCom= 1.00D+00 WtEn= 0.00D+00
 Coeff-Com:  0.230D-02-0.124D-01-0.210D-01 0.303D-02 0.176D+00 0.852D+00
 Coeff:      0.230D-02-0.124D-01-0.210D-01 0.303D-02 0.176D+00 0.852D+00
 Gap=     0.395 Goal=   None    Shift=    0.000
 RMSDP=8.28D-08 MaxDP=1.11D-06 DE=-1.27D-09 OVMax= 3.83D-06

 Cycle   7  Pass 1  IDiag  1:
 E= -271.515944637471     Delta-E=       -0.000000000041 Rises=F Damp=F
 DIIS: error= 1.61D-07 at cycle   7 NSaved=   7.
 NSaved= 7 IEnMin= 7 EnMin= -271.515944637471     IErMin= 7 ErrMin= 1.61D-07
 ErrMax= 1.61D-07  0.00D+00 EMaxC= 1.00D-01 BMatC= 3.20D-12 BMatP= 2.73D-11
 IDIUse=1 WtCom= 1.00D+00 WtEn= 0.00D+00
 Coeff-Com: -0.350D-03 0.329D-02-0.385D-02-0.117D-01-0.405D-01 0.216D+00
 Coeff-Com:  0.837D+00
 Coeff:     -0.350D-03 0.329D-02-0.385D-02-0.117D-01-0.405D-01 0.216D+00
 Coeff:      0.837D+00
 Gap=     0.395 Goal=   None    Shift=    0.000
 RMSDP=2.78D-08 MaxDP=4.12D-07 DE=-4.10D-11 OVMax= 8.82D-07

 Cycle   8  Pass 1  IDiag  1:
 E= -271.515944637475     Delta-E=       -0.000000000005 Rises=F Damp=F
 DIIS: error= 8.29D-08 at cycle   8 NSaved=   8.
 NSaved= 8 IEnMin= 8 EnMin= -271.515944637475     IErMin= 8 ErrMin= 8.29D-08
 ErrMax= 8.29D-08  0.00D+00 EMaxC= 1.00D-01 BMatC= 8.11D-13 BMatP= 3.20D-12
 IDIUse=1 WtCom= 1.00D+00 WtEn= 0.00D+00
 Coeff-Com: -0.301D-03 0.231D-02-0.693D-03-0.604D-02-0.308D-01 0.626D-01
 Coeff-Com:  0.422D+00 0.551D+00
 Coeff:     -0.301D-03 0.231D-02-0.693D-03-0.604D-02-0.308D-01 0.626D-01
 Coeff:      0.422D+00 0.551D+00
 Gap=     0.395 Goal=   None    Shift=    0.000
 RMSDP=9.26D-09 MaxDP=2.04D-07 DE=-4.77D-12 OVMax= 3.57D-07

 SCF Done:  E(RwB97XD) =  -271.515944637     A.U. after    8 cycles
            NFock=  8  Conv=0.93D-08     -V/T= 2.0078
 KE= 2.694085115905D+02 PE=-1.020601440612D+03 EE= 2.810412109759D+02
 Leave Link  502 at Thu Aug  7 18:42:34 2025, MaxMem=   104857600 cpu:               5.0 elap:               5.0
 (Enter /Applications/g16/l701.exe)
 ... and contract with generalized density number  0.
 Compute integral first derivatives.
 R6Disp: Adding Grimme-D2 dispersion energy 1st derivatives to the gradient.
 Leave Link  701 at Thu Aug  7 18:42:34 2025, MaxMem=   104857600 cpu:               0.0 elap:               0.0
 (Enter /Applications/g16/l702.exe)
 L702 exits ... SP integral derivatives will be done elsewhere.
 Leave Link  702 at Thu Aug  7 18:42:34 2025, MaxMem=   104857600 cpu:               0.0 elap:               0.0
 (Enter /Applications/g16/l703.exe)
 Integral derivatives from FoFJK, PRISM(SPDF).
 Compute integral first derivatives, UseDBF=F ICtDFT=           0.
 Calling FoFJK, ICntrl=      2127 FMM=F ISym2X=0 I1Cent= 0 IOpClX= 0 NMat=1 NMatS=1 NMatT=0.
 FoFJK:  IHMeth= 1 ICntrl=    2127 DoSepK=T KAlg= 0 I1Cent=           0 FoldK=F
 IRaf=         1 NMat=       1 IRICut=       1 DoRegI=T DoRafI=F ISym2E= 0 IDoP0=0 IntGTp=1.
 FoFCou: FMM=F IPFlag=           0 FMFlag=      100000 FMFlg1=         800
         NFxFlg=           0 DoJE=F BraDBF=F KetDBF=F FulRan=T
         wScrn=  0.000000 ICntrl=      2527 IOpCl=  0 I1Cent=           0 NGrid=           0
         NMat0=    1 NMatS0=      1 NMatT0=    0 NMatD0=    1 NMtDS0=    0 NMtDT0=    0
 Symmetry not used in FoFCou.
 Leave Link  703 at Thu Aug  7 18:42:36 2025, MaxMem=   104857600 cpu:               2.5 elap:               2.5
 (Enter /Applications/g16/l716.exe)
 Dipole        =-6.15572787D+00 5.08990496D-01 3.33754767D-04
 ***** Axes restored to original set *****
 -------------------------------------------------------------------
 Center     Atomic                   Forces (Hartrees/Bohr)
 Number     Number              X              Y              Z
 -------------------------------------------------------------------
      1        7          -0.000018353   -0.000047141   -0.000008325
      2        6           0.000054064    0.000093810    0.000017272
      3        6           0.000036270   -0.000032249   -0.000008756
      4        6          -0.000109277    0.000011568    0.000002863
      5        6          -0.000297994    0.000067338   -0.000005965
      6        7           0.137406509   -0.030272908   -0.000021118
      7        1           0.000043781    0.000000156    0.000008706
      8        1           0.000047425    0.000000041   -0.000009055
      9        1          -0.000008680   -0.000020522    0.000002518
     10        1          -0.000004718   -0.000020671   -0.000002119
     11        3          -0.137149026    0.030220578    0.000023979
 -------------------------------------------------------------------
 Cartesian Forces:  Max     0.137406509 RMS     0.034606124
 Leave Link  716 at Thu Aug  7 18:42:36 2025, MaxMem=   104857600 cpu:               0.0 elap:               0.0
 (Enter /Applications/g16/l103.exe)

 GradGradGradGradGradGradGradGradGradGradGradGradGradGradGradGradGradGrad
 Berny optimization.
 Using GEDIIS/GDIIS optimizer.
 FormGI is forming the generalized inverse of G from B-inverse, IUseBI=4.
 Internal  Forces:  Max     0.140439029 RMS     0.023088091
 Search for a local minimum.
 Step number   5 out of a maximum of   47
 All quantities printed in internal units (Hartrees-Bohrs-Radians)
 RMS Force = .51819D-04 SwitMx=.10000D-02 MixMth= 2
 Mixed Optimization -- En-DIIS/RFO-DIIS
 Swapping is turned off.
 Update second derivatives using D2CorX and points    1    2    3    4    5
 DE= -4.06D-07 DEPred=-4.04D-07 R= 1.01D+00
 Trust test= 1.01D+00 RLast= 3.79D-03 DXMaxT set to 1.50D-01
 ITU=  0  1 -1  1  0
     Eigenvalues ---    0.00230   0.01509   0.04556   0.04906   0.05315
     Eigenvalues ---    0.05591   0.05782   0.05856   0.06058   0.07135
     Eigenvalues ---    0.07943   0.15627   0.16009   0.16065   0.16215
     Eigenvalues ---    0.21889   0.23670   0.27394   0.33799   0.34136
     Eigenvalues ---    0.34303   0.34345   0.35543   0.36801   1.30538
     Eigenvalues ---    1.337051000.000001000.000001000.000001000.00000
     Eigenvalues --- 1000.000001000.000001000.000001000.000001000.00000
     Eigenvalues --- 1000.000001000.00000
 En-DIIS/RFO-DIIS/Sim-DIIS IScMMF=       -3 using points:     5    4    3    2    1
 RFO step:  Lambda=-2.01030563D-05.
 NNeg= 0 NGDIIS= 5 SimSw=  2.50D-03 Rises=F DC= -4.06D-07 SmlDif=  1.00D-05
 NRisDI= 0 DoIntr=F SqrtH=F CThrHd= 10.0 CDAdj=  3.0
 RMS Error=  0.4537585465D-03 NUsed= 5 OKEnD=F EnDIS=F
 InvSVX:  RCond= 1.46D-11 Info=           0 Equed=N FErr=  2.29D-10 BErr=  1.19D-16
 DIIS inversion failure, remove point   5.
 InvSVX:  RCond= 2.43D-11 Info=           0 Equed=N FErr=  1.44D-10 BErr=  8.51D-17
 DIIS inversion failure, remove point   4.
 InvSVX:  RCond= 8.48D-07 Info=           0 Equed=N FErr=  2.53D-15 BErr=  2.23D-17
 RFO-DIIS uses    3 points instead of    5
 DidBck=F Rises=F RFO-DIIS coefs:    1.10920    0.13560   -0.24480    0.00000    0.00000
 Iteration  1 RMS(Cart)=  0.00092789 RMS(Int)=  0.00000084
 Iteration  2 RMS(Cart)=  0.00000090 RMS(Int)=  0.00000005
 Iteration  1 RMS(Cart)=  0.00000000 RMS(Int)=  0.00000000
 ITry= 1 IFail=0 DXMaxC= 3.79D-03 DCOld= 1.00D+10 DXMaxT= 1.50D-01 DXLimC= 3.00D+00 Rises=F
 Variable       Old X    -DE/DX   Delta X   Delta X   Delta X     New X
                                 (Linear)    (Quad)   (Total)
    R1        2.18430  -0.00000  -0.00000   0.00000   0.00000   2.18430
    R2        2.76311   0.00002   0.00000   0.00005   0.00005   2.76317
    R3        2.92874   0.00001   0.00002   0.00005   0.00007   2.92882
    R4        2.06762  -0.00001  -0.00000  -0.00004  -0.00004   2.06758
    R5        2.06762  -0.00001  -0.00000  -0.00003  -0.00004   2.06758
    R6        2.75099   0.00004  -0.00002   0.00002  -0.00000   2.75099
    R7        2.07140   0.00000   0.00000   0.00002   0.00002   2.07142
    R8        2.07140   0.00000   0.00000   0.00002   0.00002   2.07142
    R9        2.18864  -0.00026   0.00001  -0.00015  -0.00014   2.18850
   R10        2.83459   0.14044   0.00000   0.00000   0.00000   2.83459
    A1        1.90416   0.00004   0.00002  -0.00002   0.00001   1.90417
    A2        1.90521  -0.00000  -0.00000   0.00011   0.00011   1.90532
    A3        1.90521  -0.00001  -0.00002   0.00017   0.00015   1.90536
    A4        1.93116  -0.00003  -0.00001  -0.00018  -0.00019   1.93097
    A5        1.93116  -0.00003  -0.00001  -0.00018  -0.00018   1.93097
    A6        1.88660   0.00002   0.00001   0.00010   0.00011   1.88671
    A7        1.95471   0.00003   0.00002   0.00022   0.00024   1.95495
    A8        1.93567  -0.00004  -0.00001  -0.00032  -0.00034   1.93534
    A9        1.93567  -0.00004  -0.00001  -0.00032  -0.00034   1.93534
   A10        1.87877   0.00002   0.00000   0.00032   0.00032   1.87909
   A11        1.87874   0.00003   0.00001   0.00036   0.00037   1.87910
   A12        1.87712   0.00001  -0.00001  -0.00023  -0.00024   1.87687
   A13        3.11471  -0.00011  -0.00192   0.00045  -0.00148   3.11324
   A14        3.13657   0.00001  -0.00005   0.00029   0.00024   3.13680
   A15        3.17814   0.00003   0.00006   0.00074   0.00080   3.17894
   A16        3.12688  -0.00002  -0.00031  -0.00108  -0.00139   3.12549
   A17        3.13872   0.00000  -0.00000   0.00010   0.00010   3.13882
   A18        3.11375  -0.00001  -0.00002  -0.00024  -0.00026   3.11349
    D1        3.14157  -0.00000  -0.00001   0.00007   0.00007  -3.14155
    D2       -1.04228   0.00002   0.00000   0.00041   0.00041  -1.04187
    D3        1.04228  -0.00002  -0.00002  -0.00031  -0.00033   1.04195
    D4       -1.04530   0.00001  -0.00000   0.00010   0.00009  -1.04520
    D5        1.05403   0.00002   0.00001   0.00043   0.00044   1.05447
    D6        3.13860  -0.00002  -0.00002  -0.00028  -0.00030   3.13829
    D7        1.04525  -0.00000   0.00000  -0.00001  -0.00001   1.04525
    D8       -3.13860   0.00002   0.00001   0.00032   0.00034  -3.13826
    D9       -1.05404  -0.00002  -0.00001  -0.00039  -0.00041  -1.05445
         Item               Value     Threshold  Converged?
 Maximum Force            0.000263     0.000450     YES
 RMS     Force            0.000052     0.000300     YES
 Maximum Displacement     0.003787     0.001800     NO 
 RMS     Displacement     0.000928     0.001200     YES
 Predicted change in Energy=-1.890039D-07
 Lowest energy point so far.  Saving SCF results.
 GradGradGradGradGradGradGradGradGradGradGradGradGradGradGradGradGradGrad

 Leave Link  103 at Thu Aug  7 18:42:36 2025, MaxMem=   104857600 cpu:               0.0 elap:               0.0
 (Enter /Applications/g16/l202.exe)
                          Input orientation:                          
 ---------------------------------------------------------------------
 Center     Atomic      Atomic             Coordinates (Angstroms)
 Number     Number       Type             X           Y           Z
 ---------------------------------------------------------------------
      1          7           0        3.260158   -0.181020    0.000438
      2          6           0        2.167975    0.197392   -0.000265
      3          6           0        0.772074    0.632711   -0.000149
      4          6           0       -0.148110   -0.614422   -0.000069
      5          6           0       -1.558067   -0.252125   -0.000012
      6          7           0       -2.678200    0.041995   -0.000029
      7          1           0        0.035627   -1.235707   -0.884254
      8          1           0        0.035720   -1.235666    0.884127
      9          1           0        0.587596    1.247981   -0.885867
     10          1           0        0.587710    1.248010    0.885575
     11          3           0       -4.143378    0.363323    0.000519
 ---------------------------------------------------------------------
                    Distance matrix (angstroms):
                    1          2          3          4          5
     1  N    0.000000
     2  C    1.155881   0.000000
     3  C    2.617771   1.462204   0.000000
     4  C    3.435714   2.454240   1.549865   0.000000
     5  C    4.818750   3.753059   2.492487   1.455760   0.000000
     6  N    5.942544   4.848666   3.500477   2.613855   1.158104
     7  H    3.506087   2.717005   2.194307   1.096147   2.071033
     8  H    3.505736   2.717042   2.194310   1.096148   2.071041
     9  H    3.157558   2.094189   1.094114   2.189623   2.763861
    10  H    3.157147   2.094218   1.094116   2.189623   2.763879
    11  Li   7.423521   6.313534   4.922829   4.113169   2.657558
                    6          7          8          9         10
     6  N    0.000000
     7  H    3.127176   0.000000
     8  H    3.127221   1.768381   0.000000
     9  H    3.592288   2.544283   3.099347   0.000000
    10  H    3.592344   3.099345   2.544276   1.771442   0.000000
    11  Li   1.500000   4.561119   4.560964   4.893916   4.893791
                   11
    11  Li   0.000000
 Stoichiometry    C4H4LiN2(1+)
 Framework group  C1[X(C4H4LiN2)]
 Deg. of freedom    27
 Full point group                 C1      NOp   1
 RotChk:  IX=2 Diff= 1.93D-04
 Largest Abelian subgroup         C1      NOp   1
 Largest concise Abelian subgroup C1      NOp   1
                         Standard orientation:                         
 ---------------------------------------------------------------------
 Center     Atomic      Atomic             Coordinates (Angstroms)
 Number     Number       Type             X           Y           Z
 ---------------------------------------------------------------------
      1          7           0        3.253339   -0.184637    0.000415
      2          6           0        2.161777    0.195565   -0.000288
      3          6           0        0.766592    0.633172   -0.000172
      4          6           0       -0.155636   -0.612451   -0.000092
      5          6           0       -1.564997   -0.247843   -0.000035
      6          7           0       -2.684646    0.048113   -0.000052
      7          1           0        0.027082   -1.234036   -0.884277
      8          1           0        0.027176   -1.233995    0.884104
      9          1           0        0.583123    1.248743   -0.885890
     10          1           0        0.583237    1.248773    0.885552
     11          3           0       -4.149296    0.371843    0.000496
 ---------------------------------------------------------------------
 Rotational constants (GHZ):          23.6855014           1.0838852           1.0500531
 Leave Link  202 at Thu Aug  7 18:42:36 2025, MaxMem=   104857600 cpu:               0.0 elap:               0.0
 (Enter /Applications/g16/l301.exe)
 Standard basis: 6-31G(d) (6D, 7F)
 Ernie: Thresh=  0.10000D-02 Tol=  0.10000D-05 Strict=F.
 There are   113 symmetry adapted cartesian basis functions of A   symmetry.
 There are   113 symmetry adapted basis functions of A   symmetry.
   113 basis functions,   212 primitive gaussians,   113 cartesian basis functions
    22 alpha electrons       22 beta electrons
       nuclear repulsion energy       198.6423447594 Hartrees.
 IExCor= 4639 DFT=T Ex+Corr=wB97XD ExCW=0 ScaHFX=  1.000000
 ScaDFX=  1.000000  1.000000  1.000000  1.000000 ScalE2=  1.000000  1.000000
 IRadAn=      5 IRanWt=     -1 IRanGd=            0 ICorTp=0 IEmpDi=121
 HFx  wShort=  0.000000 wLong=  0.200000 cFull=  0.222036 cShort=  0.000000 cLong=  0.777964
 DFx  wShort=  0.000000 wLong=  0.200000 cFull=  0.000000 cShort=  0.000000 cLong=  1.000000
 NAtoms=   11 NActive=   11 NUniq=   11 SFac= 1.00D+00 NAtFMM=   60 NAOKFM=F Big=F
 Integral buffers will be    131072 words long.
 Raffenetti 2 integral format.
 Two-electron integral symmetry is turned on.
 R6Disp:  Grimme-D2 Dispersion energy=       -0.0048573953 Hartrees.
 Nuclear repulsion after empirical dispersion term =      198.6374873641 Hartrees.
 Leave Link  301 at Thu Aug  7 18:42:36 2025, MaxMem=   104857600 cpu:               0.0 elap:               0.0
 (Enter /Applications/g16/l302.exe)
 NPDir=0 NMtPBC=     1 NCelOv=     1 NCel=       1 NClECP=     1 NCelD=      1
         NCelK=      1 NCelE2=     1 NClLst=     1 CellRange=     0.0.
 One-electron integrals computed using PRISM.
 One-electron integral symmetry used in STVInt
 NBasis=   113 RedAO= T EigKep=  8.03D-04  NBF=   113
 NBsUse=   113 1.00D-06 EigRej= -1.00D+00 NBFU=   113
 Precomputing XC quadrature grid using
 IXCGrd= 4 IRadAn=           5 IRanWt=          -1 IRanGd=           0 AccXCQ= 0.00D+00.
 Generated NRdTot=       0 NPtTot=           0 NUsed=           0 NTot=          32
 NSgBfM=   113   113   113   113   113 MxSgAt=    11 MxSgA2=    11.
 Leave Link  302 at Thu Aug  7 18:42:36 2025, MaxMem=   104857600 cpu:               0.1 elap:               0.1
 (Enter /Applications/g16/l303.exe)
 DipDrv:  MaxL=1.
 Leave Link  303 at Thu Aug  7 18:42:36 2025, MaxMem=   104857600 cpu:               0.0 elap:               0.0
 (Enter /Applications/g16/l401.exe)
 Initial guess from the checkpoint file:  "/Users/srak/g16_scratch/Gau-74187.chk"
 B after Tr=    -0.000000   -0.000000    0.000000
         Rot=    1.000000    0.000012    0.000010   -0.000003 Ang=   0.00 deg.
 Guess basis will be translated and rotated to current coordinates.
 JPrj=2 DoOrth=T DoCkMO=T.
 Leave Link  401 at Thu Aug  7 18:42:36 2025, MaxMem=   104857600 cpu:               0.0 elap:               0.0
 (Enter /Applications/g16/l502.exe)
 Keep R1 ints in memory in canonical form, NReq=43174005.
 FoFCou: FMM=F IPFlag=           0 FMFlag=           0 FMFlg1=           0
         NFxFlg=           0 DoJE=F BraDBF=F KetDBF=F FulRan=T
         wScrn=  0.000000 ICntrl=       600 IOpCl=  0 I1Cent=           0 NGrid=           0
         NMat0=    1 NMatS0=   6441 NMatT0=    0 NMatD0=    1 NMtDS0=    0 NMtDT0=    0
 Symmetry not used in FoFCou.
 Two-electron integral symmetry not used.
 Closed shell SCF:
 Using DIIS extrapolation, IDIIS=  1040.
 NGot=   104857600 LenX=    63336875 LenY=    63323665
 Requested convergence on RMS density matrix=1.00D-08 within 128 cycles.
 Requested convergence on MAX density matrix=1.00D-06.
 Requested convergence on             energy=1.00D-06.
 No special actions if energy rises.

 Cycle   1  Pass 1  IDiag  1:
 E= -271.515942305738    
 DIIS: error= 1.31D-04 at cycle   1 NSaved=   1.
 NSaved= 1 IEnMin= 1 EnMin= -271.515942305738     IErMin= 1 ErrMin= 1.31D-04
 ErrMax= 1.31D-04  0.00D+00 EMaxC= 1.00D-01 BMatC= 1.45D-06 BMatP= 1.45D-06
 IDIUse=3 WtCom= 9.99D-01 WtEn= 1.31D-03
 Coeff-Com:  0.100D+01
 Coeff-En:   0.100D+01
 Coeff:      0.100D+01
 Gap=     1.350 Goal=   None    Shift=    0.000
 RMSDP=1.64D-05 MaxDP=4.18D-04              OVMax= 5.99D-04

 Cycle   2  Pass 1  IDiag  1:
 E= -271.515944620326     Delta-E=       -0.000002314588 Rises=F Damp=F
 DIIS: error= 2.40D-05 at cycle   2 NSaved=   2.
 NSaved= 2 IEnMin= 2 EnMin= -271.515944620326     IErMin= 2 ErrMin= 2.40D-05
 ErrMax= 2.40D-05  0.00D+00 EMaxC= 1.00D-01 BMatC= 6.44D-08 BMatP= 1.45D-06
 IDIUse=1 WtCom= 1.00D+00 WtEn= 0.00D+00
 Coeff-Com: -0.177D+00 0.118D+01
 Coeff:     -0.177D+00 0.118D+01
 Gap=     0.395 Goal=   None    Shift=    0.000
 RMSDP=4.83D-06 MaxDP=1.14D-04 DE=-2.31D-06 OVMax= 2.36D-04

 Cycle   3  Pass 1  IDiag  1:
 E= -271.515944778978     Delta-E=       -0.000000158653 Rises=F Damp=F
 DIIS: error= 6.73D-06 at cycle   3 NSaved=   3.
 NSaved= 3 IEnMin= 3 EnMin= -271.515944778978     IErMin= 3 ErrMin= 6.73D-06
 ErrMax= 6.73D-06  0.00D+00 EMaxC= 1.00D-01 BMatC= 6.65D-09 BMatP= 6.44D-08
 IDIUse=1 WtCom= 1.00D+00 WtEn= 0.00D+00
 Coeff-Com: -0.478D-01 0.206D+00 0.841D+00
 Coeff:     -0.478D-01 0.206D+00 0.841D+00
 Gap=     0.395 Goal=   None    Shift=    0.000
 RMSDP=1.24D-06 MaxDP=2.49D-05 DE=-1.59D-07 OVMax= 5.71D-05

 Cycle   4  Pass 1  IDiag  1:
 E= -271.515944784726     Delta-E=       -0.000000005748 Rises=F Damp=F
 DIIS: error= 5.87D-06 at cycle   4 NSaved=   4.
 NSaved= 4 IEnMin= 4 EnMin= -271.515944784726     IErMin= 4 ErrMin= 5.87D-06
 ErrMax= 5.87D-06  0.00D+00 EMaxC= 1.00D-01 BMatC= 6.29D-09 BMatP= 6.65D-09
 IDIUse=1 WtCom= 1.00D+00 WtEn= 0.00D+00
 Coeff-Com:  0.506D-03-0.710D-01 0.521D+00 0.549D+00
 Coeff:      0.506D-03-0.710D-01 0.521D+00 0.549D+00
 Gap=     0.395 Goal=   None    Shift=    0.000
 RMSDP=6.34D-07 MaxDP=1.36D-05 DE=-5.75D-09 OVMax= 2.25D-05

 Cycle   5  Pass 1  IDiag  1:
 E= -271.515944790589     Delta-E=       -0.000000005862 Rises=F Damp=F
 DIIS: error= 1.38D-06 at cycle   5 NSaved=   5.
 NSaved= 5 IEnMin= 5 EnMin= -271.515944790589     IErMin= 5 ErrMin= 1.38D-06
 ErrMax= 1.38D-06  0.00D+00 EMaxC= 1.00D-01 BMatC= 2.82D-10 BMatP= 6.29D-09
 IDIUse=1 WtCom= 1.00D+00 WtEn= 0.00D+00
 Coeff-Com:  0.110D-01-0.740D-01 0.194D-02 0.172D+00 0.889D+00
 Coeff:      0.110D-01-0.740D-01 0.194D-02 0.172D+00 0.889D+00
 Gap=     0.395 Goal=   None    Shift=    0.000
 RMSDP=2.44D-07 MaxDP=4.58D-06 DE=-5.86D-09 OVMax= 1.33D-05

 Cycle   6  Pass 1  IDiag  1:
 E= -271.515944790992     Delta-E=       -0.000000000403 Rises=F Damp=F
 DIIS: error= 2.84D-07 at cycle   6 NSaved=   6.
 NSaved= 6 IEnMin= 6 EnMin= -271.515944790992     IErMin= 6 ErrMin= 2.84D-07
 ErrMax= 2.84D-07  0.00D+00 EMaxC= 1.00D-01 BMatC= 1.47D-11 BMatP= 2.82D-10
 IDIUse=1 WtCom= 1.00D+00 WtEn= 0.00D+00
 Coeff-Com:  0.352D-02-0.208D-01-0.173D-01 0.320D-01 0.268D+00 0.735D+00
 Coeff:      0.352D-02-0.208D-01-0.173D-01 0.320D-01 0.268D+00 0.735D+00
 Gap=     0.395 Goal=   None    Shift=    0.000
 RMSDP=5.06D-08 MaxDP=1.02D-06 DE=-4.03D-10 OVMax= 1.71D-06

 Cycle   7  Pass 1  IDiag  1:
 E= -271.515944791005     Delta-E=       -0.000000000014 Rises=F Damp=F
 DIIS: error= 2.27D-07 at cycle   7 NSaved=   7.
 NSaved= 7 IEnMin= 7 EnMin= -271.515944791005     IErMin= 7 ErrMin= 2.27D-07
 ErrMax= 2.27D-07  0.00D+00 EMaxC= 1.00D-01 BMatC= 8.37D-12 BMatP= 1.47D-11
 IDIUse=1 WtCom= 1.00D+00 WtEn= 0.00D+00
 Coeff-Com: -0.144D-03 0.268D-02-0.880D-02-0.154D-01-0.270D-01 0.448D+00
 Coeff-Com:  0.600D+00
 Coeff:     -0.144D-03 0.268D-02-0.880D-02-0.154D-01-0.270D-01 0.448D+00
 Coeff:      0.600D+00
 Gap=     0.395 Goal=   None    Shift=    0.000
 RMSDP=2.58D-08 MaxDP=5.80D-07 DE=-1.40D-11 OVMax= 7.67D-07

 Cycle   8  Pass 1  IDiag  1:
 E= -271.515944791013     Delta-E=       -0.000000000007 Rises=F Damp=F
 DIIS: error= 3.41D-08 at cycle   8 NSaved=   8.
 NSaved= 8 IEnMin= 8 EnMin= -271.515944791013     IErMin= 8 ErrMin= 3.41D-08
 ErrMax= 3.41D-08  0.00D+00 EMaxC= 1.00D-01 BMatC= 2.70D-13 BMatP= 8.37D-12
 IDIUse=1 WtCom= 1.00D+00 WtEn= 0.00D+00
 Coeff-Com: -0.334D-03 0.261D-02-0.142D-02-0.809D-02-0.335D-01 0.106D+00
 Coeff-Com:  0.226D+00 0.709D+00
 Coeff:     -0.334D-03 0.261D-02-0.142D-02-0.809D-02-0.335D-01 0.106D+00
 Coeff:      0.226D+00 0.709D+00
 Gap=     0.395 Goal=   None    Shift=    0.000
 RMSDP=5.95D-09 MaxDP=1.22D-07 DE=-7.05D-12 OVMax= 1.64D-07

 SCF Done:  E(RwB97XD) =  -271.515944791     A.U. after    8 cycles
            NFock=  8  Conv=0.59D-08     -V/T= 2.0078
 KE= 2.694086841167D+02 PE=-1.020605031790D+03 EE= 2.810429155183D+02
 Leave Link  502 at Thu Aug  7 18:42:41 2025, MaxMem=   104857600 cpu:               5.2 elap:               5.2
 (Enter /Applications/g16/l701.exe)
 ... and contract with generalized density number  0.
 Compute integral first derivatives.
 R6Disp: Adding Grimme-D2 dispersion energy 1st derivatives to the gradient.
 Leave Link  701 at Thu Aug  7 18:42:42 2025, MaxMem=   104857600 cpu:               0.0 elap:               0.0
 (Enter /Applications/g16/l702.exe)
 L702 exits ... SP integral derivatives will be done elsewhere.
 Leave Link  702 at Thu Aug  7 18:42:42 2025, MaxMem=   104857600 cpu:               0.0 elap:               0.0
 (Enter /Applications/g16/l703.exe)
 Integral derivatives from FoFJK, PRISM(SPDF).
 Compute integral first derivatives, UseDBF=F ICtDFT=           0.
 Calling FoFJK, ICntrl=      2127 FMM=F ISym2X=0 I1Cent= 0 IOpClX= 0 NMat=1 NMatS=1 NMatT=0.
 FoFJK:  IHMeth= 1 ICntrl=    2127 DoSepK=T KAlg= 0 I1Cent=           0 FoldK=F
 IRaf=         1 NMat=       1 IRICut=       1 DoRegI=T DoRafI=F ISym2E= 0 IDoP0=0 IntGTp=1.
 FoFCou: FMM=F IPFlag=           0 FMFlag=      100000 FMFlg1=         800
         NFxFlg=           0 DoJE=F BraDBF=F KetDBF=F FulRan=T
         wScrn=  0.000000 ICntrl=      2527 IOpCl=  0 I1Cent=           0 NGrid=           0
         NMat0=    1 NMatS0=      1 NMatT0=    0 NMatD0=    1 NMtDS0=    0 NMtDT0=    0
 Symmetry not used in FoFCou.
 Leave Link  703 at Thu Aug  7 18:42:44 2025, MaxMem=   104857600 cpu:               2.4 elap:               2.4
 (Enter /Applications/g16/l716.exe)
 Dipole        =-6.15594491D+00 5.07608211D-01 4.67626164D-04
 ***** Axes restored to original set *****
 -------------------------------------------------------------------
 Center     Atomic                   Forces (Hartrees/Bohr)
 Number     Number              X              Y              Z
 -------------------------------------------------------------------
      1        7           0.000006959    0.000008095   -0.000025926
      2        6          -0.000020737   -0.000014558    0.000055757
      3        6           0.000008404    0.000011080   -0.000029591
      4        6           0.000015257   -0.000011587    0.000001006
      5        6          -0.000099063   -0.000007328   -0.000006074
      6        7           0.137273179   -0.030080270   -0.000043797
      7        1          -0.000005533    0.000003581    0.000003777
      8        1          -0.000003741    0.000004501   -0.000004296
      9        1          -0.000002613    0.000005217    0.000001537
     10        1           0.000011574    0.000002562   -0.000001032
     11        3          -0.137183685    0.030078705    0.000048641
 -------------------------------------------------------------------
 Cartesian Forces:  Max     0.137273179 RMS     0.034585362
 Leave Link  716 at Thu Aug  7 18:42:44 2025, MaxMem=   104857600 cpu:               0.0 elap:               0.0
 (Enter /Applications/g16/l103.exe)

 GradGradGradGradGradGradGradGradGradGradGradGradGradGradGradGradGradGrad
 Berny optimization.
 Using GEDIIS/GDIIS optimizer.
 FormGI is forming the generalized inverse of G from B-inverse, IUseBI=4.
 Internal  Forces:  Max     0.140442431 RMS     0.023088600
 Search for a local minimum.
 Step number   6 out of a maximum of   47
 All quantities printed in internal units (Hartrees-Bohrs-Radians)
 RMS Force = .18221D-04 SwitMx=.10000D-02 MixMth= 2
 Mixed Optimization -- En-DIIS/RFO-DIIS
 Swapping is turned off.
 Update second derivatives using D2CorX and points    1    2    3    4    5
                                                      6
 DE= -1.54D-07 DEPred=-1.89D-07 R= 8.12D-01
 Trust test= 8.12D-01 RLast= 2.54D-03 DXMaxT set to 1.50D-01
 ITU=  0  0  1 -1  1  0
     Eigenvalues ---    0.00230   0.02747   0.03980   0.04919   0.05314
     Eigenvalues ---    0.05613   0.05782   0.06049   0.06272   0.07004
     Eigenvalues ---    0.08468   0.15790   0.15929   0.16155   0.16270
     Eigenvalues ---    0.22143   0.23616   0.27731   0.33289   0.34136
     Eigenvalues ---    0.34290   0.34347   0.35116   0.37074   1.12301
     Eigenvalues ---    1.305441000.000001000.000001000.000001000.00000
     Eigenvalues --- 1000.000001000.000001000.000001000.000001000.00000
     Eigenvalues --- 1000.000001000.00000
 En-DIIS/RFO-DIIS/Sim-DIIS IScMMF=       -3 using points:     6    5    4    3    2    1
 RFO step:  Lambda=-1.98544323D-05.
 NNeg= 0 NGDIIS= 6 SimSw=  2.50D-01 Rises=F DC= -1.54D-07 SmlDif=  1.00D-05
 NRisDI= 0 DoIntr=F SqrtH=F CThrHd= 10.0 CDAdj=  3.0
 RMS Error=  0.3326948002D-03 NUsed= 6 OKEnD=F EnDIS=F
 InvSVX:  RCond= 2.25D-12 Info=           0 Equed=N FErr=  1.31D-09 BErr=  4.43D-17
 DIIS inversion failure, remove point   6.
 InvSVX:  RCond= 5.59D-12 Info=           0 Equed=N FErr=  5.67D-10 BErr=  6.77D-17
 DIIS inversion failure, remove point   5.
 InvSVX:  RCond= 2.88D-07 Info=           0 Equed=N FErr=  1.46D-14 BErr=  6.97D-17
 RFO-DIIS uses    4 points instead of    6
 DidBck=T Rises=F RFO-DIIS coefs:    0.40241    0.44031    0.25198   -0.09471    0.00000
                  RFO-DIIS coefs:    0.00000
 Iteration  1 RMS(Cart)=  0.00040754 RMS(Int)=  0.00000028
 Iteration  2 RMS(Cart)=  0.00000032 RMS(Int)=  0.00000002
 Iteration  1 RMS(Cart)=  0.00000000 RMS(Int)=  0.00000000
 ITry= 1 IFail=0 DXMaxC= 1.52D-03 DCOld= 1.00D+10 DXMaxT= 1.50D-01 DXLimC= 3.00D+00 Rises=F
 Variable       Old X    -DE/DX   Delta X   Delta X   Delta X     New X
                                 (Linear)    (Quad)   (Total)
    R1        2.18430   0.00000  -0.00000   0.00001   0.00000   2.18430
    R2        2.76317  -0.00001  -0.00003   0.00001  -0.00001   2.76315
    R3        2.92882   0.00001   0.00002   0.00003   0.00005   2.92887
    R4        2.06758   0.00000   0.00002  -0.00002  -0.00001   2.06757
    R5        2.06758  -0.00000   0.00001  -0.00002  -0.00001   2.06757
    R6        2.75099   0.00001  -0.00015   0.00023   0.00008   2.75107
    R7        2.07142  -0.00001   0.00002  -0.00004  -0.00002   2.07140
    R8        2.07142  -0.00001   0.00002  -0.00004  -0.00002   2.07140
    R9        2.18850  -0.00009   0.00017  -0.00032  -0.00015   2.18835
   R10        2.83459   0.14044  -0.00000   0.00000   0.00000   2.83459
    A1        1.90417  -0.00001  -0.00007   0.00009   0.00002   1.90419
    A2        1.90532   0.00001  -0.00000   0.00003   0.00003   1.90535
    A3        1.90536  -0.00001  -0.00005   0.00000  -0.00005   1.90531
    A4        1.93097   0.00000   0.00007  -0.00007  -0.00000   1.93097
    A5        1.93097   0.00001   0.00007  -0.00006   0.00000   1.93098
    A6        1.88671  -0.00001  -0.00001   0.00001  -0.00000   1.88671
    A7        1.95495   0.00000  -0.00008   0.00018   0.00009   1.95505
    A8        1.93534   0.00000   0.00016  -0.00025  -0.00009   1.93525
    A9        1.93534   0.00000   0.00016  -0.00026  -0.00010   1.93524
   A10        1.87909  -0.00000  -0.00016   0.00022   0.00005   1.87915
   A11        1.87910  -0.00000  -0.00019   0.00028   0.00009   1.87919
   A12        1.87687   0.00000   0.00010  -0.00015  -0.00005   1.87682
   A13        3.11324  -0.00000  -0.00046   0.00024  -0.00021   3.11302
   A14        3.13680  -0.00002   0.00006  -0.00069  -0.00064   3.13617
   A15        3.17894   0.00002  -0.00020   0.00057   0.00038   3.17931
   A16        3.12549   0.00005   0.00088   0.00079   0.00167   3.12716
   A17        3.13882  -0.00001  -0.00005  -0.00003  -0.00007   3.13874
   A18        3.11349  -0.00001   0.00008  -0.00026  -0.00018   3.11331
    D1       -3.14155  -0.00000  -0.00006   0.00001  -0.00005   3.14159
    D2       -1.04187  -0.00001  -0.00022   0.00024   0.00002  -1.04185
    D3        1.04195  -0.00000   0.00012  -0.00028  -0.00016   1.04179
    D4       -1.04520   0.00000  -0.00007   0.00007  -0.00000  -1.04521
    D5        1.05447  -0.00000  -0.00022   0.00029   0.00007   1.05454
    D6        3.13829   0.00000   0.00011  -0.00023  -0.00011   3.13818
    D7        1.04525   0.00000  -0.00000  -0.00000  -0.00000   1.04524
    D8       -3.13826   0.00000  -0.00015   0.00022   0.00007  -3.13820
    D9       -1.05445   0.00000   0.00019  -0.00030  -0.00012  -1.05456
         Item               Value     Threshold  Converged?
 Maximum Force            0.000087     0.000450     YES
 RMS     Force            0.000018     0.000300     YES
 Maximum Displacement     0.001521     0.001800     YES
 RMS     Displacement     0.000408     0.001200     YES
 Predicted change in Energy=-6.489947D-08
 Optimization completed.
    -- Stationary point found.
                           ----------------------------
                           !   Optimized Parameters   !
                           ! (Angstroms and Degrees)  !
 --------------------------                            --------------------------
 ! Name  Definition              Value          Derivative Info.                !
 --------------------------------------------------------------------------------
 ! R1    R(1,2)                  1.1559         -DE/DX =    0.0                 !
 ! R2    R(2,3)                  1.4622         -DE/DX =    0.0                 !
 ! R3    R(3,4)                  1.5499         -DE/DX =    0.0                 !
 ! R4    R(3,9)                  1.0941         -DE/DX =    0.0                 !
 ! R5    R(3,10)                 1.0941         -DE/DX =    0.0                 !
 ! R6    R(4,5)                  1.4558         -DE/DX =    0.0                 !
 ! R7    R(4,7)                  1.0961         -DE/DX =    0.0                 !
 ! R8    R(4,8)                  1.0961         -DE/DX =    0.0                 !
 ! R9    R(5,6)                  1.1581         -DE/DX =   -0.0001              !
 ! R10   R(6,11)                 1.5            -DE/DX =    0.1404              !
 ! A1    A(2,3,4)              109.101          -DE/DX =    0.0                 !
 ! A2    A(2,3,9)              109.1667         -DE/DX =    0.0                 !
 ! A3    A(2,3,10)             109.1689         -DE/DX =    0.0                 !
 ! A4    A(4,3,9)              110.6365         -DE/DX =    0.0                 !
 ! A5    A(4,3,10)             110.6365         -DE/DX =    0.0                 !
 ! A6    A(9,3,10)             108.1004         -DE/DX =    0.0                 !
 ! A7    A(3,4,5)              112.0106         -DE/DX =    0.0                 !
 ! A8    A(3,4,7)              110.8866         -DE/DX =    0.0                 !
 ! A9    A(3,4,8)              110.8867         -DE/DX =    0.0                 !
 ! A10   A(5,4,7)              107.6641         -DE/DX =    0.0                 !
 ! A11   A(5,4,8)              107.6647         -DE/DX =    0.0                 !
 ! A12   A(7,4,8)              107.5369         -DE/DX =    0.0                 !
 ! A13   L(1,2,3,7,-1)         178.3753         -DE/DX =    0.0                 !
 ! A14   L(4,5,6,10,-1)        179.7256         -DE/DX =    0.0                 !
 ! A15   L(5,6,11,9,-1)        182.1396         -DE/DX =    0.0                 !
 ! A16   L(1,2,3,7,-2)         179.0775         -DE/DX =    0.0001              !
 ! A17   L(4,5,6,10,-2)        179.841          -DE/DX =    0.0                 !
 ! A18   L(5,6,11,9,-2)        178.3898         -DE/DX =    0.0                 !
 ! D1    D(2,3,4,5)            180.0026         -DE/DX =    0.0                 !
 ! D2    D(2,3,4,7)            -59.6948         -DE/DX =    0.0                 !
 ! D3    D(2,3,4,8)             59.6991         -DE/DX =    0.0                 !
 ! D4    D(9,3,4,5)            -59.8857         -DE/DX =    0.0                 !
 ! D5    D(9,3,4,7)             60.4169         -DE/DX =    0.0                 !
 ! D6    D(9,3,4,8)            179.8108         -DE/DX =    0.0                 !
 ! D7    D(10,3,4,5)            59.8881         -DE/DX =    0.0                 !
 ! D8    D(10,3,4,7)          -179.8093         -DE/DX =    0.0                 !
 ! D9    D(10,3,4,8)           -60.4153         -DE/DX =    0.0                 !
 --------------------------------------------------------------------------------
 Lowest energy point so far.  Saving SCF results.
 Largest change from initial coordinates is atom   11       0.003 Angstoms.
 GradGradGradGradGradGradGradGradGradGradGradGradGradGradGradGradGradGrad

 Leave Link  103 at Thu Aug  7 18:42:44 2025, MaxMem=   104857600 cpu:               0.0 elap:               0.0
 (Enter /Applications/g16/l202.exe)
                          Input orientation:                          
 ---------------------------------------------------------------------
 Center     Atomic      Atomic             Coordinates (Angstroms)
 Number     Number       Type             X           Y           Z
 ---------------------------------------------------------------------
      1          7           0        3.260158   -0.181020    0.000438
      2          6           0        2.167975    0.197392   -0.000265
      3          6           0        0.772074    0.632711   -0.000149
      4          6           0       -0.148110   -0.614422   -0.000069
      5          6           0       -1.558067   -0.252125   -0.000012
      6          7           0       -2.678200    0.041995   -0.000029
      7          1           0        0.035627   -1.235707   -0.884254
      8          1           0        0.035720   -1.235666    0.884127
      9          1           0        0.587596    1.247981   -0.885867
     10          1           0        0.587710    1.248010    0.885575
     11          3           0       -4.143378    0.363323    0.000519
 ---------------------------------------------------------------------
                    Distance matrix (angstroms):
                    1          2          3          4          5
     1  N    0.000000
     2  C    1.155881   0.000000
     3  C    2.617771   1.462204   0.000000
     4  C    3.435714   2.454240   1.549865   0.000000
     5  C    4.818750   3.753059   2.492487   1.455760   0.000000
     6  N    5.942544   4.848666   3.500477   2.613855   1.158104
     7  H    3.506087   2.717005   2.194307   1.096147   2.071033
     8  H    3.505736   2.717042   2.194310   1.096148   2.071041
     9  H    3.157558   2.094189   1.094114   2.189623   2.763861
    10  H    3.157147   2.094218   1.094116   2.189623   2.763879
    11  Li   7.423521   6.313534   4.922829   4.113169   2.657558
                    6          7          8          9         10
     6  N    0.000000
     7  H    3.127176   0.000000
     8  H    3.127221   1.768381   0.000000
     9  H    3.592288   2.544283   3.099347   0.000000
    10  H    3.592344   3.099345   2.544276   1.771442   0.000000
    11  Li   1.500000   4.561119   4.560964   4.893916   4.893791
                   11
    11  Li   0.000000
 Stoichiometry    C4H4LiN2(1+)
 Framework group  C1[X(C4H4LiN2)]
 Deg. of freedom    27
 Full point group                 C1      NOp   1
 RotChk:  IX=2 Diff= 1.94D-16
 Largest Abelian subgroup         C1      NOp   1
 Largest concise Abelian subgroup C1      NOp   1
                         Standard orientation:                         
 ---------------------------------------------------------------------
 Center     Atomic      Atomic             Coordinates (Angstroms)
 Number     Number       Type             X           Y           Z
 ---------------------------------------------------------------------
      1          7           0        3.253339   -0.184637    0.000415
      2          6           0        2.161777    0.195565   -0.000288
      3          6           0        0.766592    0.633172   -0.000172
      4          6           0       -0.155636   -0.612451   -0.000092
      5          6           0       -1.564997   -0.247843   -0.000035
      6          7           0       -2.684646    0.048113   -0.000052
      7          1           0        0.027082   -1.234036   -0.884277
      8          1           0        0.027176   -1.233995    0.884104
      9          1           0        0.583123    1.248743   -0.885890
     10          1           0        0.583237    1.248773    0.885552
     11          3           0       -4.149296    0.371843    0.000496
 ---------------------------------------------------------------------
 Rotational constants (GHZ):          23.6855014           1.0838852           1.0500531
 Leave Link  202 at Thu Aug  7 18:42:44 2025, MaxMem=   104857600 cpu:               0.0 elap:               0.0
 (Enter /Applications/g16/l601.exe)
 Copying SCF densities to generalized density rwf, IOpCl= 0 IROHF=0.

 **********************************************************************

            Population analysis using the SCF Density.

 **********************************************************************

 Orbital symmetries:
       Occupied  (A) (A) (A) (A) (A) (A) (A) (A) (A) (A) (A) (A)
                 (A) (A) (A) (A) (A) (A) (A) (A) (A) (A)
       Virtual   (A) (A) (A) (A) (A) (A) (A) (A) (A) (A) (A) (A)
                 (A) (A) (A) (A) (A) (A) (A) (A) (A) (A) (A) (A)
                 (A) (A) (A) (A) (A) (A) (A) (A) (A) (A) (A) (A)
                 (A) (A) (A) (A) (A) (A) (A) (A) (A) (A) (A) (A)
                 (A) (A) (A) (A) (A) (A) (A) (A) (A) (A) (A) (A)
                 (A) (A) (A) (A) (A) (A) (A) (A) (A) (A) (A) (A)
                 (A) (A) (A) (A) (A) (A) (A) (A) (A) (A) (A) (A)
                 (A) (A) (A) (A) (A) (A) (A)
 The electronic state is 1-A.
 Alpha  occ. eigenvalues --  -14.67294 -14.58089 -10.59489 -10.53755 -10.51542
 Alpha  occ. eigenvalues --  -10.46672  -2.31382  -1.24514  -1.13690  -1.09895
 Alpha  occ. eigenvalues --   -0.98210  -0.81202  -0.76489  -0.76093  -0.72788
 Alpha  occ. eigenvalues --   -0.69718  -0.68127  -0.64343  -0.63185  -0.56635
 Alpha  occ. eigenvalues --   -0.53975  -0.53599
 Alpha virt. eigenvalues --   -0.14113  -0.13542  -0.13373  -0.06983  -0.06431
 Alpha virt. eigenvalues --   -0.06262  -0.01518  -0.00801   0.04127   0.04733
 Alpha virt. eigenvalues --    0.05026   0.05978   0.07913   0.09269   0.10215
 Alpha virt. eigenvalues --    0.12782   0.14424   0.14437   0.22174   0.28053
 Alpha virt. eigenvalues --    0.33539   0.36467   0.36470   0.39000   0.41611
 Alpha virt. eigenvalues --    0.47101   0.47310   0.48438   0.51796   0.52954
 Alpha virt. eigenvalues --    0.54173   0.59966   0.60005   0.63918   0.65657
 Alpha virt. eigenvalues --    0.69732   0.74208   0.75558   0.76934   0.77555
 Alpha virt. eigenvalues --    0.80766   0.83384   0.84876   0.85916   0.90538
 Alpha virt. eigenvalues --    0.93723   0.95987   1.00886   1.03555   1.09659
 Alpha virt. eigenvalues --    1.14032   1.29380   1.30340   1.31511   1.37501
 Alpha virt. eigenvalues --    1.38689   1.42204   1.45145   1.47566   1.50917
 Alpha virt. eigenvalues --    1.61788   1.64869   1.68964   1.76628   1.77469
 Alpha virt. eigenvalues --    1.81242   1.85387   1.88196   1.88898   1.91276
 Alpha virt. eigenvalues --    1.93960   1.97311   2.12956   2.13137   2.16891
 Alpha virt. eigenvalues --    2.25789   2.35702   2.59417   2.66127   2.72479
 Alpha virt. eigenvalues --    2.75561   2.76902   2.82329   3.10054   3.22803
 Alpha virt. eigenvalues --    3.99510   4.02689   4.08382   4.17021   4.46726
 Alpha virt. eigenvalues --    4.68452
          Condensed to atoms (all electrons):
               1          2          3          4          5          6
     1  N    6.622411   0.856046  -0.080898  -0.000707  -0.000059  -0.000000
     2  C    0.856046   4.603582   0.278495  -0.038591   0.003903  -0.000028
     3  C   -0.080898   0.278495   5.226975   0.301999  -0.032644  -0.001246
     4  C   -0.000707  -0.038591   0.301999   5.259713   0.285416  -0.066201
     5  C   -0.000059   0.003903  -0.032644   0.285416   4.743166   0.454138
     6  N   -0.000000  -0.000028  -0.001246  -0.066201   0.454138   7.012561
     7  H    0.000316  -0.001685  -0.025453   0.374115  -0.032462  -0.001363
     8  H    0.000317  -0.001684  -0.025452   0.374121  -0.032469  -0.001363
     9  H   -0.000547  -0.026805   0.377479  -0.031811  -0.003577   0.000151
    10  H   -0.000553  -0.026811   0.377507  -0.031815  -0.003572   0.000151
    11  Li  -0.000009  -0.000119   0.000705  -0.001929  -0.082379   0.273549
               7          8          9         10         11
     1  N    0.000316   0.000317  -0.000547  -0.000553  -0.000009
     2  C   -0.001685  -0.001684  -0.026805  -0.026811  -0.000119
     3  C   -0.025453  -0.025452   0.377479   0.377507   0.000705
     4  C    0.374115   0.374121  -0.031811  -0.031815  -0.001929
     5  C   -0.032462  -0.032469  -0.003577  -0.003572  -0.082379
     6  N   -0.001363  -0.001363   0.000151   0.000151   0.273549
     7  H    0.400617  -0.016101  -0.002207   0.002597   0.000369
     8  H   -0.016101   0.400614   0.002598  -0.002207   0.000371
     9  H   -0.002207   0.002598   0.437964  -0.020201   0.000470
    10  H    0.002597  -0.002207  -0.020201   0.437924   0.000470
    11  Li   0.000369   0.000371   0.000470   0.000470   2.109800
 Mulliken charges:
               1
     1  N   -0.396317
     2  C    0.353697
     3  C   -0.397466
     4  C   -0.424311
     5  C    0.700537
     6  N   -0.670349
     7  H    0.301255
     8  H    0.301257
     9  H    0.266485
    10  H    0.266511
    11  Li   0.698702
 Sum of Mulliken charges =   1.00000
 Mulliken charges with hydrogens summed into heavy atoms:
               1
     1  N   -0.396317
     2  C    0.353697
     3  C    0.135530
     4  C    0.178201
     5  C    0.700537
     6  N   -0.670349
    11  Li   0.698702
 Electronic spatial extent (au):  <R**2>=            888.1433
 Charge=              1.0000 electrons
 Dipole moment (field-independent basis, Debye):
    X=            -15.6469    Y=              1.2902    Z=              0.0012  Tot=             15.7000
 Quadrupole moment (field-independent basis, Debye-Ang):
   XX=             13.7922   YY=            -30.4596   ZZ=            -32.3547
   XY=             -3.5467   XZ=             -0.0117   YZ=              0.0011
 Traceless Quadrupole moment (field-independent basis, Debye-Ang):
   XX=             30.1329   YY=            -14.1189   ZZ=            -16.0140
   XY=             -3.5467   XZ=             -0.0117   YZ=              0.0011
 Octapole moment (field-independent basis, Debye-Ang**2):
  XXX=           -336.0224  YYY=              1.2032  ZZZ=              0.0022  XYY=             -8.1107
  XXY=             32.9398  XXZ=              0.0329  XZZ=             -5.6025  YZZ=              0.1470
  YYZ=              0.0009  XYZ=             -0.0033
 Hexadecapole moment (field-independent basis, Debye-Ang**3):
 XXXX=             83.9796 YYYY=            -78.8719 ZZZZ=            -41.4770 XXXY=           -107.9774
 XXXZ=             -0.2038 YYYX=             -6.7902 YYYZ=              0.0035 ZZZX=             -0.0100
 ZZZY=              0.0028 XXYY=           -162.1412 XXZZ=           -166.4900 YYZZ=            -16.4934
 XXYZ=              0.0184 YYXZ=             -0.0048 ZZXY=             -1.6830
 N-N= 1.986374873641D+02 E-N=-1.020605031277D+03  KE= 2.694086841167D+02
 No NMR shielding tensors so no spin-rotation constants.
 Leave Link  601 at Thu Aug  7 18:42:44 2025, MaxMem=   104857600 cpu:               0.0 elap:               0.0
 (Enter /Applications/g16/l9999.exe)
 Unable to Open any file for archive entry.
 1\1\GINC-MBPSRAK\FOpt\RwB97XD\6-31G(d)\C4H4Li1N2(1+)\SRAK\07-Aug-2025\
 0\\#p opt=modredundant wb97xd/6-31g(d)\\Gaussian input prepared by ASE
 \\1,1\N,3.2601582143,-0.1810198581,0.0004377634\C,2.1679748481,0.19739
 24927,-0.0002649153\C,0.7720739016,0.6327113725,-0.0001486769\C,-0.148
 1099601,-0.6144223241,-0.0000687983\C,-1.5580669667,-0.2521254816,-0.0
 000118937\N,-2.6781999744,0.0419946064,-0.0000290545\H,0.0356268024,-1
 .2357067313,-0.8842542999\H,0.0357200907,-1.2356659205,0.8841271296\H,
 0.5875957759,1.2479810504,-0.8858671604\H,0.5877099221,1.2480103195,0.
 8855747912\Li,-4.1433784438,0.3633226942,0.0005190549\\Version=Apple M
 1-G16RevC.02\State=1-A\HF=-271.5159448\RMSD=5.946e-09\RMSF=3.459e-02\D
 ipole=-6.1567688,0.4975151,0.0004676\Quadrupole=22.4116501,-10.5056206
 ,-11.9060295,-2.5829039,-0.0086881,0.0007855\PG=C01 [X(C4H4Li1N2)]\\@
 The archive entry for this job was punched.


 IT IS BY LOGIC THAT WE PROVE, BUT BY INTUITION THAT WE DISCOVER.
     -- J.H.POINCARE (1854-1912)
 Job cpu time:       0 days  0 hours  0 minutes 52.1 seconds.
 Elapsed time:       0 days  0 hours  0 minutes 51.9 seconds.
 File lengths (MBytes):  RWF=     10 Int=      0 D2E=      0 Chk=      2 Scr=      1
 Normal termination of Gaussian 16 at Thu Aug  7 18:42:44 2025.
