 Entering Gaussian System, Link 0=g16
 Input=/Users/srak/Desktop/imolcraft/vsite_positiondiff/distance_scan/cn__Li_dist_0__1.40.gjf
 Output=/Users/srak/Desktop/imolcraft/vsite_positiondiff/distance_scan/cn__Li_dist_0__1.40.log
 Initial command:
 /Applications/g16/l1.exe "/Users/srak/g16_scratch/Gau-74193.inp" -scrdir="/Users/srak/g16_scratch/"
 Entering Link 1 = /Applications/g16/l1.exe PID=     74194.
  
 Copyright (c) 1988-2021, Gaussian, Inc.  All Rights Reserved.
  
 This is part of the Gaussian(R) 16 program.  It is based on
 the Gaussian(R) 09 system (copyright 2009, Gaussian, Inc.),
 the Gaussian(R) 03 system (copyright 2003, Gaussian, Inc.),
 the Gaussian(R) 98 system (copyright 1998, Gaussian, Inc.),
 the Gaussian(R) 94 system (copyright 1995, Gaussian, Inc.),
 the Gaussian 92(TM) system (copyright 1992, Gaussian, Inc.),
 the Gaussian 90(TM) system (copyright 1990, Gaussian, Inc.),
 the Gaussian 88(TM) system (copyright 1988, Gaussian, Inc.),
 the Gaussian 86(TM) system (copyright 1986, Carnegie Mellon
 University), and the Gaussian 82(TM) system (copyright 1983,
 Carnegie Mellon University). Gaussian is a federally registered
 trademark of Gaussian, Inc.
  
 This software contains proprietary and confidential information,
 including trade secrets, belonging to Gaussian, Inc.
  
 This software is provided under written license and may be
 used, copied, transmitted, or stored only in accord with that
 written license.
  
 The following legend is applicable only to US Government
 contracts under FAR:
  
                    RESTRICTED RIGHTS LEGEND
  
 Use, reproduction and disclosure by the US Government is
 subject to restrictions as set forth in subparagraphs (a)
 and (c) of the Commercial Computer Software - Restricted
 Rights clause in FAR 52.227-19.
  
 Gaussian, Inc.
 340 Quinnipiac St., Bldg. 40, Wallingford CT 06492
  
  
 ---------------------------------------------------------------
 Warning -- This program may not be used in any manner that
 competes with the business of Gaussian, Inc. or will provide
 assistance to any competitor of Gaussian, Inc.  The licensee
 of this program is prohibited from giving any competitor of
 Gaussian, Inc. access to this program.  By using this program,
 the user acknowledges that Gaussian, Inc. is engaged in the
 business of creating and licensing software in the field of
 computational chemistry and represents and warrants to the
 licensee that it is not a competitor of Gaussian, Inc. and that
 it will not use this program in any manner prohibited above.
 ---------------------------------------------------------------
  

 Cite this work as:
 Gaussian 16, Revision C.02,
 M. J. Frisch, G. W. Trucks, H. B. Schlegel, G. E. Scuseria, 
 M. A. Robb, J. R. Cheeseman, G. Scalmani, V. Barone, 
 G. A. Petersson, H. Nakatsuji, X. Li, M. Caricato, A. V. Marenich, 
 J. Bloino, B. G. Janesko, R. Gomperts, B. Mennucci, H. P. Hratchian, 
 J. V. Ortiz, A. F. Izmaylov, J. L. Sonnenberg, D. Williams-Young, 
 F. Ding, F. Lipparini, F. Egidi, J. Goings, B. Peng, A. Petrone, 
 T. Henderson, D. Ranasinghe, V. G. Zakrzewski, J. Gao, N. Rega, 
 G. Zheng, W. Liang, M. Hada, M. Ehara, K. Toyota, R. Fukuda, 
 J. Hasegawa, M. Ishida, T. Nakajima, Y. Honda, O. Kitao, H. Nakai, 
 T. Vreven, K. Throssell, J. A. Montgomery, Jr., J. E. Peralta, 
 F. Ogliaro, M. J. Bearpark, J. J. Heyd, E. N. Brothers, K. N. Kudin, 
 V. N. Staroverov, T. A. Keith, R. Kobayashi, J. Normand, 
 K. Raghavachari, A. P. Rendell, J. C. Burant, S. S. Iyengar, 
 J. Tomasi, M. Cossi, J. M. Millam, M. Klene, C. Adamo, R. Cammi, 
 J. W. Ochterski, R. L. Martin, K. Morokuma, O. Farkas, 
 J. B. Foresman, and D. J. Fox, Gaussian, Inc., Wallingford CT, 2019.
 
 *********************************************
 Gaussian 16:  Apple M1-G16RevC.02  7-Dec-2021
                   7-Aug-2025 
 *********************************************
 -----------------------------------
 #p opt=modredundant wb97xd/6-31g(d)
 -----------------------------------
 1/18=120,19=15,26=3,38=1/1,3;
 2/9=110,12=2,17=6,18=5,40=1/2;
 3/5=1,6=6,7=1,11=2,25=1,30=1,71=1,74=-58/1,2,3;
 4//1;
 5/5=2,38=5/2;
 6/7=2,8=2,9=2,10=2,28=1/1;
 7//1,2,3,16;
 1/18=20,19=15,26=3/3(2);
 2/9=110/2;
 99//99;
 2/9=110/2;
 3/5=1,6=6,7=1,11=2,25=1,30=1,71=1,74=-58/1,2,3;
 4/5=5,16=3,69=1/1;
 5/5=2,38=5/2;
 7//1,2,3,16;
 1/18=20,19=15,26=3/3(-5);
 2/9=110/2;
 6/7=2,8=2,9=2,10=2,19=2,28=1/1;
 99/9=1/99;
 Leave Link    1 at Thu Aug  7 18:42:58 2025, MaxMem=           0 cpu:               0.0 elap:               0.0
 (Enter /Applications/g16/l101.exe)
 ------------------------------
 Gaussian input prepared by ASE
 ------------------------------
 Symbolic Z-matrix:
 Charge =  1 Multiplicity = 1
 N                     3.26138  -0.17795  -0.00026 
 C                     2.16825   0.1978   -0.0001 
 C                     0.77172   0.63135  -0.00002 
 C                    -0.14817  -0.61537   0.00005 
 C                    -1.55931  -0.25213   0.00014 
 N                    -2.67851   0.04159   0.00025 
 H                     0.03617  -1.23636  -0.88395 
 H                     0.03626  -1.23634   0.88405 
 H                     0.58708   1.24681  -0.88559 
 H                     0.58719   1.24682   0.88556 
 Li                   -4.04533   0.34461  -0.00009 
 
 The following ModRedundant input section has been read:
 B       6      11 F                                                           
 
 ITRead=  0  0  0  0  0  0  0  0  0  0  0
 MicOpt= -1 -1 -1 -1 -1 -1 -1 -1 -1 -1 -1
 NAtoms=     11 NQM=       11 NQMF=       0 NMMI=      0 NMMIF=      0
                NMic=       0 NMicF=      0.
                    Isotopes and Nuclear Properties:
 (Nuclear quadrupole moments (NQMom) in fm**2, nuclear magnetic moments (NMagM)
  in nuclear magnetons)

  Atom         1           2           3           4           5           6           7           8           9          10
 IAtWgt=          14          12          12          12          12          14           1           1           1           1
 AtmWgt=  14.0030740  12.0000000  12.0000000  12.0000000  12.0000000  14.0030740   1.0078250   1.0078250   1.0078250   1.0078250
 NucSpn=           2           0           0           0           0           2           1           1           1           1
 AtZEff=  -0.0000000  -0.0000000  -0.0000000  -0.0000000  -0.0000000  -0.0000000  -0.0000000  -0.0000000  -0.0000000  -0.0000000
 NQMom=    2.0440000   0.0000000   0.0000000   0.0000000   0.0000000   2.0440000   0.0000000   0.0000000   0.0000000   0.0000000
 NMagM=    0.4037610   0.0000000   0.0000000   0.0000000   0.0000000   0.4037610   2.7928460   2.7928460   2.7928460   2.7928460
 AtZNuc=   7.0000000   6.0000000   6.0000000   6.0000000   6.0000000   7.0000000   1.0000000   1.0000000   1.0000000   1.0000000

  Atom        11
 IAtWgt=           7
 AtmWgt=   7.0160045
 NucSpn=           3
 AtZEff=  -0.0000000
 NQMom=   -4.0100000
 NMagM=    3.2564240
 AtZNuc=   3.0000000
 Leave Link  101 at Thu Aug  7 18:42:58 2025, MaxMem=   104857600 cpu:               0.0 elap:               0.0
 (Enter /Applications/g16/l103.exe)

 GradGradGradGradGradGradGradGradGradGradGradGradGradGradGradGradGradGrad
 Berny optimization.
 Initialization pass.
                           ----------------------------
                           !    Initial Parameters    !
                           ! (Angstroms and Degrees)  !
 --------------------------                            --------------------------
 ! Name  Definition              Value          Derivative Info.                !
 --------------------------------------------------------------------------------
 ! R1    R(1,2)                  1.1559         estimate D2E/DX2                !
 ! R2    R(2,3)                  1.4623         estimate D2E/DX2                !
 ! R3    R(3,4)                  1.5493         estimate D2E/DX2                !
 ! R4    R(3,9)                  1.0941         estimate D2E/DX2                !
 ! R5    R(3,10)                 1.0941         estimate D2E/DX2                !
 ! R6    R(4,5)                  1.4571         estimate D2E/DX2                !
 ! R7    R(4,7)                  1.0959         estimate D2E/DX2                !
 ! R8    R(4,8)                  1.0959         estimate D2E/DX2                !
 ! R9    R(5,6)                  1.1571         estimate D2E/DX2                !
 ! R10   R(6,11)                 1.4            Frozen                          !
 ! A1    A(2,3,4)              109.1752         estimate D2E/DX2                !
 ! A2    A(2,3,9)              109.1414         estimate D2E/DX2                !
 ! A3    A(2,3,10)             109.1416         estimate D2E/DX2                !
 ! A4    A(4,3,9)              110.6389         estimate D2E/DX2                !
 ! A5    A(4,3,10)             110.6388         estimate D2E/DX2                !
 ! A6    A(9,3,10)             108.0721         estimate D2E/DX2                !
 ! A7    A(3,4,5)              111.9869         estimate D2E/DX2                !
 ! A8    A(3,4,7)              110.8583         estimate D2E/DX2                !
 ! A9    A(3,4,8)              110.8583         estimate D2E/DX2                !
 ! A10   A(5,4,7)              107.7095         estimate D2E/DX2                !
 ! A11   A(5,4,8)              107.708          estimate D2E/DX2                !
 ! A12   A(7,4,8)              107.5331         estimate D2E/DX2                !
 ! A13   L(1,2,3,7,-1)         178.4189         estimate D2E/DX2                !
 ! A14   L(4,5,6,10,-1)        179.7531         estimate D2E/DX2                !
 ! A15   L(5,6,11,9,-1)        181.9968         estimate D2E/DX2                !
 ! A16   L(1,2,3,7,-2)         179.1579         estimate D2E/DX2                !
 ! A17   L(4,5,6,10,-2)        179.8631         estimate D2E/DX2                !
 ! A18   L(5,6,11,9,-2)        178.427          estimate D2E/DX2                !
 ! D1    D(2,3,4,5)            179.9996         estimate D2E/DX2                !
 ! D2    D(2,3,4,7)            -59.6756         estimate D2E/DX2                !
 ! D3    D(2,3,4,8)             59.6767         estimate D2E/DX2                !
 ! D4    D(9,3,4,5)            -59.8712         estimate D2E/DX2                !
 ! D5    D(9,3,4,7)             60.4536         estimate D2E/DX2                !
 ! D6    D(9,3,4,8)            179.8059         estimate D2E/DX2                !
 ! D7    D(10,3,4,5)            59.8702         estimate D2E/DX2                !
 ! D8    D(10,3,4,7)          -179.805          estimate D2E/DX2                !
 ! D9    D(10,3,4,8)           -60.4527         estimate D2E/DX2                !
 --------------------------------------------------------------------------------
 Trust Radius=3.00D-01 FncErr=1.00D-07 GrdErr=1.00D-06 EigMax=2.50D+02 EigMin=1.00D-04
 Number of steps in this run=     47 maximum allowed number of steps=    100.
 GradGradGradGradGradGradGradGradGradGradGradGradGradGradGradGradGradGrad

 Leave Link  103 at Thu Aug  7 18:42:58 2025, MaxMem=   104857600 cpu:               0.0 elap:               0.0
 (Enter /Applications/g16/l202.exe)
                          Input orientation:                          
 ---------------------------------------------------------------------
 Center     Atomic      Atomic             Coordinates (Angstroms)
 Number     Number       Type             X           Y           Z
 ---------------------------------------------------------------------
      1          7           0        3.261377   -0.177950   -0.000257
      2          6           0        2.168255    0.197798   -0.000099
      3          6           0        0.771723    0.631345   -0.000018
      4          6           0       -0.148168   -0.615365    0.000048
      5          6           0       -1.559306   -0.252126    0.000139
      6          7           0       -2.678514    0.041587    0.000246
      7          1           0        0.036165   -1.236365   -0.883952
      8          1           0        0.036258   -1.236341    0.884046
      9          1           0        0.587083    1.246809   -0.885586
     10          1           0        0.587187    1.246824    0.885560
     11          3           0       -4.045326    0.344612   -0.000089
 ---------------------------------------------------------------------
                    Distance matrix (angstroms):
                    1          2          3          4          5
     1  N    0.000000
     2  C    1.155899   0.000000
     3  C    2.617888   1.462281   0.000000
     4  C    3.437489   2.455005   1.549350   0.000000
     5  C    4.821254   3.754616   2.492833   1.457139   0.000000
     6  N    5.943947   4.849286   3.500279   2.614237   1.157106
     7  H    3.507585   2.717320   2.193337   1.095936   2.072648
     8  H    3.507645   2.717329   2.193337   1.095936   2.072630
     9  H    3.156833   2.093948   1.094129   2.189208   2.763748
    10  H    3.156888   2.093949   1.094128   2.189207   2.763739
    11  Li   7.325366   6.215316   4.825576   4.013651   2.556637
                    6          7          8          9         10
     6  N    0.000000
     7  H    3.128010   0.000000
     8  H    3.127969   1.767998   0.000000
     9  H    3.591849   2.543554   3.098554   0.000000
    10  H    3.591821   3.098552   2.543547   1.771146   0.000000
    11  Li   1.400000   4.465341   4.465472   4.801800   4.801931
                   11
    11  Li   0.000000
 Stoichiometry    C4H4LiN2(1+)
 Framework group  C1[X(C4H4LiN2)]
 Deg. of freedom    27
 Full point group                 C1      NOp   1
 Largest Abelian subgroup         C1      NOp   1
 Largest concise Abelian subgroup C1      NOp   1
                         Standard orientation:                         
 ---------------------------------------------------------------------
 Center     Atomic      Atomic             Coordinates (Angstroms)
 Number     Number       Type             X           Y           Z
 ---------------------------------------------------------------------
      1          7           0        3.247706   -0.186791   -0.000260
      2          6           0        2.155948    0.192902   -0.000102
      3          6           0        0.760991    0.631488   -0.000021
      4          6           0       -0.163396   -0.611893    0.000045
      5          6           0       -1.573213   -0.243562    0.000136
      6          7           0       -2.691353    0.054190    0.000243
      7          1           0        0.018694   -1.233555   -0.883955
      8          1           0        0.018787   -1.233531    0.884043
      9          1           0        0.578574    1.247614   -0.885589
     10          1           0        0.578678    1.247629    0.885557
     11          3           0       -4.057063    0.362147   -0.000092
 ---------------------------------------------------------------------
 Rotational constants (GHZ):          23.8082810           1.0965431           1.0621690
 Leave Link  202 at Thu Aug  7 18:42:58 2025, MaxMem=   104857600 cpu:               0.0 elap:               0.0
 (Enter /Applications/g16/l301.exe)
 Standard basis: 6-31G(d) (6D, 7F)
 Ernie: Thresh=  0.10000D-02 Tol=  0.10000D-05 Strict=F.
 There are   113 symmetry adapted cartesian basis functions of A   symmetry.
 There are   113 symmetry adapted basis functions of A   symmetry.
   113 basis functions,   212 primitive gaussians,   113 cartesian basis functions
    22 alpha electrons       22 beta electrons
       nuclear repulsion energy       199.4737943836 Hartrees.
 IExCor= 4639 DFT=T Ex+Corr=wB97XD ExCW=0 ScaHFX=  1.000000
 ScaDFX=  1.000000  1.000000  1.000000  1.000000 ScalE2=  1.000000  1.000000
 IRadAn=      5 IRanWt=     -1 IRanGd=            0 ICorTp=0 IEmpDi=121
 HFx  wShort=  0.000000 wLong=  0.200000 cFull=  0.222036 cShort=  0.000000 cLong=  0.777964
 DFx  wShort=  0.000000 wLong=  0.200000 cFull=  0.000000 cShort=  0.000000 cLong=  1.000000
 NAtoms=   11 NActive=   11 NUniq=   11 SFac= 1.00D+00 NAtFMM=   60 NAOKFM=F Big=F
 Integral buffers will be    131072 words long.
 Raffenetti 2 integral format.
 Two-electron integral symmetry is turned on.
 R6Disp:  Grimme-D2 Dispersion energy=       -0.0048511891 Hartrees.
 Nuclear repulsion after empirical dispersion term =      199.4689431945 Hartrees.
 Leave Link  301 at Thu Aug  7 18:42:58 2025, MaxMem=   104857600 cpu:               0.0 elap:               0.0
 (Enter /Applications/g16/l302.exe)
 NPDir=0 NMtPBC=     1 NCelOv=     1 NCel=       1 NClECP=     1 NCelD=      1
         NCelK=      1 NCelE2=     1 NClLst=     1 CellRange=     0.0.
 One-electron integrals computed using PRISM.
 One-electron integral symmetry used in STVInt
 NBasis=   113 RedAO= T EigKep=  7.91D-04  NBF=   113
 NBsUse=   113 1.00D-06 EigRej= -1.00D+00 NBFU=   113
 Precomputing XC quadrature grid using
 IXCGrd= 4 IRadAn=           5 IRanWt=          -1 IRanGd=           0 AccXCQ= 0.00D+00.
 Generated NRdTot=       0 NPtTot=           0 NUsed=           0 NTot=          32
 NSgBfM=   113   113   113   113   113 MxSgAt=    11 MxSgA2=    11.
 Leave Link  302 at Thu Aug  7 18:42:58 2025, MaxMem=   104857600 cpu:               0.1 elap:               0.1
 (Enter /Applications/g16/l303.exe)
 DipDrv:  MaxL=1.
 Leave Link  303 at Thu Aug  7 18:42:58 2025, MaxMem=   104857600 cpu:               0.0 elap:               0.0
 (Enter /Applications/g16/l401.exe)
 ExpMin= 3.60D-02 ExpMax= 4.17D+03 ExpMxC= 6.27D+02 IAcc=3 IRadAn=         5 AccDes= 0.00D+00
 Harris functional with IExCor= 4639 and IRadAn=       5 diagonalized for initial guess.
 HarFok:  IExCor= 4639 AccDes= 0.00D+00 IRadAn=         5 IDoV= 1 UseB2=F ITyADJ=14
 ICtDFT=  3500011 ScaDFX=  1.000000  1.000000  1.000000  1.000000
 FoFCou: FMM=F IPFlag=           0 FMFlag=      100000 FMFlg1=           0
         NFxFlg=           0 DoJE=T BraDBF=F KetDBF=T FulRan=T
         wScrn=  0.000000 ICntrl=       500 IOpCl=  0 I1Cent=   200000004 NGrid=           0
         NMat0=    1 NMatS0=      1 NMatT0=    0 NMatD0=    1 NMtDS0=    0 NMtDT0=    0
 Petite list used in FoFCou.
 Harris En= -259.729283292275    
 JPrj=0 DoOrth=F DoCkMO=F.
 Leave Link  401 at Thu Aug  7 18:42:58 2025, MaxMem=   104857600 cpu:               0.6 elap:               0.6
 (Enter /Applications/g16/l502.exe)
 Keep R1 ints in memory in canonical form, NReq=43174005.
 FoFCou: FMM=F IPFlag=           0 FMFlag=           0 FMFlg1=           0
         NFxFlg=           0 DoJE=F BraDBF=F KetDBF=F FulRan=T
         wScrn=  0.000000 ICntrl=       600 IOpCl=  0 I1Cent=           0 NGrid=           0
         NMat0=    1 NMatS0=   6441 NMatT0=    0 NMatD0=    1 NMtDS0=    0 NMtDT0=    0
 Symmetry not used in FoFCou.
 Two-electron integral symmetry not used.
 Closed shell SCF:
 Using DIIS extrapolation, IDIIS=  1040.
 NGot=   104857600 LenX=    63336875 LenY=    63323665
 Requested convergence on RMS density matrix=1.00D-08 within 128 cycles.
 Requested convergence on MAX density matrix=1.00D-06.
 Requested convergence on             energy=1.00D-06.
 No special actions if energy rises.

 Cycle   1  Pass 1  IDiag  1:
 E= -271.382334370001    
 DIIS: error= 6.09D-02 at cycle   1 NSaved=   1.
 NSaved= 1 IEnMin= 1 EnMin= -271.382334370001     IErMin= 1 ErrMin= 6.09D-02
 ErrMax= 6.09D-02  0.00D+00 EMaxC= 1.00D-01 BMatC= 2.78D-01 BMatP= 2.78D-01
 IDIUse=3 WtCom= 3.91D-01 WtEn= 6.09D-01
 Coeff-Com:  0.100D+01
 Coeff-En:   0.100D+01
 Coeff:      0.100D+01
 Gap=     0.424 Goal=   None    Shift=    0.000
 GapD=    0.424 DampG=2.000 DampE=0.500 DampFc=1.0000 IDamp=-1.
 RMSDP=6.45D-03 MaxDP=1.15D-01              OVMax= 1.63D-01

 Cycle   2  Pass 1  IDiag  1:
 E= -271.364720678993     Delta-E=        0.017613691008 Rises=F Damp=F
 DIIS: error= 3.63D-02 at cycle   2 NSaved=   2.
 NSaved= 2 IEnMin= 1 EnMin= -271.382334370001     IErMin= 2 ErrMin= 3.63D-02
 ErrMax= 3.63D-02  0.00D+00 EMaxC= 1.00D-01 BMatC= 1.42D-01 BMatP= 2.78D-01
 IDIUse=3 WtCom= 6.37D-01 WtEn= 3.63D-01
 Coeff-Com:  0.385D+00 0.615D+00
 Coeff-En:   0.547D+00 0.453D+00
 Coeff:      0.444D+00 0.556D+00
 Gap=     0.377 Goal=   None    Shift=    0.000
 RMSDP=3.25D-03 MaxDP=9.30D-02 DE= 1.76D-02 OVMax= 1.30D-01

 Cycle   3  Pass 1  IDiag  1:
 E= -271.455545235105     Delta-E=       -0.090824556111 Rises=F Damp=F
 DIIS: error= 1.65D-02 at cycle   3 NSaved=   3.
 NSaved= 3 IEnMin= 3 EnMin= -271.455545235105     IErMin= 3 ErrMin= 1.65D-02
 ErrMax= 1.65D-02  0.00D+00 EMaxC= 1.00D-01 BMatC= 3.21D-02 BMatP= 1.42D-01
 IDIUse=3 WtCom= 8.35D-01 WtEn= 1.65D-01
 Coeff-Com:  0.225D-01 0.321D+00 0.657D+00
 Coeff-En:   0.000D+00 0.210D+00 0.790D+00
 Coeff:      0.188D-01 0.302D+00 0.679D+00
 Gap=     0.388 Goal=   None    Shift=    0.000
 RMSDP=1.19D-03 MaxDP=3.85D-02 DE=-9.08D-02 OVMax= 5.15D-02

 Cycle   4  Pass 1  IDiag  1:
 E= -271.481492015714     Delta-E=       -0.025946780609 Rises=F Damp=F
 DIIS: error= 1.76D-03 at cycle   4 NSaved=   4.
 NSaved= 4 IEnMin= 4 EnMin= -271.481492015714     IErMin= 4 ErrMin= 1.76D-03
 ErrMax= 1.76D-03  0.00D+00 EMaxC= 1.00D-01 BMatC= 6.85D-04 BMatP= 3.21D-02
 IDIUse=3 WtCom= 9.82D-01 WtEn= 1.76D-02
 Coeff-Com:  0.467D-03 0.822D-01 0.247D+00 0.671D+00
 Coeff-En:   0.000D+00 0.000D+00 0.000D+00 0.100D+01
 Coeff:      0.459D-03 0.808D-01 0.242D+00 0.676D+00
 Gap=     0.390 Goal=   None    Shift=    0.000
 RMSDP=2.85D-04 MaxDP=8.97D-03 DE=-2.59D-02 OVMax= 7.35D-03

 Cycle   5  Pass 1  IDiag  1:
 E= -271.481990119569     Delta-E=       -0.000498103855 Rises=F Damp=F
 DIIS: error= 8.81D-04 at cycle   5 NSaved=   5.
 NSaved= 5 IEnMin= 5 EnMin= -271.481990119569     IErMin= 5 ErrMin= 8.81D-04
 ErrMax= 8.81D-04  0.00D+00 EMaxC= 1.00D-01 BMatC= 9.15D-05 BMatP= 6.85D-04
 IDIUse=3 WtCom= 9.91D-01 WtEn= 8.81D-03
 Coeff-Com: -0.842D-03 0.210D-01 0.845D-01 0.371D+00 0.525D+00
 Coeff-En:   0.000D+00 0.000D+00 0.000D+00 0.182D-02 0.998D+00
 Coeff:     -0.834D-03 0.208D-01 0.837D-01 0.367D+00 0.529D+00
 Gap=     0.390 Goal=   None    Shift=    0.000
 RMSDP=7.56D-05 MaxDP=2.09D-03 DE=-4.98D-04 OVMax= 3.66D-03

 Cycle   6  Pass 1  IDiag  1:
 E= -271.482062825381     Delta-E=       -0.000072705812 Rises=F Damp=F
 DIIS: error= 2.59D-04 at cycle   6 NSaved=   6.
 NSaved= 6 IEnMin= 6 EnMin= -271.482062825381     IErMin= 6 ErrMin= 2.59D-04
 ErrMax= 2.59D-04  0.00D+00 EMaxC= 1.00D-01 BMatC= 7.49D-06 BMatP= 9.15D-05
 IDIUse=3 WtCom= 9.97D-01 WtEn= 2.59D-03
 Coeff-Com: -0.399D-03-0.622D-02-0.715D-02 0.443D-01 0.243D+00 0.726D+00
 Coeff-En:   0.000D+00 0.000D+00 0.000D+00 0.000D+00 0.000D+00 0.100D+01
 Coeff:     -0.398D-03-0.620D-02-0.713D-02 0.441D-01 0.243D+00 0.727D+00
 Gap=     0.391 Goal=   None    Shift=    0.000
 RMSDP=4.24D-05 MaxDP=1.78D-03 DE=-7.27D-05 OVMax= 7.81D-04

 Cycle   7  Pass 1  IDiag  1:
 E= -271.482069567183     Delta-E=       -0.000006741803 Rises=F Damp=F
 DIIS: error= 4.27D-05 at cycle   7 NSaved=   7.
 NSaved= 7 IEnMin= 7 EnMin= -271.482069567183     IErMin= 7 ErrMin= 4.27D-05
 ErrMax= 4.27D-05  0.00D+00 EMaxC= 1.00D-01 BMatC= 2.07D-07 BMatP= 7.49D-06
 IDIUse=1 WtCom= 1.00D+00 WtEn= 0.00D+00
 Coeff-Com:  0.224D-05-0.317D-02-0.740D-02-0.148D-01 0.263D-01 0.179D+00
 Coeff-Com:  0.820D+00
 Coeff:      0.224D-05-0.317D-02-0.740D-02-0.148D-01 0.263D-01 0.179D+00
 Coeff:      0.820D+00
 Gap=     0.391 Goal=   None    Shift=    0.000
 RMSDP=9.57D-06 MaxDP=3.69D-04 DE=-6.74D-06 OVMax= 1.42D-04

 Cycle   8  Pass 1  IDiag  1:
 E= -271.482069820355     Delta-E=       -0.000000253172 Rises=F Damp=F
 DIIS: error= 9.83D-06 at cycle   8 NSaved=   8.
 NSaved= 8 IEnMin= 8 EnMin= -271.482069820355     IErMin= 8 ErrMin= 9.83D-06
 ErrMax= 9.83D-06  0.00D+00 EMaxC= 1.00D-01 BMatC= 1.54D-08 BMatP= 2.07D-07
 IDIUse=1 WtCom= 1.00D+00 WtEn= 0.00D+00
 Coeff-Com: -0.297D-08-0.309D-03-0.117D-02-0.717D-02-0.136D-01-0.143D-01
 Coeff-Com:  0.202D+00 0.835D+00
 Coeff:     -0.297D-08-0.309D-03-0.117D-02-0.717D-02-0.136D-01-0.143D-01
 Coeff:      0.202D+00 0.835D+00
 Gap=     0.390 Goal=   None    Shift=    0.000
 RMSDP=2.86D-06 MaxDP=1.12D-04 DE=-2.53D-07 OVMax= 4.20D-05

 Cycle   9  Pass 1  IDiag  1:
 E= -271.482069841917     Delta-E=       -0.000000021562 Rises=F Damp=F
 DIIS: error= 2.11D-06 at cycle   9 NSaved=   9.
 NSaved= 9 IEnMin= 9 EnMin= -271.482069841917     IErMin= 9 ErrMin= 2.11D-06
 ErrMax= 2.11D-06  0.00D+00 EMaxC= 1.00D-01 BMatC= 5.36D-10 BMatP= 1.54D-08
 IDIUse=1 WtCom= 1.00D+00 WtEn= 0.00D+00
 Coeff-Com: -0.919D-08 0.129D-03 0.249D-03-0.890D-04-0.308D-02-0.106D-01
 Coeff-Com: -0.258D-01 0.784D-01 0.961D+00
 Coeff:     -0.919D-08 0.129D-03 0.249D-03-0.890D-04-0.308D-02-0.106D-01
 Coeff:     -0.258D-01 0.784D-01 0.961D+00
 Gap=     0.390 Goal=   None    Shift=    0.000
 RMSDP=5.74D-07 MaxDP=1.45D-05 DE=-2.16D-08 OVMax= 1.40D-05

 Cycle  10  Pass 1  IDiag  1:
 E= -271.482069843143     Delta-E=       -0.000000001226 Rises=F Damp=F
 DIIS: error= 8.09D-07 at cycle  10 NSaved=  10.
 NSaved=10 IEnMin=10 EnMin= -271.482069843143     IErMin=10 ErrMin= 8.09D-07
 ErrMax= 8.09D-07  0.00D+00 EMaxC= 1.00D-01 BMatC= 5.18D-11 BMatP= 5.36D-10
 IDIUse=1 WtCom= 1.00D+00 WtEn= 0.00D+00
 Coeff-Com:  0.132D-05 0.478D-04 0.118D-03 0.370D-03 0.848D-04-0.127D-02
 Coeff-Com: -0.149D-01-0.298D-01 0.156D+00 0.890D+00
 Coeff:      0.132D-05 0.478D-04 0.118D-03 0.370D-03 0.848D-04-0.127D-02
 Coeff:     -0.149D-01-0.298D-01 0.156D+00 0.890D+00
 Gap=     0.390 Goal=   None    Shift=    0.000
 RMSDP=1.51D-07 MaxDP=3.02D-06 DE=-1.23D-09 OVMax= 5.74D-06

 Cycle  11  Pass 1  IDiag  1:
 E= -271.482069843273     Delta-E=       -0.000000000129 Rises=F Damp=F
 DIIS: error= 2.74D-07 at cycle  11 NSaved=  11.
 NSaved=11 IEnMin=11 EnMin= -271.482069843273     IErMin=11 ErrMin= 2.74D-07
 ErrMax= 2.74D-07  0.00D+00 EMaxC= 1.00D-01 BMatC= 5.37D-12 BMatP= 5.18D-11
 IDIUse=1 WtCom= 1.00D+00 WtEn= 0.00D+00
 Coeff-Com:  0.926D-07-0.720D-05-0.119D-04 0.261D-04 0.231D-03 0.794D-03
 Coeff-Com:  0.162D-02-0.761D-02-0.887D-01 0.577D-01 0.104D+01
 Coeff:      0.926D-07-0.720D-05-0.119D-04 0.261D-04 0.231D-03 0.794D-03
 Coeff:      0.162D-02-0.761D-02-0.887D-01 0.577D-01 0.104D+01
 Gap=     0.390 Goal=   None    Shift=    0.000
 RMSDP=5.36D-08 MaxDP=1.51D-06 DE=-1.29D-10 OVMax= 2.82D-06

 Cycle  12  Pass 1  IDiag  1:
 E= -271.482069843292     Delta-E=       -0.000000000019 Rises=F Damp=F
 DIIS: error= 9.47D-08 at cycle  12 NSaved=  12.
 NSaved=12 IEnMin=12 EnMin= -271.482069843292     IErMin=12 ErrMin= 9.47D-08
 ErrMax= 9.47D-08  0.00D+00 EMaxC= 1.00D-01 BMatC= 3.71D-13 BMatP= 5.37D-12
 IDIUse=1 WtCom= 1.00D+00 WtEn= 0.00D+00
 Coeff-Com: -0.143D-06-0.279D-05-0.630D-05-0.264D-04-0.236D-04 0.891D-05
 Coeff-Com:  0.684D-03 0.291D-02 0.722D-03-0.843D-01-0.160D+00 0.124D+01
 Coeff:     -0.143D-06-0.279D-05-0.630D-05-0.264D-04-0.236D-04 0.891D-05
 Coeff:      0.684D-03 0.291D-02 0.722D-03-0.843D-01-0.160D+00 0.124D+01
 Gap=     0.390 Goal=   None    Shift=    0.000
 RMSDP=1.91D-08 MaxDP=5.29D-07 DE=-1.91D-11 OVMax= 1.11D-06

 Cycle  13  Pass 1  IDiag  1:
 E= -271.482069843294     Delta-E=       -0.000000000003 Rises=F Damp=F
 DIIS: error= 1.33D-08 at cycle  13 NSaved=  13.
 NSaved=13 IEnMin=13 EnMin= -271.482069843294     IErMin=13 ErrMin= 1.33D-08
 ErrMax= 1.33D-08  0.00D+00 EMaxC= 1.00D-01 BMatC= 2.56D-14 BMatP= 3.71D-13
 IDIUse=1 WtCom= 1.00D+00 WtEn= 0.00D+00
 Coeff-Com: -0.390D-07-0.385D-06-0.119D-05-0.496D-05-0.704D-05-0.191D-04
 Coeff-Com:  0.562D-04 0.763D-03 0.377D-02-0.154D-01-0.673D-01 0.194D+00
 Coeff-Com:  0.884D+00
 Coeff:     -0.390D-07-0.385D-06-0.119D-05-0.496D-05-0.704D-05-0.191D-04
 Coeff:      0.562D-04 0.763D-03 0.377D-02-0.154D-01-0.673D-01 0.194D+00
 Coeff:      0.884D+00
 Gap=     0.390 Goal=   None    Shift=    0.000
 RMSDP=2.80D-09 MaxDP=5.49D-08 DE=-2.56D-12 OVMax= 1.36D-07

 SCF Done:  E(RwB97XD) =  -271.482069843     A.U. after   13 cycles
            NFock= 13  Conv=0.28D-08     -V/T= 2.0070
 KE= 2.695958256204D+02 PE=-1.022247021673D+03 EE= 2.817001830151D+02
 Leave Link  502 at Thu Aug  7 18:43:07 2025, MaxMem=   104857600 cpu:               8.2 elap:               8.2
 (Enter /Applications/g16/l601.exe)
 Copying SCF densities to generalized density rwf, IOpCl= 0 IROHF=0.

 **********************************************************************

            Population analysis using the SCF Density.

 **********************************************************************

 Orbital symmetries:
       Occupied  (A) (A) (A) (A) (A) (A) (A) (A) (A) (A) (A) (A)
                 (A) (A) (A) (A) (A) (A) (A) (A) (A) (A)
       Virtual   (A) (A) (A) (A) (A) (A) (A) (A) (A) (A) (A) (A)
                 (A) (A) (A) (A) (A) (A) (A) (A) (A) (A) (A) (A)
                 (A) (A) (A) (A) (A) (A) (A) (A) (A) (A) (A) (A)
                 (A) (A) (A) (A) (A) (A) (A) (A) (A) (A) (A) (A)
                 (A) (A) (A) (A) (A) (A) (A) (A) (A) (A) (A) (A)
                 (A) (A) (A) (A) (A) (A) (A) (A) (A) (A) (A) (A)
                 (A) (A) (A) (A) (A) (A) (A) (A) (A) (A) (A) (A)
                 (A) (A) (A) (A) (A) (A) (A)
 The electronic state is 1-A.
 Alpha  occ. eigenvalues --  -14.66989 -14.58301 -10.60091 -10.54122 -10.51817
 Alpha  occ. eigenvalues --  -10.46878  -2.31247  -1.25036  -1.13923  -1.10227
 Alpha  occ. eigenvalues --   -0.98515  -0.81555  -0.76850  -0.76343  -0.73069
 Alpha  occ. eigenvalues --   -0.70091  -0.68562  -0.64919  -0.63701  -0.56826
 Alpha  occ. eigenvalues --   -0.54187  -0.53798
 Alpha virt. eigenvalues --   -0.14750  -0.14180  -0.13372  -0.07164  -0.06408
 Alpha virt. eigenvalues --   -0.06257  -0.01709  -0.01008   0.04054   0.04636
 Alpha virt. eigenvalues --    0.04946   0.05829   0.08138   0.09697   0.10089
 Alpha virt. eigenvalues --    0.12555   0.14228   0.14372   0.23702   0.27792
 Alpha virt. eigenvalues --    0.33313   0.36030   0.36034   0.38972   0.41721
 Alpha virt. eigenvalues --    0.46674   0.47179   0.48036   0.52584   0.53295
 Alpha virt. eigenvalues --    0.54249   0.60077   0.60271   0.63840   0.65660
 Alpha virt. eigenvalues --    0.69676   0.73987   0.76302   0.76813   0.77333
 Alpha virt. eigenvalues --    0.80799   0.83482   0.85697   0.87022   0.91200
 Alpha virt. eigenvalues --    0.93573   0.95826   1.00126   1.03200   1.09579
 Alpha virt. eigenvalues --    1.18839   1.29182   1.30114   1.31237   1.37316
 Alpha virt. eigenvalues --    1.38482   1.42035   1.44998   1.47364   1.50681
 Alpha virt. eigenvalues --    1.61439   1.65162   1.68658   1.76395   1.76960
 Alpha virt. eigenvalues --    1.81195   1.85375   1.87821   1.88773   1.91079
 Alpha virt. eigenvalues --    1.93721   1.97116   2.12661   2.12716   2.16547
 Alpha virt. eigenvalues --    2.25453   2.35205   2.58369   2.65391   2.72227
 Alpha virt. eigenvalues --    2.74099   2.75980   2.79999   3.09202   3.22485
 Alpha virt. eigenvalues --    3.99203   4.02541   4.08542   4.16834   4.46339
 Alpha virt. eigenvalues --    4.68090
          Condensed to atoms (all electrons):
               1          2          3          4          5          6
     1  N    6.622140   0.854959  -0.080862  -0.000692  -0.000053  -0.000000
     2  C    0.854959   4.604114   0.277961  -0.037771   0.003571  -0.000033
     3  C   -0.080862   0.277961   5.229850   0.298148  -0.031064  -0.000936
     4  C   -0.000692  -0.037771   0.298148   5.296576   0.279535  -0.081634
     5  C   -0.000053   0.003571  -0.031064   0.279535   4.962923   0.214865
     6  N   -0.000000  -0.000033  -0.000936  -0.081634   0.214865   7.223618
     7  H    0.000321  -0.001691  -0.025276   0.372209  -0.031464  -0.001153
     8  H    0.000321  -0.001691  -0.025275   0.372198  -0.031457  -0.001152
     9  H   -0.000554  -0.026759   0.377413  -0.032320  -0.003393   0.000249
    10  H   -0.000554  -0.026757   0.377410  -0.032317  -0.003394   0.000248
    11  Li  -0.000012  -0.000054   0.000735  -0.005164  -0.138876   0.347228
               7          8          9         10         11
     1  N    0.000321   0.000321  -0.000554  -0.000554  -0.000012
     2  C   -0.001691  -0.001691  -0.026759  -0.026757  -0.000054
     3  C   -0.025276  -0.025275   0.377413   0.377410   0.000735
     4  C    0.372209   0.372198  -0.032320  -0.032317  -0.005164
     5  C   -0.031464  -0.031457  -0.003393  -0.003394  -0.138876
     6  N   -0.001153  -0.001152   0.000249   0.000248   0.347228
     7  H    0.398500  -0.015898  -0.002202   0.002597   0.000363
     8  H   -0.015898   0.398501   0.002597  -0.002202   0.000362
     9  H   -0.002202   0.002597   0.436900  -0.020123   0.000477
    10  H    0.002597  -0.002202  -0.020123   0.436899   0.000477
    11  Li   0.000363   0.000362   0.000477   0.000477   2.147058
 Mulliken charges:
               1
     1  N   -0.395013
     2  C    0.354151
     3  C   -0.398103
     4  C   -0.428769
     5  C    0.778808
     6  N   -0.701301
     7  H    0.303694
     8  H    0.303697
     9  H    0.267715
    10  H    0.267716
    11  Li   0.647406
 Sum of Mulliken charges =   1.00000
 Mulliken charges with hydrogens summed into heavy atoms:
               1
     1  N   -0.395013
     2  C    0.354151
     3  C    0.137328
     4  C    0.178621
     5  C    0.778808
     6  N   -0.701301
    11  Li   0.647406
 Electronic spatial extent (au):  <R**2>=            882.2825
 Charge=              1.0000 electrons
 Dipole moment (field-independent basis, Debye):
    X=            -15.1140    Y=              1.2149    Z=             -0.0004  Tot=             15.1628
 Quadrupole moment (field-independent basis, Debye-Ang):
   XX=             10.2387   YY=            -30.4551   ZZ=            -32.3305
   XY=             -3.1584   XZ=              0.0043   YZ=             -0.0005
 Traceless Quadrupole moment (field-independent basis, Debye-Ang):
   XX=             27.7543   YY=            -12.9395   ZZ=            -14.8148
   XY=             -3.1584   XZ=              0.0043   YZ=             -0.0005
 Octapole moment (field-independent basis, Debye-Ang**2):
  XXX=           -312.7734  YYY=              1.0656  ZZZ=             -0.0005  XYY=             -7.6918
  XXY=             30.7428  XXZ=             -0.0079  XZZ=             -5.3818  YZZ=              0.1024
  YYZ=             -0.0002  XYZ=              0.0005
 Hexadecapole moment (field-independent basis, Debye-Ang**3):
 XXXX=            -32.7508 YYYY=            -78.7321 ZZZZ=            -41.5639 XXXY=            -95.9336
 XXXZ=              0.0885 YYYX=             -6.1160 YYYZ=              0.0005 ZZZX=              0.0320
 ZZZY=              0.0002 XXYY=           -162.9956 XXZZ=           -166.2933 YYZZ=            -16.4660
 XXYZ=             -0.0043 YYXZ=              0.0112 ZZXY=             -1.4866
 N-N= 1.994689431945D+02 E-N=-1.022247021461D+03  KE= 2.695958256204D+02
 No NMR shielding tensors so no spin-rotation constants.
 Leave Link  601 at Thu Aug  7 18:43:07 2025, MaxMem=   104857600 cpu:               0.0 elap:               0.0
 (Enter /Applications/g16/l701.exe)
 ... and contract with generalized density number  0.
 Compute integral first derivatives.
 R6Disp: Adding Grimme-D2 dispersion energy 1st derivatives to the gradient.
 Leave Link  701 at Thu Aug  7 18:43:07 2025, MaxMem=   104857600 cpu:               0.0 elap:               0.0
 (Enter /Applications/g16/l702.exe)
 L702 exits ... SP integral derivatives will be done elsewhere.
 Leave Link  702 at Thu Aug  7 18:43:07 2025, MaxMem=   104857600 cpu:               0.0 elap:               0.0
 (Enter /Applications/g16/l703.exe)
 Integral derivatives from FoFJK, PRISM(SPDF).
 Compute integral first derivatives, UseDBF=F ICtDFT=           0.
 Calling FoFJK, ICntrl=      2127 FMM=F ISym2X=0 I1Cent= 0 IOpClX= 0 NMat=1 NMatS=1 NMatT=0.
 FoFJK:  IHMeth= 1 ICntrl=    2127 DoSepK=T KAlg= 0 I1Cent=           0 FoldK=F
 IRaf=         1 NMat=       1 IRICut=       1 DoRegI=T DoRafI=F ISym2E= 0 IDoP0=0 IntGTp=1.
 FoFCou: FMM=F IPFlag=           0 FMFlag=      100000 FMFlg1=         800
         NFxFlg=           0 DoJE=F BraDBF=F KetDBF=F FulRan=T
         wScrn=  0.000000 ICntrl=      2527 IOpCl=  0 I1Cent=           0 NGrid=           0
         NMat0=    1 NMatS0=      1 NMatT0=    0 NMatD0=    1 NMtDS0=    0 NMtDT0=    0
 Symmetry not used in FoFCou.
 Leave Link  703 at Thu Aug  7 18:43:09 2025, MaxMem=   104857600 cpu:               2.4 elap:               2.5
 (Enter /Applications/g16/l716.exe)
 Dipole        =-5.94631129D+00 4.77992088D-01-1.70637020D-04
 ***** Axes restored to original set *****
 -------------------------------------------------------------------
 Center     Atomic                   Forces (Hartrees/Bohr)
 Number     Number              X              Y              Z
 -------------------------------------------------------------------
      1        7          -0.000087483    0.000013624    0.000003015
      2        6          -0.000129802   -0.000168207   -0.000006145
      3        6           0.000213389    0.000693691    0.000002779
      4        6          -0.001230508    0.000431283    0.000000440
      5        6           0.006906473   -0.002180514    0.000002299
      6        7           0.212898133   -0.046775707    0.000048288
      7        1          -0.000268318   -0.000151521   -0.000228213
      8        1          -0.000267457   -0.000151679    0.000228125
      9        1           0.000007738    0.000004514   -0.000023385
     10        1           0.000006532    0.000005066    0.000023839
     11        3          -0.218048697    0.048279451   -0.000051041
 -------------------------------------------------------------------
 Cartesian Forces:  Max     0.218048697 RMS     0.054340329
 Leave Link  716 at Thu Aug  7 18:43:09 2025, MaxMem=   104857600 cpu:               0.0 elap:               0.0
 (Enter /Applications/g16/l103.exe)

 GradGradGradGradGradGradGradGradGradGradGradGradGradGradGradGradGradGrad
 Berny optimization.
 FormGI is forming the generalized inverse of G from B-inverse, IUseBI=4.
 Internal  Forces:  Max     0.223329629 RMS     0.036727417
 Search for a local minimum.
 Step number   1 out of a maximum of   47
 All quantities printed in internal units (Hartrees-Bohrs-Radians)
 RMS Force = .96167D-03 SwitMx=.10000D-02 MixMth= 2
 Mixed Optimization -- En-DIIS/RFO-DIIS
 Second derivative matrix not updated -- first step.
 ITU=  0
     Eigenvalues ---    0.00230   0.01265   0.01265   0.04905   0.04905
     Eigenvalues ---    0.05319   0.05645   0.05725   0.05800   0.07382
     Eigenvalues ---    0.07382   0.16000   0.16000   0.16000   0.16000
     Eigenvalues ---    0.22259   0.22339   0.27706   0.34136   0.34136
     Eigenvalues ---    0.34340   0.34340   0.36680   0.37325   1.29707
     Eigenvalues ---    1.305151000.000001000.000001000.000001000.00000
     Eigenvalues --- 1000.000001000.000001000.000001000.000001000.00000
     Eigenvalues --- 1000.000001000.00000
 RFO step:  Lambda=-3.82093663D-05 EMin= 2.30000000D-03
 Linear search not attempted -- first point.
 Iteration  1 RMS(Cart)=  0.00215524 RMS(Int)=  0.00000319
 Iteration  2 RMS(Cart)=  0.00000452 RMS(Int)=  0.00000130
 Iteration  3 RMS(Cart)=  0.00000000 RMS(Int)=  0.00000130
 Iteration  1 RMS(Cart)=  0.00000000 RMS(Int)=  0.00000000
 ITry= 1 IFail=0 DXMaxC= 5.58D-03 DCOld= 1.00D+10 DXMaxT= 3.00D-01 DXLimC= 3.00D+00 Rises=F
 Variable       Old X    -DE/DX   Delta X   Delta X   Delta X     New X
                                 (Linear)    (Quad)   (Total)
    R1        2.18433  -0.00009   0.00000  -0.00007  -0.00007   2.18427
    R2        2.76331  -0.00016   0.00000  -0.00044  -0.00044   2.76287
    R3        2.92785   0.00045   0.00000   0.00162   0.00162   2.92946
    R4        2.06760   0.00002   0.00000   0.00006   0.00006   2.06766
    R5        2.06760   0.00002   0.00000   0.00006   0.00006   2.06766
    R6        2.75359  -0.00187   0.00000  -0.00501  -0.00501   2.74858
    R7        2.07102   0.00022   0.00000   0.00066   0.00066   2.07168
    R8        2.07102   0.00022   0.00000   0.00066   0.00066   2.07168
    R9        2.18661   0.00536   0.00000   0.00413   0.00413   2.19075
   R10        2.64562   0.22333   0.00000   0.00000   0.00000   2.64562
    A1        1.90547  -0.00046   0.00000  -0.00223  -0.00223   1.90324
    A2        1.90488   0.00015   0.00000   0.00036   0.00036   1.90524
    A3        1.90488   0.00016   0.00000   0.00038   0.00038   1.90526
    A4        1.93101   0.00008   0.00000   0.00049   0.00049   1.93150
    A5        1.93101   0.00008   0.00000   0.00048   0.00048   1.93150
    A6        1.88621  -0.00000   0.00000   0.00055   0.00055   1.88677
    A7        1.95454   0.00014   0.00000   0.00009   0.00009   1.95463
    A8        1.93484   0.00024   0.00000   0.00189   0.00189   1.93673
    A9        1.93484   0.00024   0.00000   0.00189   0.00189   1.93673
   A10        1.87988  -0.00028   0.00000  -0.00247  -0.00247   1.87741
   A11        1.87986  -0.00028   0.00000  -0.00246  -0.00246   1.87740
   A12        1.87681  -0.00010   0.00000   0.00086   0.00086   1.87766
   A13        3.11400  -0.00003   0.00000  -0.00222  -0.00222   3.11178
   A14        3.13728  -0.00015   0.00000  -0.00297  -0.00297   3.13432
   A15        3.17644   0.00015   0.00000   0.00202   0.00202   3.17846
   A16        3.12689  -0.00002   0.00000  -0.00125  -0.00125   3.12565
   A17        3.13920  -0.00005   0.00000  -0.00106  -0.00106   3.13814
   A18        3.11414  -0.00004   0.00000  -0.00049  -0.00049   3.11364
    D1        3.14159   0.00000   0.00000   0.00003   0.00003  -3.14157
    D2       -1.04154  -0.00010   0.00000  -0.00175  -0.00175  -1.04329
    D3        1.04155   0.00010   0.00000   0.00180   0.00180   1.04335
    D4       -1.04495  -0.00005   0.00000  -0.00064  -0.00064  -1.04559
    D5        1.05511  -0.00015   0.00000  -0.00242  -0.00242   1.05269
    D6        3.13820   0.00004   0.00000   0.00113   0.00113   3.13933
    D7        1.04493   0.00005   0.00000   0.00068   0.00068   1.04562
    D8       -3.13819  -0.00005   0.00000  -0.00110  -0.00110  -3.13929
    D9       -1.05510   0.00015   0.00000   0.00245   0.00245  -1.05265
         Item               Value     Threshold  Converged?
 Maximum Force            0.005363     0.000450     NO 
 RMS     Force            0.000962     0.000300     NO 
 Maximum Displacement     0.005576     0.001800     NO 
 RMS     Displacement     0.002156     0.001200     NO 
 Predicted change in Energy=-1.910742D-05
 Lowest energy point so far.  Saving SCF results.
 GradGradGradGradGradGradGradGradGradGradGradGradGradGradGradGradGradGrad

 Leave Link  103 at Thu Aug  7 18:43:09 2025, MaxMem=   104857600 cpu:               0.0 elap:               0.0
 (Enter /Applications/g16/l202.exe)
                          Input orientation:                          
 ---------------------------------------------------------------------
 Center     Atomic      Atomic             Coordinates (Angstroms)
 Number     Number       Type             X           Y           Z
 ---------------------------------------------------------------------
      1          7           0        3.259133   -0.180901    0.000195
      2          6           0        2.167326    0.198542    0.000059
      3          6           0        0.771426    0.633335   -0.000113
      4          6           0       -0.147367   -0.615247   -0.000123
      5          6           0       -1.556435   -0.254602   -0.000325
      6          7           0       -2.677263    0.041551    0.000050
      7          1           0        0.035271   -1.236678   -0.884604
      8          1           0        0.035042   -1.236527    0.884512
      9          1           0        0.586981    1.248520   -0.885954
     10          1           0        0.586783    1.248648    0.885599
     11          3           0       -4.044162    0.344186    0.000743
 ---------------------------------------------------------------------
                    Distance matrix (angstroms):
                    1          2          3          4          5
     1  N    0.000000
     2  C    1.155864   0.000000
     3  C    2.617569   1.462047   0.000000
     4  C    3.434080   2.453580   1.550206   0.000000
     5  C    4.816132   3.751231   2.491459   1.454488   0.000000
     6  N    5.940563   4.847132   3.499095   2.613763   1.159294
     7  H    3.505827   2.718114   2.195723   1.096284   2.068804
     8  H    3.505870   2.718145   2.195724   1.096285   2.068795
     9  H    3.157357   2.094030   1.094161   2.190340   2.763683
    10  H    3.157373   2.094043   1.094161   2.190338   2.763694
    11  Li   7.322147   6.213195   4.824261   4.013168   2.558775
                    6          7          8          9         10
     6  N    0.000000
     7  H    3.126391   0.000000
     8  H    3.126077   1.769116   0.000000
     9  H    3.591248   2.545701   3.100749   0.000000
    10  H    3.591000   3.100746   2.545685   1.771554   0.000000
    11  Li   1.400000   4.463714   4.463138   4.801201   4.800695
                   11
    11  Li   0.000000
 Stoichiometry    C4H4LiN2(1+)
 Framework group  C1[X(C4H4LiN2)]
 Deg. of freedom    27
 Full point group                 C1      NOp   1
 RotChk:  IX=2 Diff= 1.31D-04
 Largest Abelian subgroup         C1      NOp   1
 Largest concise Abelian subgroup C1      NOp   1
                         Standard orientation:                         
 ---------------------------------------------------------------------
 Center     Atomic      Atomic             Coordinates (Angstroms)
 Number     Number       Type             X           Y           Z
 ---------------------------------------------------------------------
      1          7           0        3.245280   -0.189056    0.000184
      2          6           0        2.154814    0.194225    0.000048
      3          6           0        0.760452    0.633926   -0.000123
      4          6           0       -0.162727   -0.611417   -0.000134
      5          6           0       -1.570518   -0.245818   -0.000336
      6          7           0       -2.690297    0.054276    0.000039
      7          1           0        0.017724   -1.233487   -0.884615
      8          1           0        0.017496   -1.233335    0.884501
      9          1           0        0.578172    1.249755   -0.885965
     10          1           0        0.577975    1.249884    0.885589
     11          3           0       -4.056123    0.361717    0.000733
 ---------------------------------------------------------------------
 Rotational constants (GHZ):          23.7273463           1.0977926           1.0631915
 Leave Link  202 at Thu Aug  7 18:43:09 2025, MaxMem=   104857600 cpu:               0.0 elap:               0.0
 (Enter /Applications/g16/l301.exe)
 Standard basis: 6-31G(d) (6D, 7F)
 Ernie: Thresh=  0.10000D-02 Tol=  0.10000D-05 Strict=F.
 There are   113 symmetry adapted cartesian basis functions of A   symmetry.
 There are   113 symmetry adapted basis functions of A   symmetry.
   113 basis functions,   212 primitive gaussians,   113 cartesian basis functions
    22 alpha electrons       22 beta electrons
       nuclear repulsion energy       199.4902852963 Hartrees.
 IExCor= 4639 DFT=T Ex+Corr=wB97XD ExCW=0 ScaHFX=  1.000000
 ScaDFX=  1.000000  1.000000  1.000000  1.000000 ScalE2=  1.000000  1.000000
 IRadAn=      5 IRanWt=     -1 IRanGd=            0 ICorTp=0 IEmpDi=121
 HFx  wShort=  0.000000 wLong=  0.200000 cFull=  0.222036 cShort=  0.000000 cLong=  0.777964
 DFx  wShort=  0.000000 wLong=  0.200000 cFull=  0.000000 cShort=  0.000000 cLong=  1.000000
 NAtoms=   11 NActive=   11 NUniq=   11 SFac= 1.00D+00 NAtFMM=   60 NAOKFM=F Big=F
 Integral buffers will be    131072 words long.
 Raffenetti 2 integral format.
 Two-electron integral symmetry is turned on.
 R6Disp:  Grimme-D2 Dispersion energy=       -0.0048536784 Hartrees.
 Nuclear repulsion after empirical dispersion term =      199.4854316180 Hartrees.
 Leave Link  301 at Thu Aug  7 18:43:09 2025, MaxMem=   104857600 cpu:               0.0 elap:               0.0
 (Enter /Applications/g16/l302.exe)
 NPDir=0 NMtPBC=     1 NCelOv=     1 NCel=       1 NClECP=     1 NCelD=      1
         NCelK=      1 NCelE2=     1 NClLst=     1 CellRange=     0.0.
 One-electron integrals computed using PRISM.
 One-electron integral symmetry used in STVInt
 NBasis=   113 RedAO= T EigKep=  7.91D-04  NBF=   113
 NBsUse=   113 1.00D-06 EigRej= -1.00D+00 NBFU=   113
 Precomputing XC quadrature grid using
 IXCGrd= 4 IRadAn=           5 IRanWt=          -1 IRanGd=           0 AccXCQ= 0.00D+00.
 Generated NRdTot=       0 NPtTot=           0 NUsed=           0 NTot=          32
 NSgBfM=   113   113   113   113   113 MxSgAt=    11 MxSgA2=    11.
 Leave Link  302 at Thu Aug  7 18:43:09 2025, MaxMem=   104857600 cpu:               0.1 elap:               0.1
 (Enter /Applications/g16/l303.exe)
 DipDrv:  MaxL=1.
 Leave Link  303 at Thu Aug  7 18:43:09 2025, MaxMem=   104857600 cpu:               0.0 elap:               0.0
 (Enter /Applications/g16/l401.exe)
 Initial guess from the checkpoint file:  "/Users/srak/g16_scratch/Gau-74194.chk"
 B after Tr=     0.000000   -0.000000   -0.000000
         Rot=    1.000000   -0.000032    0.000023   -0.000016 Ang=  -0.00 deg.
 Guess basis will be translated and rotated to current coordinates.
 JPrj=2 DoOrth=T DoCkMO=T.
 Leave Link  401 at Thu Aug  7 18:43:09 2025, MaxMem=   104857600 cpu:               0.0 elap:               0.0
 (Enter /Applications/g16/l502.exe)
 Keep R1 ints in memory in canonical form, NReq=43174005.
 FoFCou: FMM=F IPFlag=           0 FMFlag=           0 FMFlg1=           0
         NFxFlg=           0 DoJE=F BraDBF=F KetDBF=F FulRan=T
         wScrn=  0.000000 ICntrl=       600 IOpCl=  0 I1Cent=           0 NGrid=           0
         NMat0=    1 NMatS0=   6441 NMatT0=    0 NMatD0=    1 NMtDS0=    0 NMtDT0=    0
 Symmetry not used in FoFCou.
 Two-electron integral symmetry not used.
 Closed shell SCF:
 Using DIIS extrapolation, IDIIS=  1040.
 NGot=   104857600 LenX=    63336875 LenY=    63323665
 Requested convergence on RMS density matrix=1.00D-08 within 128 cycles.
 Requested convergence on MAX density matrix=1.00D-06.
 Requested convergence on             energy=1.00D-06.
 No special actions if energy rises.

 Cycle   1  Pass 1  IDiag  1:
 E= -271.482072879168    
 DIIS: error= 2.37D-04 at cycle   1 NSaved=   1.
 NSaved= 1 IEnMin= 1 EnMin= -271.482072879168     IErMin= 1 ErrMin= 2.37D-04
 ErrMax= 2.37D-04  0.00D+00 EMaxC= 1.00D-01 BMatC= 1.03D-05 BMatP= 1.03D-05
 IDIUse=3 WtCom= 9.98D-01 WtEn= 2.37D-03
 Coeff-Com:  0.100D+01
 Coeff-En:   0.100D+01
 Coeff:      0.100D+01
 Gap=     1.244 Goal=   None    Shift=    0.000
 RMSDP=5.59D-05 MaxDP=1.64D-03              OVMax= 1.11D-03

 Cycle   2  Pass 1  IDiag  1:
 E= -271.482087630098     Delta-E=       -0.000014750931 Rises=F Damp=F
 DIIS: error= 7.32D-05 at cycle   2 NSaved=   2.
 NSaved= 2 IEnMin= 2 EnMin= -271.482087630098     IErMin= 2 ErrMin= 7.32D-05
 ErrMax= 7.32D-05  0.00D+00 EMaxC= 1.00D-01 BMatC= 8.64D-07 BMatP= 1.03D-05
 IDIUse=1 WtCom= 1.00D+00 WtEn= 0.00D+00
 Coeff-Com:  0.300D-01 0.970D+00
 Coeff:      0.300D-01 0.970D+00
 Gap=     0.390 Goal=   None    Shift=    0.000
 RMSDP=1.28D-05 MaxDP=3.02D-04 DE=-1.48D-05 OVMax= 4.32D-04

 Cycle   3  Pass 1  IDiag  1:
 E= -271.482088217313     Delta-E=       -0.000000587215 Rises=F Damp=F
 DIIS: error= 7.10D-05 at cycle   3 NSaved=   3.
 NSaved= 3 IEnMin= 3 EnMin= -271.482088217313     IErMin= 3 ErrMin= 7.10D-05
 ErrMax= 7.10D-05  0.00D+00 EMaxC= 1.00D-01 BMatC= 7.10D-07 BMatP= 8.64D-07
 IDIUse=1 WtCom= 1.00D+00 WtEn= 0.00D+00
 Coeff-Com: -0.592D-01 0.489D+00 0.570D+00
 Coeff:     -0.592D-01 0.489D+00 0.570D+00
 Gap=     0.390 Goal=   None    Shift=    0.000
 RMSDP=6.90D-06 MaxDP=2.13D-04 DE=-5.87D-07 OVMax= 2.61D-04

 Cycle   4  Pass 1  IDiag  1:
 E= -271.482088766612     Delta-E=       -0.000000549299 Rises=F Damp=F
 DIIS: error= 3.16D-05 at cycle   4 NSaved=   4.
 NSaved= 4 IEnMin= 4 EnMin= -271.482088766612     IErMin= 4 ErrMin= 3.16D-05
 ErrMax= 3.16D-05  0.00D+00 EMaxC= 1.00D-01 BMatC= 8.93D-08 BMatP= 7.10D-07
 IDIUse=1 WtCom= 1.00D+00 WtEn= 0.00D+00
 Coeff-Com: -0.289D-01 0.582D-01 0.282D+00 0.689D+00
 Coeff:     -0.289D-01 0.582D-01 0.282D+00 0.689D+00
 Gap=     0.390 Goal=   None    Shift=    0.000
 RMSDP=2.32D-06 MaxDP=6.08D-05 DE=-5.49D-07 OVMax= 9.00D-05

 Cycle   5  Pass 1  IDiag  1:
 E= -271.482088854614     Delta-E=       -0.000000088002 Rises=F Damp=F
 DIIS: error= 4.36D-06 at cycle   5 NSaved=   5.
 NSaved= 5 IEnMin= 5 EnMin= -271.482088854614     IErMin= 5 ErrMin= 4.36D-06
 ErrMax= 4.36D-06  0.00D+00 EMaxC= 1.00D-01 BMatC= 2.87D-09 BMatP= 8.93D-08
 IDIUse=1 WtCom= 1.00D+00 WtEn= 0.00D+00
 Coeff-Com: -0.699D-03-0.296D-01 0.743D-02 0.143D+00 0.879D+00
 Coeff:     -0.699D-03-0.296D-01 0.743D-02 0.143D+00 0.879D+00
 Gap=     0.390 Goal=   None    Shift=    0.000
 RMSDP=7.69D-07 MaxDP=1.24D-05 DE=-8.80D-08 OVMax= 3.64D-05

 Cycle   6  Pass 1  IDiag  1:
 E= -271.482088859069     Delta-E=       -0.000000004455 Rises=F Damp=F
 DIIS: error= 2.19D-06 at cycle   6 NSaved=   6.
 NSaved= 6 IEnMin= 6 EnMin= -271.482088859069     IErMin= 6 ErrMin= 2.19D-06
 ErrMax= 2.19D-06  0.00D+00 EMaxC= 1.00D-01 BMatC= 6.73D-10 BMatP= 2.87D-09
 IDIUse=1 WtCom= 1.00D+00 WtEn= 0.00D+00
 Coeff-Com:  0.308D-02-0.195D-01-0.319D-01-0.235D-01 0.355D+00 0.717D+00
 Coeff:      0.308D-02-0.195D-01-0.319D-01-0.235D-01 0.355D+00 0.717D+00
 Gap=     0.390 Goal=   None    Shift=    0.000
 RMSDP=3.60D-07 MaxDP=9.23D-06 DE=-4.46D-09 OVMax= 1.41D-05

 Cycle   7  Pass 1  IDiag  1:
 E= -271.482088859702     Delta-E=       -0.000000000632 Rises=F Damp=F
 DIIS: error= 1.51D-06 at cycle   7 NSaved=   7.
 NSaved= 7 IEnMin= 7 EnMin= -271.482088859702     IErMin= 7 ErrMin= 1.51D-06
 ErrMax= 1.51D-06  0.00D+00 EMaxC= 1.00D-01 BMatC= 2.43D-10 BMatP= 6.73D-10
 IDIUse=1 WtCom= 1.00D+00 WtEn= 0.00D+00
 Coeff-Com:  0.195D-02-0.692D-02-0.209D-01-0.388D-01 0.723D-01 0.437D+00
 Coeff-Com:  0.555D+00
 Coeff:      0.195D-02-0.692D-02-0.209D-01-0.388D-01 0.723D-01 0.437D+00
 Coeff:      0.555D+00
 Gap=     0.390 Goal=   None    Shift=    0.000
 RMSDP=1.34D-07 MaxDP=3.10D-06 DE=-6.32D-10 OVMax= 5.29D-06

 Cycle   8  Pass 1  IDiag  1:
 E= -271.482088859922     Delta-E=       -0.000000000221 Rises=F Damp=F
 DIIS: error= 2.11D-07 at cycle   8 NSaved=   8.
 NSaved= 8 IEnMin= 8 EnMin= -271.482088859922     IErMin= 8 ErrMin= 2.11D-07
 ErrMax= 2.11D-07  0.00D+00 EMaxC= 1.00D-01 BMatC= 6.01D-12 BMatP= 2.43D-10
 IDIUse=1 WtCom= 1.00D+00 WtEn= 0.00D+00
 Coeff-Com:  0.284D-03-0.577D-06-0.294D-02-0.961D-02-0.143D-01 0.571D-01
 Coeff-Com:  0.164D+00 0.806D+00
 Coeff:      0.284D-03-0.577D-06-0.294D-02-0.961D-02-0.143D-01 0.571D-01
 Coeff:      0.164D+00 0.806D+00
 Gap=     0.390 Goal=   None    Shift=    0.000
 RMSDP=3.14D-08 MaxDP=5.13D-07 DE=-2.21D-10 OVMax= 1.23D-06

 Cycle   9  Pass 1  IDiag  1:
 E= -271.482088859925     Delta-E=       -0.000000000003 Rises=F Damp=F
 DIIS: error= 4.50D-08 at cycle   9 NSaved=   9.
 NSaved= 9 IEnMin= 9 EnMin= -271.482088859925     IErMin= 9 ErrMin= 4.50D-08
 ErrMax= 4.50D-08  0.00D+00 EMaxC= 1.00D-01 BMatC= 3.29D-13 BMatP= 6.01D-12
 IDIUse=1 WtCom= 1.00D+00 WtEn= 0.00D+00
 Coeff-Com: -0.122D-03 0.672D-03 0.131D-02 0.156D-02-0.961D-02-0.268D-01
 Coeff-Com: -0.154D-01 0.171D+00 0.877D+00
 Coeff:     -0.122D-03 0.672D-03 0.131D-02 0.156D-02-0.961D-02-0.268D-01
 Coeff:     -0.154D-01 0.171D+00 0.877D+00
 Gap=     0.390 Goal=   None    Shift=    0.000
 RMSDP=9.82D-09 MaxDP=1.66D-07 DE=-2.73D-12 OVMax= 2.98D-07

 SCF Done:  E(RwB97XD) =  -271.482088860     A.U. after    9 cycles
            NFock=  9  Conv=0.98D-08     -V/T= 2.0070
 KE= 2.695880511054D+02 PE=-1.022272048826D+03 EE= 2.817164772431D+02
 Leave Link  502 at Thu Aug  7 18:43:15 2025, MaxMem=   104857600 cpu:               5.8 elap:               5.8
 (Enter /Applications/g16/l701.exe)
 ... and contract with generalized density number  0.
 Compute integral first derivatives.
 R6Disp: Adding Grimme-D2 dispersion energy 1st derivatives to the gradient.
 Leave Link  701 at Thu Aug  7 18:43:15 2025, MaxMem=   104857600 cpu:               0.0 elap:               0.0
 (Enter /Applications/g16/l702.exe)
 L702 exits ... SP integral derivatives will be done elsewhere.
 Leave Link  702 at Thu Aug  7 18:43:15 2025, MaxMem=   104857600 cpu:               0.0 elap:               0.0
 (Enter /Applications/g16/l703.exe)
 Integral derivatives from FoFJK, PRISM(SPDF).
 Compute integral first derivatives, UseDBF=F ICtDFT=           0.
 Calling FoFJK, ICntrl=      2127 FMM=F ISym2X=0 I1Cent= 0 IOpClX= 0 NMat=1 NMatS=1 NMatT=0.
 FoFJK:  IHMeth= 1 ICntrl=    2127 DoSepK=T KAlg= 0 I1Cent=           0 FoldK=F
 IRaf=         1 NMat=       1 IRICut=       1 DoRegI=T DoRafI=F ISym2E= 0 IDoP0=0 IntGTp=1.
 FoFCou: FMM=F IPFlag=           0 FMFlag=      100000 FMFlg1=         800
         NFxFlg=           0 DoJE=F BraDBF=F KetDBF=F FulRan=T
         wScrn=  0.000000 ICntrl=      2527 IOpCl=  0 I1Cent=           0 NGrid=           0
         NMat0=    1 NMatS0=      1 NMatT0=    0 NMatD0=    1 NMtDS0=    0 NMtDT0=    0
 Symmetry not used in FoFCou.
 Leave Link  703 at Thu Aug  7 18:43:18 2025, MaxMem=   104857600 cpu:               2.4 elap:               2.4
 (Enter /Applications/g16/l716.exe)
 Dipole        =-5.93845984D+00 4.78241331D-01 7.60369615D-04
 ***** Axes restored to original set *****
 -------------------------------------------------------------------
 Center     Atomic                   Forces (Hartrees/Bohr)
 Number     Number              X              Y              Z
 -------------------------------------------------------------------
      1        7           0.000024138    0.000044950    0.000000015
      2        6          -0.000007591   -0.000170158    0.000001331
      3        6           0.000175076    0.000225048   -0.000002241
      4        6          -0.000514645    0.000027960   -0.000026248
      5        6           0.000327200    0.000051806    0.000048020
      6        7           0.217802140   -0.048191814   -0.000130102
      7        1           0.000131307   -0.000037934   -0.000008826
      8        1           0.000122411   -0.000037866    0.000009965
      9        1          -0.000063129   -0.000054434    0.000009792
     10        1          -0.000062322   -0.000054795   -0.000009794
     11        3          -0.217934586    0.048197236    0.000108088
 -------------------------------------------------------------------
 Cartesian Forces:  Max     0.217934586 RMS     0.054932258
 Leave Link  716 at Thu Aug  7 18:43:18 2025, MaxMem=   104857600 cpu:               0.0 elap:               0.0
 (Enter /Applications/g16/l103.exe)

 GradGradGradGradGradGradGradGradGradGradGradGradGradGradGradGradGradGrad
 Berny optimization.
 Using GEDIIS/GDIIS optimizer.
 FormGI is forming the generalized inverse of G from B-inverse, IUseBI=4.
 GSVD:  received Info=                   1 from GESDD.
 Internal  Forces:  Max     0.223200471 RMS     0.036694012
 Search for a local minimum.
 Step number   2 out of a maximum of   47
 All quantities printed in internal units (Hartrees-Bohrs-Radians)
 RMS Force = .77940D-04 SwitMx=.10000D-02 MixMth= 2
 Mixed Optimization -- En-DIIS/RFO-DIIS
 Swapping is turned off.
 Update second derivatives using D2CorX and points    1    2
 DE= -1.90D-05 DEPred=-1.91D-05 R= 9.95D-01
 TightC=F SS=  1.41D+00  RLast= 1.07D-02 DXNew= 5.0454D-01 3.2064D-02
 Trust test= 9.95D-01 RLast= 1.07D-02 DXMaxT set to 3.00D-01
 ITU=  1  0
     Eigenvalues ---    0.00230   0.01265   0.01282   0.04902   0.05012
     Eigenvalues ---    0.05316   0.05658   0.05786   0.06034   0.07271
     Eigenvalues ---    0.07382   0.15893   0.16000   0.16000   0.16465
     Eigenvalues ---    0.21937   0.22283   0.27631   0.33898   0.34136
     Eigenvalues ---    0.34340   0.34340   0.35842   0.36769   1.26238
     Eigenvalues ---    1.305211000.000001000.000001000.000001000.00000
     Eigenvalues --- 1000.000001000.000001000.000001000.000001000.00000
     Eigenvalues --- 1000.000001000.00000
 En-DIIS/RFO-DIIS/Sim-DIIS IScMMF=       -3 using points:     2    1
 RFO step:  Lambda=-5.27383651D-05.
 NNeg= 0 NGDIIS= 2 SimSw=  2.50D-03 Rises=F DC= -1.90D-05 SmlDif=  1.00D-05
 NRisDI= 0 DoIntr=F SqrtH=F CThrHd= 10.0 CDAdj=  3.0
 RMS Error=  0.1611618156D-02 NUsed= 2 OKEnD=T EnDIS=F
 InvSVX:  RCond= 1.28D-04 Info=           0 Equed=N FErr=  2.86D-15 BErr=  1.36D-17
 DidBck=T Rises=F RFO-DIIS coefs:    0.69280    0.30720
 Iteration  1 RMS(Cart)=  0.00283820 RMS(Int)=  0.00000754
 Iteration  2 RMS(Cart)=  0.00000992 RMS(Int)=  0.00000025
 Iteration  3 RMS(Cart)=  0.00000000 RMS(Int)=  0.00000025
 Iteration  1 RMS(Cart)=  0.00000000 RMS(Int)=  0.00000000
 ITry= 1 IFail=0 DXMaxC= 8.52D-03 DCOld= 1.00D+10 DXMaxT= 3.00D-01 DXLimC= 3.00D+00 Rises=F
 Variable       Old X    -DE/DX   Delta X   Delta X   Delta X     New X
                                 (Linear)    (Quad)   (Total)
    R1        2.18427   0.00001   0.00002  -0.00002   0.00000   2.18427
    R2        2.76287   0.00005   0.00014  -0.00003   0.00011   2.76298
    R3        2.92946   0.00003  -0.00050   0.00074   0.00024   2.92970
    R4        2.06766  -0.00003  -0.00002  -0.00006  -0.00008   2.06759
    R5        2.06766  -0.00003  -0.00002  -0.00006  -0.00008   2.06759
    R6        2.74858  -0.00017   0.00154  -0.00239  -0.00085   2.74774
    R7        2.07168   0.00005  -0.00020   0.00040   0.00020   2.07187
    R8        2.07168   0.00005  -0.00020   0.00040   0.00020   2.07187
    R9        2.19075   0.00013  -0.00127   0.00169   0.00042   2.19116
   R10        2.64562   0.22320   0.00000   0.00000   0.00000   2.64562
    A1        1.90324  -0.00011   0.00068  -0.00128  -0.00059   1.90265
    A2        1.90524   0.00010  -0.00011   0.00075   0.00064   1.90588
    A3        1.90526   0.00010  -0.00012   0.00073   0.00062   1.90588
    A4        1.93150  -0.00007  -0.00015  -0.00033  -0.00048   1.93102
    A5        1.93150  -0.00007  -0.00015  -0.00034  -0.00049   1.93101
    A6        1.88677   0.00007  -0.00017   0.00052   0.00035   1.88711
    A7        1.95463   0.00001  -0.00003   0.00033   0.00030   1.95492
    A8        1.93673  -0.00009  -0.00058   0.00001  -0.00057   1.93616
    A9        1.93673  -0.00008  -0.00058   0.00003  -0.00055   1.93618
   A10        1.87741   0.00009   0.00076   0.00001   0.00077   1.87818
   A11        1.87740   0.00008   0.00076  -0.00010   0.00066   1.87806
   A12        1.87766   0.00001  -0.00026  -0.00030  -0.00056   1.87710
   A13        3.11178   0.00010   0.00068   0.00712   0.00780   3.11958
   A14        3.13432   0.00021   0.00091   0.00308   0.00399   3.13831
   A15        3.17846   0.00012  -0.00062   0.00245   0.00183   3.18029
   A16        3.12565   0.00004   0.00038   0.00234   0.00273   3.12837
   A17        3.13814   0.00003   0.00033   0.00010   0.00043   3.13857
   A18        3.11364  -0.00004   0.00015  -0.00070  -0.00055   3.11309
    D1       -3.14157  -0.00000  -0.00001  -0.00014  -0.00015   3.14147
    D2       -1.04329   0.00005   0.00054   0.00010   0.00064  -1.04265
    D3        1.04335  -0.00005  -0.00055  -0.00025  -0.00080   1.04255
    D4       -1.04559   0.00000   0.00020  -0.00023  -0.00003  -1.04562
    D5        1.05269   0.00006   0.00074   0.00001   0.00076   1.05345
    D6        3.13933  -0.00004  -0.00035  -0.00034  -0.00069   3.13865
    D7        1.04562  -0.00001  -0.00021  -0.00002  -0.00023   1.04539
    D8       -3.13929   0.00004   0.00034   0.00022   0.00056  -3.13873
    D9       -1.05265  -0.00005  -0.00075  -0.00013  -0.00088  -1.05353
         Item               Value     Threshold  Converged?
 Maximum Force            0.000208     0.000450     YES
 RMS     Force            0.000078     0.000300     YES
 Maximum Displacement     0.008523     0.001800     NO 
 RMS     Displacement     0.002836     0.001200     NO 
 Predicted change in Energy=-1.462260D-06
 Lowest energy point so far.  Saving SCF results.
 GradGradGradGradGradGradGradGradGradGradGradGradGradGradGradGradGradGrad

 Leave Link  103 at Thu Aug  7 18:43:18 2025, MaxMem=   104857600 cpu:               0.0 elap:               0.0
 (Enter /Applications/g16/l202.exe)
                          Input orientation:                          
 ---------------------------------------------------------------------
 Center     Atomic      Atomic             Coordinates (Angstroms)
 Number     Number       Type             X           Y           Z
 ---------------------------------------------------------------------
      1          7           0        3.261422   -0.178656    0.000487
      2          6           0        2.167515    0.194691   -0.000472
      3          6           0        0.772637    0.632947   -0.000167
      4          6           0       -0.148573   -0.614010   -0.000002
      5          6           0       -1.556635   -0.251255    0.000466
      6          7           0       -2.678327    0.042478   -0.000140
      7          1           0        0.033530   -1.235697   -0.884543
      8          1           0        0.033958   -1.235800    0.884379
      9          1           0        0.588626    1.248253   -0.885965
     10          1           0        0.589000    1.248199    0.885745
     11          3           0       -4.046418    0.339676    0.000251
 ---------------------------------------------------------------------
                    Distance matrix (angstroms):
                    1          2          3          4          5
     1  N    0.000000
     2  C    1.155864   0.000000
     3  C    2.617776   1.462106   0.000000
     4  C    3.437674   2.453215   1.550332   0.000000
     5  C    4.818604   3.750754   2.491449   1.454039   0.000000
     6  N    5.943864   4.848232   3.501115   2.613548   1.159514
     7  H    3.509971   2.716889   2.195502   1.096389   2.069056
     8  H    3.509322   2.716860   2.195514   1.096389   2.068965
     9  H    3.156850   2.094512   1.094120   2.190073   2.763409
    10  H    3.156174   2.094509   1.094120   2.190065   2.763301
    11  Li   7.326199   6.215624   4.827970   4.012818   2.558949
                    6          7          8          9         10
     6  N    0.000000
     7  H    3.125711   0.000000
     8  H    3.126157   1.768921   0.000000
     9  H    3.593266   2.545220   3.100369   0.000000
    10  H    3.593603   3.100356   2.545255   1.771710   0.000000
    11  Li   1.400000   4.462134   4.462429   4.805676   4.805894
                   11
    11  Li   0.000000
 Stoichiometry    C4H4LiN2(1+)
 Framework group  C1[X(C4H4LiN2)]
 Deg. of freedom    27
 Full point group                 C1      NOp   1
 RotChk:  IX=2 Diff= 4.08D-04
 Largest Abelian subgroup         C1      NOp   1
 Largest concise Abelian subgroup C1      NOp   1
                         Standard orientation:                         
 ---------------------------------------------------------------------
 Center     Atomic      Atomic             Coordinates (Angstroms)
 Number     Number       Type             X           Y           Z
 ---------------------------------------------------------------------
      1          7           0        3.247499   -0.187317    0.000396
      2          6           0        2.154940    0.189956   -0.000457
      3          6           0        0.761644    0.633217   -0.000029
      4          6           0       -0.164037   -0.610425   -0.000211
      5          6           0       -1.570787   -0.242616    0.000359
      6          7           0       -2.691417    0.055143   -0.000164
      7          1           0        0.015833   -1.232515   -0.884926
      8          1           0        0.016261   -1.233112    0.883996
      9          1           0        0.579844    1.249427   -0.885655
     10          1           0        0.580218    1.248877    0.886055
     11          3           0       -4.058432    0.357250    0.000312
 ---------------------------------------------------------------------
 Rotational constants (GHZ):          23.8396674           1.0966846           1.0623760
 Leave Link  202 at Thu Aug  7 18:43:18 2025, MaxMem=   104857600 cpu:               0.0 elap:               0.0
 (Enter /Applications/g16/l301.exe)
 Standard basis: 6-31G(d) (6D, 7F)
 Ernie: Thresh=  0.10000D-02 Tol=  0.10000D-05 Strict=F.
 There are   113 symmetry adapted cartesian basis functions of A   symmetry.
 There are   113 symmetry adapted basis functions of A   symmetry.
   113 basis functions,   212 primitive gaussians,   113 cartesian basis functions
    22 alpha electrons       22 beta electrons
       nuclear repulsion energy       199.4693205690 Hartrees.
 IExCor= 4639 DFT=T Ex+Corr=wB97XD ExCW=0 ScaHFX=  1.000000
 ScaDFX=  1.000000  1.000000  1.000000  1.000000 ScalE2=  1.000000  1.000000
 IRadAn=      5 IRanWt=     -1 IRanGd=            0 ICorTp=0 IEmpDi=121
 HFx  wShort=  0.000000 wLong=  0.200000 cFull=  0.222036 cShort=  0.000000 cLong=  0.777964
 DFx  wShort=  0.000000 wLong=  0.200000 cFull=  0.000000 cShort=  0.000000 cLong=  1.000000
 NAtoms=   11 NActive=   11 NUniq=   11 SFac= 1.00D+00 NAtFMM=   60 NAOKFM=F Big=F
 Integral buffers will be    131072 words long.
 Raffenetti 2 integral format.
 Two-electron integral symmetry is turned on.
 R6Disp:  Grimme-D2 Dispersion energy=       -0.0048516360 Hartrees.
 Nuclear repulsion after empirical dispersion term =      199.4644689331 Hartrees.
 Leave Link  301 at Thu Aug  7 18:43:18 2025, MaxMem=   104857600 cpu:               0.0 elap:               0.0
 (Enter /Applications/g16/l302.exe)
 NPDir=0 NMtPBC=     1 NCelOv=     1 NCel=       1 NClECP=     1 NCelD=      1
         NCelK=      1 NCelE2=     1 NClLst=     1 CellRange=     0.0.
 One-electron integrals computed using PRISM.
 One-electron integral symmetry used in STVInt
 NBasis=   113 RedAO= T EigKep=  7.88D-04  NBF=   113
 NBsUse=   113 1.00D-06 EigRej= -1.00D+00 NBFU=   113
 Precomputing XC quadrature grid using
 IXCGrd= 4 IRadAn=           5 IRanWt=          -1 IRanGd=           0 AccXCQ= 0.00D+00.
 Generated NRdTot=       0 NPtTot=           0 NUsed=           0 NTot=          32
 NSgBfM=   113   113   113   113   113 MxSgAt=    11 MxSgA2=    11.
 Leave Link  302 at Thu Aug  7 18:43:18 2025, MaxMem=   104857600 cpu:               0.1 elap:               0.1
 (Enter /Applications/g16/l303.exe)
 DipDrv:  MaxL=1.
 Leave Link  303 at Thu Aug  7 18:43:18 2025, MaxMem=   104857600 cpu:               0.0 elap:               0.0
 (Enter /Applications/g16/l401.exe)
 Initial guess from the checkpoint file:  "/Users/srak/g16_scratch/Gau-74194.chk"
 B after Tr=     0.000000   -0.000000    0.000000
         Rot=    1.000000   -0.000048    0.000001    0.000055 Ang=  -0.01 deg.
 Guess basis will be translated and rotated to current coordinates.
 JPrj=2 DoOrth=T DoCkMO=T.
 Leave Link  401 at Thu Aug  7 18:43:18 2025, MaxMem=   104857600 cpu:               0.0 elap:               0.0
 (Enter /Applications/g16/l502.exe)
 Keep R1 ints in memory in canonical form, NReq=43174005.
 FoFCou: FMM=F IPFlag=           0 FMFlag=           0 FMFlg1=           0
         NFxFlg=           0 DoJE=F BraDBF=F KetDBF=F FulRan=T
         wScrn=  0.000000 ICntrl=       600 IOpCl=  0 I1Cent=           0 NGrid=           0
         NMat0=    1 NMatS0=   6441 NMatT0=    0 NMatD0=    1 NMtDS0=    0 NMtDT0=    0
 Symmetry not used in FoFCou.
 Two-electron integral symmetry not used.
 Closed shell SCF:
 Using DIIS extrapolation, IDIIS=  1040.
 NGot=   104857600 LenX=    63336875 LenY=    63323665
 Requested convergence on RMS density matrix=1.00D-08 within 128 cycles.
 Requested convergence on MAX density matrix=1.00D-06.
 Requested convergence on             energy=1.00D-06.
 No special actions if energy rises.

 Cycle   1  Pass 1  IDiag  1:
 E= -271.482060025100    
 DIIS: error= 4.07D-04 at cycle   1 NSaved=   1.
 NSaved= 1 IEnMin= 1 EnMin= -271.482060025100     IErMin= 1 ErrMin= 4.07D-04
 ErrMax= 4.07D-04  0.00D+00 EMaxC= 1.00D-01 BMatC= 1.60D-05 BMatP= 1.60D-05
 IDIUse=3 WtCom= 9.96D-01 WtEn= 4.07D-03
 Coeff-Com:  0.100D+01
 Coeff-En:   0.100D+01
 Coeff:      0.100D+01
 Gap=     1.245 Goal=   None    Shift=    0.000
 RMSDP=7.05D-05 MaxDP=1.20D-03              OVMax= 1.72D-03

 Cycle   2  Pass 1  IDiag  1:
 E= -271.482085750412     Delta-E=       -0.000025725312 Rises=F Damp=F
 DIIS: error= 7.00D-05 at cycle   2 NSaved=   2.
 NSaved= 2 IEnMin= 2 EnMin= -271.482085750412     IErMin= 2 ErrMin= 7.00D-05
 ErrMax= 7.00D-05  0.00D+00 EMaxC= 1.00D-01 BMatC= 6.99D-07 BMatP= 1.60D-05
 IDIUse=1 WtCom= 1.00D+00 WtEn= 0.00D+00
 Coeff-Com: -0.172D+00 0.117D+01
 Coeff:     -0.172D+00 0.117D+01
 Gap=     0.390 Goal=   None    Shift=    0.000
 RMSDP=1.79D-05 MaxDP=3.49D-04 DE=-2.57D-05 OVMax= 7.03D-04

 Cycle   3  Pass 1  IDiag  1:
 E= -271.482087463467     Delta-E=       -0.000001713055 Rises=F Damp=F
 DIIS: error= 2.00D-05 at cycle   3 NSaved=   3.
 NSaved= 3 IEnMin= 3 EnMin= -271.482087463467     IErMin= 3 ErrMin= 2.00D-05
 ErrMax= 2.00D-05  0.00D+00 EMaxC= 1.00D-01 BMatC= 7.76D-08 BMatP= 6.99D-07
 IDIUse=1 WtCom= 1.00D+00 WtEn= 0.00D+00
 Coeff-Com: -0.512D-01 0.228D+00 0.823D+00
 Coeff:     -0.512D-01 0.228D+00 0.823D+00
 Gap=     0.390 Goal=   None    Shift=    0.000
 RMSDP=4.18D-06 MaxDP=8.56D-05 DE=-1.71D-06 OVMax= 1.61D-04

 Cycle   4  Pass 1  IDiag  1:
 E= -271.482087530617     Delta-E=       -0.000000067149 Rises=F Damp=F
 DIIS: error= 1.95D-05 at cycle   4 NSaved=   4.
 NSaved= 4 IEnMin= 4 EnMin= -271.482087530617     IErMin= 4 ErrMin= 1.95D-05
 ErrMax= 1.95D-05  0.00D+00 EMaxC= 1.00D-01 BMatC= 6.20D-08 BMatP= 7.76D-08
 IDIUse=1 WtCom= 1.00D+00 WtEn= 0.00D+00
 Coeff-Com: -0.326D-02-0.496D-01 0.491D+00 0.562D+00
 Coeff:     -0.326D-02-0.496D-01 0.491D+00 0.562D+00
 Gap=     0.390 Goal=   None    Shift=    0.000
 RMSDP=2.05D-06 MaxDP=4.66D-05 DE=-6.71D-08 OVMax= 6.93D-05

 Cycle   5  Pass 1  IDiag  1:
 E= -271.482087587899     Delta-E=       -0.000000057282 Rises=F Damp=F
 DIIS: error= 4.14D-06 at cycle   5 NSaved=   5.
 NSaved= 5 IEnMin= 5 EnMin= -271.482087587899     IErMin= 5 ErrMin= 4.14D-06
 ErrMax= 4.14D-06  0.00D+00 EMaxC= 1.00D-01 BMatC= 3.74D-09 BMatP= 6.20D-08
 IDIUse=1 WtCom= 1.00D+00 WtEn= 0.00D+00
 Coeff-Com:  0.956D-02-0.697D-01 0.263D-01 0.208D+00 0.826D+00
 Coeff:      0.956D-02-0.697D-01 0.263D-01 0.208D+00 0.826D+00
 Gap=     0.390 Goal=   None    Shift=    0.000
 RMSDP=8.29D-07 MaxDP=1.45D-05 DE=-5.73D-08 OVMax= 3.97D-05

 Cycle   6  Pass 1  IDiag  1:
 E= -271.482087592656     Delta-E=       -0.000000004757 Rises=F Damp=F
 DIIS: error= 1.20D-06 at cycle   6 NSaved=   6.
 NSaved= 6 IEnMin= 6 EnMin= -271.482087592656     IErMin= 6 ErrMin= 1.20D-06
 ErrMax= 1.20D-06  0.00D+00 EMaxC= 1.00D-01 BMatC= 2.73D-10 BMatP= 3.74D-09
 IDIUse=1 WtCom= 1.00D+00 WtEn= 0.00D+00
 Coeff-Com:  0.387D-02-0.229D-01-0.226D-01 0.369D-01 0.292D+00 0.713D+00
 Coeff:      0.387D-02-0.229D-01-0.226D-01 0.369D-01 0.292D+00 0.713D+00
 Gap=     0.390 Goal=   None    Shift=    0.000
 RMSDP=1.94D-07 MaxDP=4.15D-06 DE=-4.76D-09 OVMax= 7.83D-06

 Cycle   7  Pass 1  IDiag  1:
 E= -271.482087592923     Delta-E=       -0.000000000267 Rises=F Damp=F
 DIIS: error= 7.59D-07 at cycle   7 NSaved=   7.
 NSaved= 7 IEnMin= 7 EnMin= -271.482087592923     IErMin= 7 ErrMin= 7.59D-07
 ErrMax= 7.59D-07  0.00D+00 EMaxC= 1.00D-01 BMatC= 7.23D-11 BMatP= 2.73D-10
 IDIUse=1 WtCom= 1.00D+00 WtEn= 0.00D+00
 Coeff-Com:  0.716D-03-0.243D-02-0.135D-01-0.818D-02 0.359D-01 0.356D+00
 Coeff-Com:  0.631D+00
 Coeff:      0.716D-03-0.243D-02-0.135D-01-0.818D-02 0.359D-01 0.356D+00
 Coeff:      0.631D+00
 Gap=     0.390 Goal=   None    Shift=    0.000
 RMSDP=8.93D-08 MaxDP=2.06D-06 DE=-2.67D-10 OVMax= 3.18D-06

 Cycle   8  Pass 1  IDiag  1:
 E= -271.482087592984     Delta-E=       -0.000000000061 Rises=F Damp=F
 DIIS: error= 2.78D-07 at cycle   8 NSaved=   8.
 NSaved= 8 IEnMin= 8 EnMin= -271.482087592984     IErMin= 8 ErrMin= 2.78D-07
 ErrMax= 2.78D-07  0.00D+00 EMaxC= 1.00D-01 BMatC= 1.20D-11 BMatP= 7.23D-11
 IDIUse=1 WtCom= 1.00D+00 WtEn= 0.00D+00
 Coeff-Com: -0.380D-03 0.314D-02-0.181D-02-0.108D-01-0.390D-01 0.405D-01
 Coeff-Com:  0.329D+00 0.679D+00
 Coeff:     -0.380D-03 0.314D-02-0.181D-02-0.108D-01-0.390D-01 0.405D-01
 Coeff:      0.329D+00 0.679D+00
 Gap=     0.390 Goal=   None    Shift=    0.000
 RMSDP=3.18D-08 MaxDP=6.58D-07 DE=-6.13D-11 OVMax= 1.19D-06

 Cycle   9  Pass 1  IDiag  1:
 E= -271.482087592995     Delta-E=       -0.000000000010 Rises=F Damp=F
 DIIS: error= 2.65D-08 at cycle   9 NSaved=   9.
 NSaved= 9 IEnMin= 9 EnMin= -271.482087592995     IErMin= 9 ErrMin= 2.65D-08
 ErrMax= 2.65D-08  0.00D+00 EMaxC= 1.00D-01 BMatC= 1.26D-13 BMatP= 1.20D-11
 IDIUse=1 WtCom= 1.00D+00 WtEn= 0.00D+00
 Coeff-Com: -0.737D-04 0.436D-03 0.502D-03-0.823D-03-0.661D-02-0.144D-01
 Coeff-Com:  0.886D-02 0.834D-01 0.929D+00
 Coeff:     -0.737D-04 0.436D-03 0.502D-03-0.823D-03-0.661D-02-0.144D-01
 Coeff:      0.886D-02 0.834D-01 0.929D+00
 Gap=     0.390 Goal=   None    Shift=    0.000
 RMSDP=8.61D-09 MaxDP=1.99D-07 DE=-1.03D-11 OVMax= 2.02D-07

 SCF Done:  E(RwB97XD) =  -271.482087593     A.U. after    9 cycles
            NFock=  9  Conv=0.86D-08     -V/T= 2.0070
 KE= 2.695874598766D+02 PE=-1.022229962321D+03 EE= 2.816959459187D+02
 Leave Link  502 at Thu Aug  7 18:43:24 2025, MaxMem=   104857600 cpu:               5.9 elap:               5.9
 (Enter /Applications/g16/l701.exe)
 ... and contract with generalized density number  0.
 Compute integral first derivatives.
 R6Disp: Adding Grimme-D2 dispersion energy 1st derivatives to the gradient.
 Leave Link  701 at Thu Aug  7 18:43:24 2025, MaxMem=   104857600 cpu:               0.0 elap:               0.0
 (Enter /Applications/g16/l702.exe)
 L702 exits ... SP integral derivatives will be done elsewhere.
 Leave Link  702 at Thu Aug  7 18:43:24 2025, MaxMem=   104857600 cpu:               0.0 elap:               0.0
 (Enter /Applications/g16/l703.exe)
 Integral derivatives from FoFJK, PRISM(SPDF).
 Compute integral first derivatives, UseDBF=F ICtDFT=           0.
 Calling FoFJK, ICntrl=      2127 FMM=F ISym2X=0 I1Cent= 0 IOpClX= 0 NMat=1 NMatS=1 NMatT=0.
 FoFJK:  IHMeth= 1 ICntrl=    2127 DoSepK=T KAlg= 0 I1Cent=           0 FoldK=F
 IRaf=         1 NMat=       1 IRICut=       1 DoRegI=T DoRafI=F ISym2E= 0 IDoP0=0 IntGTp=1.
 FoFCou: FMM=F IPFlag=           0 FMFlag=      100000 FMFlg1=         800
         NFxFlg=           0 DoJE=F BraDBF=F KetDBF=F FulRan=T
         wScrn=  0.000000 ICntrl=      2527 IOpCl=  0 I1Cent=           0 NGrid=           0
         NMat0=    1 NMatS0=      1 NMatT0=    0 NMatD0=    1 NMtDS0=    0 NMtDT0=    0
 Symmetry not used in FoFCou.
 Leave Link  703 at Thu Aug  7 18:43:26 2025, MaxMem=   104857600 cpu:               2.6 elap:               2.6
 (Enter /Applications/g16/l716.exe)
 Dipole        =-5.94179959D+00 4.70693980D-01 4.63582848D-04
 ***** Axes restored to original set *****
 -------------------------------------------------------------------
 Center     Atomic                   Forces (Hartrees/Bohr)
 Number     Number              X              Y              Z
 -------------------------------------------------------------------
      1        7          -0.000100679   -0.000213580   -0.000038735
      2        6           0.000183995    0.000488942    0.000079415
      3        6           0.000031323   -0.000219164   -0.000037907
      4        6          -0.000135836    0.000111675    0.000052430
      5        6          -0.000490267   -0.000194097   -0.000102997
      6        7           0.218527530   -0.047303630   -0.000009758
      7        1          -0.000007439    0.000013142    0.000003641
      8        1           0.000023838    0.000012182   -0.000006357
      9        1           0.000027523   -0.000023076   -0.000003762
     10        1           0.000046608   -0.000023551    0.000005340
     11        3          -0.218106597    0.047351158    0.000058691
 -------------------------------------------------------------------
 Cartesian Forces:  Max     0.218527530 RMS     0.054994560
 Leave Link  716 at Thu Aug  7 18:43:26 2025, MaxMem=   104857600 cpu:               0.0 elap:               0.0
 (Enter /Applications/g16/l103.exe)

 GradGradGradGradGradGradGradGradGradGradGradGradGradGradGradGradGradGrad
 Berny optimization.
 Using GEDIIS/GDIIS optimizer.
 FormGI is forming the generalized inverse of G from B-inverse, IUseBI=4.
 Internal  Forces:  Max     0.223187366 RMS     0.036691998
 Search for a local minimum.
 Step number   3 out of a maximum of   47
 All quantities printed in internal units (Hartrees-Bohrs-Radians)
 RMS Force = .12911D-03 SwitMx=.10000D-02 MixMth= 2
 Mixed Optimization -- En-DIIS/RFO-DIIS
 Swapping is turned off.
 Update second derivatives using D2CorX and points    1    2    3
 DE=  1.27D-06 DEPred=-1.46D-06 R=-8.66D-01
 Trust test=-8.66D-01 RLast= 9.80D-03 DXMaxT set to 1.50D-01
 ITU= -1  1  0
     Eigenvalues ---    0.00230   0.01257   0.02640   0.04906   0.05310
     Eigenvalues ---    0.05466   0.05664   0.05807   0.06536   0.07381
     Eigenvalues ---    0.08198   0.15343   0.16000   0.16027   0.16216
     Eigenvalues ---    0.21483   0.23914   0.26985   0.31904   0.34136
     Eigenvalues ---    0.34312   0.34340   0.34657   0.36751   1.17816
     Eigenvalues ---    1.305391000.000001000.000001000.000001000.00000
     Eigenvalues --- 1000.000001000.000001000.000001000.000001000.00000
     Eigenvalues --- 1000.000001000.00000
 En-DIIS/RFO-DIIS/Sim-DIIS IScMMF=       -3 using points:     3    2    1
 RFO step:  Lambda=-5.49006862D-05.
 NNeg= 0 NGDIIS= 3 SimSw=  2.50D-03 Rises=T DC=  1.27D-06 SmlDif=  1.00D-05
 NRisDI= 1 DoIntr=F SqrtH=F CThrHd= 10.0 CDAdj=  3.0
 RMS Error=  0.1654426657D-02 NUsed= 3 OKEnD=T EnDIS=T
 InvSVX:  RCond= 6.79D-05 Info=           0 Equed=N FErr=  3.38D-15 BErr=  3.92D-17
 EnCoef did     2 forward-backward iterations
 IWarn =    0
 DidBck=T Rises=T En-DIIS coefs:    0.42022    0.32930    0.25048
 Iteration  1 RMS(Cart)=  0.00522500 RMS(Int)=  0.00003187
 Iteration  2 RMS(Cart)=  0.00003129 RMS(Int)=  0.00000005
 Iteration  3 RMS(Cart)=  0.00000000 RMS(Int)=  0.00000005
 Iteration  1 RMS(Cart)=  0.00000000 RMS(Int)=  0.00000000
 ITry= 1 IFail=0 DXMaxC= 2.25D-02 DCOld= 1.00D+10 DXMaxT= 1.50D-01 DXLimC= 3.00D+00 Rises=F
 Variable       Old X    -DE/DX   Delta X   Delta X   Delta X     New X
                                 (Linear)    (Quad)   (Total)
    R1        2.18427  -0.00003   0.00002  -0.00004  -0.00002   2.18425
    R2        2.76298  -0.00000   0.00005   0.00002   0.00007   2.76305
    R3        2.92970   0.00012  -0.00054   0.00130   0.00076   2.93046
    R4        2.06759  -0.00001   0.00003  -0.00014  -0.00011   2.06748
    R5        2.06759  -0.00002   0.00003  -0.00014  -0.00011   2.06747
    R6        2.74774   0.00003   0.00175  -0.00345  -0.00170   2.74604
    R7        2.07187  -0.00001  -0.00028   0.00060   0.00032   2.07219
    R8        2.07187  -0.00001  -0.00028   0.00060   0.00032   2.07219
    R9        2.19116  -0.00040  -0.00128   0.00220   0.00092   2.19209
   R10        2.64562   0.22319  -0.00000   0.00000  -0.00000   2.64562
    A1        1.90265   0.00019   0.00090  -0.00148  -0.00058   1.90207
    A2        1.90588  -0.00008  -0.00046   0.00110   0.00063   1.90651
    A3        1.90588  -0.00010  -0.00045   0.00095   0.00050   1.90638
    A4        1.93102  -0.00003   0.00016  -0.00071  -0.00056   1.93046
    A5        1.93101  -0.00001   0.00016  -0.00070  -0.00053   1.93047
    A6        1.88711   0.00001  -0.00034   0.00091   0.00057   1.88769
    A7        1.95492   0.00014  -0.00019   0.00095   0.00075   1.95568
    A8        1.93616  -0.00003  -0.00014  -0.00040  -0.00055   1.93562
    A9        1.93618  -0.00005  -0.00015  -0.00041  -0.00056   1.93562
   A10        1.87818  -0.00006   0.00018   0.00027   0.00045   1.87863
   A11        1.87806  -0.00002   0.00024   0.00028   0.00052   1.87857
   A12        1.87710   0.00002   0.00011  -0.00072  -0.00061   1.87650
   A13        3.11958  -0.00050  -0.00397  -0.00865  -0.01261   3.10696
   A14        3.13831  -0.00027  -0.00157   0.00295   0.00138   3.13969
   A15        3.18029   0.00007  -0.00157   0.00457   0.00300   3.18329
   A16        3.12837  -0.00010  -0.00127  -0.00004  -0.00131   3.12706
   A17        3.13857  -0.00001   0.00002   0.00022   0.00023   3.13880
   A18        3.11309  -0.00002   0.00044  -0.00136  -0.00092   3.11217
    D1        3.14147   0.00000   0.00008  -0.00015  -0.00008   3.14140
    D2       -1.04265   0.00001   0.00007   0.00056   0.00063  -1.04202
    D3        1.04255  -0.00002   0.00001  -0.00087  -0.00086   1.04170
    D4       -1.04562   0.00001   0.00018  -0.00018  -0.00000  -1.04562
    D5        1.05345   0.00002   0.00017   0.00053   0.00070   1.05415
    D6        3.13865  -0.00002   0.00011  -0.00090  -0.00079   3.13786
    D7        1.04539   0.00001  -0.00004   0.00004   0.00000   1.04539
    D8       -3.13873   0.00001  -0.00005   0.00075   0.00071  -3.13803
    D9       -1.05353  -0.00002  -0.00010  -0.00068  -0.00078  -1.05431
         Item               Value     Threshold  Converged?
 Maximum Force            0.000503     0.000450     NO 
 RMS     Force            0.000129     0.000300     YES
 Maximum Displacement     0.022502     0.001800     NO 
 RMS     Displacement     0.005226     0.001200     NO 
 Predicted change in Energy=-2.216732D-06
 GradGradGradGradGradGradGradGradGradGradGradGradGradGradGradGradGradGrad

 Leave Link  103 at Thu Aug  7 18:43:26 2025, MaxMem=   104857600 cpu:               0.0 elap:               0.0
 (Enter /Applications/g16/l202.exe)
                          Input orientation:                          
 ---------------------------------------------------------------------
 Center     Atomic      Atomic             Coordinates (Angstroms)
 Number     Number       Type             X           Y           Z
 ---------------------------------------------------------------------
      1          7           0        3.257047   -0.190563   -0.002449
      2          6           0        2.167986    0.196651    0.000747
      3          6           0        0.773380    0.635891    0.000453
      4          6           0       -0.148217   -0.611279    0.000475
      5          6           0       -1.555638   -0.249640    0.000454
      6          7           0       -2.678379    0.042003   -0.000997
      7          1           0        0.035039   -1.233172   -0.883890
      8          1           0        0.034975   -1.233096    0.884909
      9          1           0        0.589310    1.250684   -0.885618
     10          1           0        0.589141    1.250857    0.886365
     11          3           0       -4.047910    0.332493   -0.000411
 ---------------------------------------------------------------------
                    Distance matrix (angstroms):
                    1          2          3          4          5
     1  N    0.000000
     2  C    1.155854   0.000000
     3  C    2.617562   1.462141   0.000000
     4  C    3.431156   2.453069   1.550733   0.000000
     5  C    4.813048   3.750273   2.491684   1.453140   0.000000
     6  N    5.939980   4.848832   3.502477   2.613140   1.160002
     7  H    3.499329   2.715960   2.195588   1.096556   2.068732
     8  H    3.500861   2.715816   2.195590   1.096558   2.068694
     9  H    3.158164   2.094958   1.094064   2.189981   2.763493
    10  H    3.159968   2.094856   1.094060   2.189988   2.763405
    11  Li   7.323659   6.217380   4.830827   4.012270   2.559355
                    6          7          8          9         10
     6  N    0.000000
     7  H    3.125413   0.000000
     8  H    3.126179   1.768799   0.000000
     9  H    3.594615   2.544948   3.100197   0.000000
    10  H    3.595195   3.100199   2.545020   1.771983   0.000000
    11  Li   1.400000   4.461201   4.461481   4.809415   4.809575
                   11
    11  Li   0.000000
 Stoichiometry    C4H4LiN2(1+)
 Framework group  C1[X(C4H4LiN2)]
 Deg. of freedom    27
 Full point group                 C1      NOp   1
 RotChk:  IX=0 Diff= 1.30D-03
 Largest Abelian subgroup         C1      NOp   1
 Largest concise Abelian subgroup C1      NOp   1
                         Standard orientation:                         
 ---------------------------------------------------------------------
 Center     Atomic      Atomic             Coordinates (Angstroms)
 Number     Number       Type             X           Y           Z
 ---------------------------------------------------------------------
      1          7           0        3.243595   -0.195984   -0.001784
      2          6           0        2.155656    0.194373    0.001172
      3          6           0        0.762324    0.637636    0.000588
      4          6           0       -0.162869   -0.606868    0.000880
      5          6           0       -1.569240   -0.241168    0.000589
      6          7           0       -2.691134    0.053713   -0.001077
      7          1           0        0.018691   -1.229553   -0.883278
      8          1           0        0.018428   -1.228946    0.885521
      9          1           0        0.580129    1.252692   -0.885689
     10          1           0        0.579761    1.253397    0.886295
     11          3           0       -4.059821    0.348155   -0.000734
 ---------------------------------------------------------------------
 Rotational constants (GHZ):          23.8063213           1.0974260           1.0630069
 Leave Link  202 at Thu Aug  7 18:43:26 2025, MaxMem=   104857600 cpu:               0.0 elap:               0.0
 (Enter /Applications/g16/l301.exe)
 Standard basis: 6-31G(d) (6D, 7F)
 Ernie: Thresh=  0.10000D-02 Tol=  0.10000D-05 Strict=F.
 There are   113 symmetry adapted cartesian basis functions of A   symmetry.
 There are   113 symmetry adapted basis functions of A   symmetry.
   113 basis functions,   212 primitive gaussians,   113 cartesian basis functions
    22 alpha electrons       22 beta electrons
       nuclear repulsion energy       199.4873820418 Hartrees.
 IExCor= 4639 DFT=T Ex+Corr=wB97XD ExCW=0 ScaHFX=  1.000000
 ScaDFX=  1.000000  1.000000  1.000000  1.000000 ScalE2=  1.000000  1.000000
 IRadAn=      5 IRanWt=     -1 IRanGd=            0 ICorTp=0 IEmpDi=121
 HFx  wShort=  0.000000 wLong=  0.200000 cFull=  0.222036 cShort=  0.000000 cLong=  0.777964
 DFx  wShort=  0.000000 wLong=  0.200000 cFull=  0.000000 cShort=  0.000000 cLong=  1.000000
 NAtoms=   11 NActive=   11 NUniq=   11 SFac= 1.00D+00 NAtFMM=   60 NAOKFM=F Big=F
 Integral buffers will be    131072 words long.
 Raffenetti 2 integral format.
 Two-electron integral symmetry is turned on.
 R6Disp:  Grimme-D2 Dispersion energy=       -0.0048535391 Hartrees.
 Nuclear repulsion after empirical dispersion term =      199.4825285027 Hartrees.
 Leave Link  301 at Thu Aug  7 18:43:26 2025, MaxMem=   104857600 cpu:               0.0 elap:               0.0
 (Enter /Applications/g16/l302.exe)
 NPDir=0 NMtPBC=     1 NCelOv=     1 NCel=       1 NClECP=     1 NCelD=      1
         NCelK=      1 NCelE2=     1 NClLst=     1 CellRange=     0.0.
 One-electron integrals computed using PRISM.
 One-electron integral symmetry used in STVInt
 NBasis=   113 RedAO= T EigKep=  7.90D-04  NBF=   113
 NBsUse=   113 1.00D-06 EigRej= -1.00D+00 NBFU=   113
 Precomputing XC quadrature grid using
 IXCGrd= 4 IRadAn=           5 IRanWt=          -1 IRanGd=           0 AccXCQ= 0.00D+00.
 Generated NRdTot=       0 NPtTot=           0 NUsed=           0 NTot=          32
 NSgBfM=   113   113   113   113   113 MxSgAt=    11 MxSgA2=    11.
 Leave Link  302 at Thu Aug  7 18:43:26 2025, MaxMem=   104857600 cpu:               0.1 elap:               0.1
 (Enter /Applications/g16/l303.exe)
 DipDrv:  MaxL=1.
 Leave Link  303 at Thu Aug  7 18:43:26 2025, MaxMem=   104857600 cpu:               0.0 elap:               0.0
 (Enter /Applications/g16/l401.exe)
 Initial guess from the checkpoint file:  "/Users/srak/g16_scratch/Gau-74194.chk"
 B after Tr=    -0.000000    0.000000    0.000000
         Rot=    1.000000    0.000149    0.000006   -0.000024 Ang=   0.02 deg.
 Guess basis will be translated and rotated to current coordinates.
 JPrj=2 DoOrth=T DoCkMO=T.
 Generating alternative initial guess.
 ExpMin= 3.60D-02 ExpMax= 4.17D+03 ExpMxC= 6.27D+02 IAcc=3 IRadAn=         5 AccDes= 0.00D+00
 Harris functional with IExCor= 4639 and IRadAn=       5 diagonalized for initial guess.
 HarFok:  IExCor= 4639 AccDes= 0.00D+00 IRadAn=         5 IDoV= 1 UseB2=F ITyADJ=14
 ICtDFT=  3500011 ScaDFX=  1.000000  1.000000  1.000000  1.000000
 FoFCou: FMM=F IPFlag=           0 FMFlag=      100000 FMFlg1=           0
         NFxFlg=           0 DoJE=T BraDBF=F KetDBF=T FulRan=T
         wScrn=  0.000000 ICntrl=       500 IOpCl=  0 I1Cent=   200000004 NGrid=           0
         NMat0=    1 NMatS0=      1 NMatT0=    0 NMatD0=    1 NMtDS0=    0 NMtDT0=    0
 Petite list used in FoFCou.
 Harris En= -259.729597204043    
 Leave Link  401 at Thu Aug  7 18:43:27 2025, MaxMem=   104857600 cpu:               0.6 elap:               0.6
 (Enter /Applications/g16/l502.exe)
 Keep R1 ints in memory in canonical form, NReq=43174005.
 FoFCou: FMM=F IPFlag=           0 FMFlag=           0 FMFlg1=           0
         NFxFlg=           0 DoJE=F BraDBF=F KetDBF=F FulRan=T
         wScrn=  0.000000 ICntrl=       600 IOpCl=  0 I1Cent=           0 NGrid=           0
         NMat0=    1 NMatS0=   6441 NMatT0=    0 NMatD0=    1 NMtDS0=    0 NMtDT0=    0
 Symmetry not used in FoFCou.
 Two-electron integral symmetry not used.
 Closed shell SCF:
 Using DIIS extrapolation, IDIIS=  1040.
 NGot=   104857600 LenX=    63336875 LenY=    63323665
 Requested convergence on RMS density matrix=1.00D-08 within 128 cycles.
 Requested convergence on MAX density matrix=1.00D-06.
 Requested convergence on             energy=1.00D-06.
 No special actions if energy rises.

 Cycle   1  Pass 1  IDiag  1:
 E= -271.481978885247    
 DIIS: error= 8.73D-04 at cycle   1 NSaved=   1.
 NSaved= 1 IEnMin= 1 EnMin= -271.481978885247     IErMin= 1 ErrMin= 8.73D-04
 ErrMax= 8.73D-04  0.00D+00 EMaxC= 1.00D-01 BMatC= 6.25D-05 BMatP= 6.25D-05
 IDIUse=3 WtCom= 9.91D-01 WtEn= 8.73D-03
 Coeff-Com:  0.100D+01
 Coeff-En:   0.100D+01
 Coeff:      0.100D+01
 Gap=     1.246 Goal=   None    Shift=    0.000
 RMSDP=1.08D-04 MaxDP=2.69D-03              OVMax= 3.96D-03

 Cycle   2  Pass 1  IDiag  1:
 E= -271.482078937330     Delta-E=       -0.000100052083 Rises=F Damp=F
 DIIS: error= 1.52D-04 at cycle   2 NSaved=   2.
 NSaved= 2 IEnMin= 2 EnMin= -271.482078937330     IErMin= 2 ErrMin= 1.52D-04
 ErrMax= 1.52D-04  0.00D+00 EMaxC= 1.00D-01 BMatC= 2.75D-06 BMatP= 6.25D-05
 IDIUse=3 WtCom= 9.98D-01 WtEn= 1.52D-03
 Coeff-Com: -0.183D+00 0.118D+01
 Coeff-En:   0.000D+00 0.100D+01
 Coeff:     -0.183D+00 0.118D+01
 Gap=     0.390 Goal=   None    Shift=    0.000
 RMSDP=3.20D-05 MaxDP=7.37D-04 DE=-1.00D-04 OVMax= 1.58D-03

 Cycle   3  Pass 1  IDiag  1:
 E= -271.482085913257     Delta-E=       -0.000006975927 Rises=F Damp=F
 DIIS: error= 4.22D-05 at cycle   3 NSaved=   3.
 NSaved= 3 IEnMin= 3 EnMin= -271.482085913257     IErMin= 3 ErrMin= 4.22D-05
 ErrMax= 4.22D-05  0.00D+00 EMaxC= 1.00D-01 BMatC= 1.76D-07 BMatP= 2.75D-06
 IDIUse=1 WtCom= 1.00D+00 WtEn= 0.00D+00
 Coeff-Com: -0.292D-01 0.879D-01 0.941D+00
 Coeff:     -0.292D-01 0.879D-01 0.941D+00
 Gap=     0.390 Goal=   None    Shift=    0.000
 RMSDP=7.67D-06 MaxDP=1.66D-04 DE=-6.98D-06 OVMax= 4.12D-04

 Cycle   4  Pass 1  IDiag  1:
 E= -271.482086165998     Delta-E=       -0.000000252741 Rises=F Damp=F
 DIIS: error= 3.40D-05 at cycle   4 NSaved=   4.
 NSaved= 4 IEnMin= 4 EnMin= -271.482086165998     IErMin= 4 ErrMin= 3.40D-05
 ErrMax= 3.40D-05  0.00D+00 EMaxC= 1.00D-01 BMatC= 1.71D-07 BMatP= 1.76D-07
 IDIUse=1 WtCom= 1.00D+00 WtEn= 0.00D+00
 Coeff-Com:  0.616D-02-0.975D-01 0.540D+00 0.551D+00
 Coeff:      0.616D-02-0.975D-01 0.540D+00 0.551D+00
 Gap=     0.390 Goal=   None    Shift=    0.000
 RMSDP=3.67D-06 MaxDP=8.02D-05 DE=-2.53D-07 OVMax= 1.31D-04

 Cycle   5  Pass 1  IDiag  1:
 E= -271.482086322519     Delta-E=       -0.000000156522 Rises=F Damp=F
 DIIS: error= 9.21D-06 at cycle   5 NSaved=   5.
 NSaved= 5 IEnMin= 5 EnMin= -271.482086322519     IErMin= 5 ErrMin= 9.21D-06
 ErrMax= 9.21D-06  0.00D+00 EMaxC= 1.00D-01 BMatC= 1.32D-08 BMatP= 1.71D-07
 IDIUse=1 WtCom= 1.00D+00 WtEn= 0.00D+00
 Coeff-Com:  0.107D-01-0.716D-01 0.137D-01 0.226D+00 0.821D+00
 Coeff:      0.107D-01-0.716D-01 0.137D-01 0.226D+00 0.821D+00
 Gap=     0.390 Goal=   None    Shift=    0.000
 RMSDP=1.49D-06 MaxDP=3.12D-05 DE=-1.57D-07 OVMax= 7.65D-05

 Cycle   6  Pass 1  IDiag  1:
 E= -271.482086338959     Delta-E=       -0.000000016440 Rises=F Damp=F
 DIIS: error= 1.70D-06 at cycle   6 NSaved=   6.
 NSaved= 6 IEnMin= 6 EnMin= -271.482086338959     IErMin= 6 ErrMin= 1.70D-06
 ErrMax= 1.70D-06  0.00D+00 EMaxC= 1.00D-01 BMatC= 4.09D-10 BMatP= 1.32D-08
 IDIUse=1 WtCom= 1.00D+00 WtEn= 0.00D+00
 Coeff-Com:  0.244D-02-0.136D-01-0.184D-01 0.307D-01 0.194D+00 0.805D+00
 Coeff:      0.244D-02-0.136D-01-0.184D-01 0.307D-01 0.194D+00 0.805D+00
 Gap=     0.390 Goal=   None    Shift=    0.000
 RMSDP=2.98D-07 MaxDP=5.73D-06 DE=-1.64D-08 OVMax= 1.09D-05

 Cycle   7  Pass 1  IDiag  1:
 E= -271.482086339247     Delta-E=       -0.000000000288 Rises=F Damp=F
 DIIS: error= 1.24D-06 at cycle   7 NSaved=   7.
 NSaved= 7 IEnMin= 7 EnMin= -271.482086339247     IErMin= 7 ErrMin= 1.24D-06
 ErrMax= 1.24D-06  0.00D+00 EMaxC= 1.00D-01 BMatC= 2.90D-10 BMatP= 4.09D-10
 IDIUse=1 WtCom= 1.00D+00 WtEn= 0.00D+00
 Coeff-Com: -0.114D-03 0.241D-02-0.110D-01-0.150D-01-0.120D-01 0.485D+00
 Coeff-Com:  0.551D+00
 Coeff:     -0.114D-03 0.241D-02-0.110D-01-0.150D-01-0.120D-01 0.485D+00
 Coeff:      0.551D+00
 Gap=     0.390 Goal=   None    Shift=    0.000
 RMSDP=1.43D-07 MaxDP=3.00D-06 DE=-2.88D-10 OVMax= 4.23D-06

 Cycle   8  Pass 1  IDiag  1:
 E= -271.482086339490     Delta-E=       -0.000000000243 Rises=F Damp=F
 DIIS: error= 2.88D-07 at cycle   8 NSaved=   8.
 NSaved= 8 IEnMin= 8 EnMin= -271.482086339490     IErMin= 8 ErrMin= 2.88D-07
 ErrMax= 2.88D-07  0.00D+00 EMaxC= 1.00D-01 BMatC= 1.32D-11 BMatP= 2.90D-10
 IDIUse=1 WtCom= 1.00D+00 WtEn= 0.00D+00
 Coeff-Com: -0.318D-03 0.248D-02-0.182D-02-0.968D-02-0.292D-01 0.106D+00
 Coeff-Com:  0.229D+00 0.704D+00
 Coeff:     -0.318D-03 0.248D-02-0.182D-02-0.968D-02-0.292D-01 0.106D+00
 Coeff:      0.229D+00 0.704D+00
 Gap=     0.390 Goal=   None    Shift=    0.000
 RMSDP=4.14D-08 MaxDP=7.74D-07 DE=-2.43D-10 OVMax= 9.88D-07

 Cycle   9  Pass 1  IDiag  1:
 E= -271.482086339508     Delta-E=       -0.000000000018 Rises=F Damp=F
 DIIS: error= 4.27D-08 at cycle   9 NSaved=   9.
 NSaved= 9 IEnMin= 9 EnMin= -271.482086339508     IErMin= 9 ErrMin= 4.27D-08
 ErrMax= 4.27D-08  0.00D+00 EMaxC= 1.00D-01 BMatC= 3.98D-13 BMatP= 1.32D-11
 IDIUse=1 WtCom= 1.00D+00 WtEn= 0.00D+00
 Coeff-Com: -0.549D-04 0.306D-03 0.518D-03-0.109D-02-0.592D-02-0.139D-01
 Coeff-Com:  0.586D-02 0.138D+00 0.876D+00
 Coeff:     -0.549D-04 0.306D-03 0.518D-03-0.109D-02-0.592D-02-0.139D-01
 Coeff:      0.586D-02 0.138D+00 0.876D+00
 Gap=     0.390 Goal=   None    Shift=    0.000
 RMSDP=1.43D-08 MaxDP=3.59D-07 DE=-1.84D-11 OVMax= 3.50D-07

 Cycle  10  Pass 1  IDiag  1:
 E= -271.482086339507     Delta-E=        0.000000000001 Rises=F Damp=F
 DIIS: error= 1.53D-08 at cycle  10 NSaved=  10.
 NSaved=10 IEnMin= 9 EnMin= -271.482086339508     IErMin=10 ErrMin= 1.53D-08
 ErrMax= 1.53D-08  0.00D+00 EMaxC= 1.00D-01 BMatC= 3.29D-14 BMatP= 3.98D-13
 IDIUse=1 WtCom= 1.00D+00 WtEn= 0.00D+00
 Coeff-Com:  0.153D-04-0.145D-03 0.274D-03 0.575D-03 0.108D-02-0.117D-01
 Coeff-Com: -0.185D-01-0.285D-01 0.180D+00 0.877D+00
 Coeff:      0.153D-04-0.145D-03 0.274D-03 0.575D-03 0.108D-02-0.117D-01
 Coeff:     -0.185D-01-0.285D-01 0.180D+00 0.877D+00
 Gap=     0.390 Goal=   None    Shift=    0.000
 RMSDP=4.65D-09 MaxDP=1.20D-07 DE= 1.42D-12 OVMax= 1.20D-07

 SCF Done:  E(RwB97XD) =  -271.482086340     A.U. after   10 cycles
            NFock= 10  Conv=0.46D-08     -V/T= 2.0070
 KE= 2.695853075230D+02 PE=-1.022263828087D+03 EE= 2.817139057219D+02
 Leave Link  502 at Thu Aug  7 18:43:34 2025, MaxMem=   104857600 cpu:               6.5 elap:               6.6
 (Enter /Applications/g16/l701.exe)
 ... and contract with generalized density number  0.
 Compute integral first derivatives.
 R6Disp: Adding Grimme-D2 dispersion energy 1st derivatives to the gradient.
 Leave Link  701 at Thu Aug  7 18:43:34 2025, MaxMem=   104857600 cpu:               0.0 elap:               0.0
 (Enter /Applications/g16/l702.exe)
 L702 exits ... SP integral derivatives will be done elsewhere.
 Leave Link  702 at Thu Aug  7 18:43:34 2025, MaxMem=   104857600 cpu:               0.0 elap:               0.0
 (Enter /Applications/g16/l703.exe)
 Integral derivatives from FoFJK, PRISM(SPDF).
 Compute integral first derivatives, UseDBF=F ICtDFT=           0.
 Calling FoFJK, ICntrl=      2127 FMM=F ISym2X=0 I1Cent= 0 IOpClX= 0 NMat=1 NMatS=1 NMatT=0.
 FoFJK:  IHMeth= 1 ICntrl=    2127 DoSepK=T KAlg= 0 I1Cent=           0 FoldK=F
 IRaf=         1 NMat=       1 IRICut=       1 DoRegI=T DoRafI=F ISym2E= 0 IDoP0=0 IntGTp=1.
 FoFCou: FMM=F IPFlag=           0 FMFlag=      100000 FMFlg1=         800
         NFxFlg=           0 DoJE=F BraDBF=F KetDBF=F FulRan=T
         wScrn=  0.000000 ICntrl=      2527 IOpCl=  0 I1Cent=           0 NGrid=           0
         NMat0=    1 NMatS0=      1 NMatT0=    0 NMatD0=    1 NMtDS0=    0 NMtDT0=    0
 Symmetry not used in FoFCou.
 Leave Link  703 at Thu Aug  7 18:43:36 2025, MaxMem=   104857600 cpu:               2.5 elap:               2.5
 (Enter /Applications/g16/l716.exe)
 Dipole        =-5.93923419D+00 4.66385858D-01 1.83052564D-03
 ***** Axes restored to original set *****
 -------------------------------------------------------------------
 Center     Atomic                   Forces (Hartrees/Bohr)
 Number     Number              X              Y              Z
 -------------------------------------------------------------------
      1        7           0.000101750    0.000137756    0.000111576
      2        6          -0.000184245   -0.000216113   -0.000238623
      3        6          -0.000006626   -0.000052888    0.000129965
      4        6           0.000624136   -0.000057440    0.000077858
      5        6          -0.002063570    0.000135346   -0.000144738
      6        7           0.219852774   -0.046504258   -0.000009615
      7        1          -0.000064127    0.000075702    0.000058640
      8        1          -0.000036568    0.000072775   -0.000065211
      9        1           0.000066280    0.000048521    0.000010965
     10        1           0.000010299    0.000059492   -0.000014582
     11        3          -0.218300103    0.046301106    0.000083765
 -------------------------------------------------------------------
 Cartesian Forces:  Max     0.219852774 RMS     0.055131126
 Leave Link  716 at Thu Aug  7 18:43:36 2025, MaxMem=   104857600 cpu:               0.0 elap:               0.0
 (Enter /Applications/g16/l103.exe)

 GradGradGradGradGradGradGradGradGradGradGradGradGradGradGradGradGradGrad
 Berny optimization.
 Using GEDIIS/GDIIS optimizer.
 FormGI is forming the generalized inverse of G from B-inverse, IUseBI=4.
 GSVD:  received Info=                   1 from GESDD.
 Internal  Forces:  Max     0.223156242 RMS     0.036687796
 Search for a local minimum.
 Step number   4 out of a maximum of   47
 All quantities printed in internal units (Hartrees-Bohrs-Radians)
 RMS Force = .29268D-03 SwitMx=.10000D-02 MixMth= 2
 Mixed Optimization -- En-DIIS/RFO-DIIS
 Swapping is turned off.
 Update second derivatives using D2CorX and points    1    2    3    4
 DE=  1.25D-06 DEPred=-2.22D-06 R=-5.65D-01
 Trust test=-5.65D-01 RLast= 1.36D-02 DXMaxT set to 7.50D-02
 ITU= -1 -1  1  0
     Eigenvalues ---    0.00230   0.01298   0.04367   0.04905   0.05309
     Eigenvalues ---    0.05602   0.05797   0.06131   0.06617   0.07385
     Eigenvalues ---    0.08437   0.15704   0.16020   0.16060   0.16131
     Eigenvalues ---    0.20266   0.23995   0.26837   0.33204   0.34136
     Eigenvalues ---    0.34302   0.34342   0.34569   0.36779   1.27952
     Eigenvalues ---    1.305631000.000001000.000001000.000001000.00000
     Eigenvalues --- 1000.000001000.000001000.000001000.000001000.00000
     Eigenvalues --- 1000.000001000.00000
 En-DIIS/RFO-DIIS/Sim-DIIS IScMMF=       -3 using points:     4    3    2    1
 RFO step:  Lambda=-5.68356779D-05.
 NNeg= 0 NGDIIS= 4 SimSw=  2.50D-03 Rises=T DC=  1.25D-06 SmlDif=  1.00D-05
 NRisDI= 2 DoIntr=T SqrtH=F CThrHd= 10.0 CDAdj=  3.0
 RMS Error=  0.1292021547D-02 NUsed= 4 OKEnD=T EnDIS=T
 InvSVX:  RCond= 6.42D-06 Info=           0 Equed=N FErr=  2.10D-15 BErr=  1.14D-17
 EnCoef did   100 forward-backward iterations
 IWarn =    2
 Energies =   -271.482069843      -271.482088860      -271.482087593      -271.482086340    
 Point number   1 has energy  -0.2714820698D+03 and has been removed
 EnCoef did     3 forward-backward iterations
 IWarn =    0
 DidBck=T Rises=T En-DIIS coefs:    0.31768    0.31348    0.36884    0.00000
 Iteration  1 RMS(Cart)=  0.00370452 RMS(Int)=  0.00001036
 Iteration  2 RMS(Cart)=  0.00001106 RMS(Int)=  0.00000011
 Iteration  3 RMS(Cart)=  0.00000000 RMS(Int)=  0.00000011
 Iteration  1 RMS(Cart)=  0.00000000 RMS(Int)=  0.00000000
 ITry= 1 IFail=0 DXMaxC= 1.38D-02 DCOld= 1.00D+10 DXMaxT= 7.50D-02 DXLimC= 3.00D+00 Rises=F
 Variable       Old X    -DE/DX   Delta X   Delta X   Delta X     New X
                                 (Linear)    (Quad)   (Total)
    R1        2.18425   0.00005   0.00001   0.00000   0.00001   2.18426
    R2        2.76305  -0.00006  -0.00009   0.00000  -0.00009   2.76296
    R3        2.93046  -0.00002  -0.00061   0.00000  -0.00061   2.92986
    R4        2.06748   0.00001   0.00010   0.00000   0.00010   2.06758
    R5        2.06747   0.00002   0.00011   0.00000   0.00011   2.06758
    R6        2.74604   0.00048   0.00147   0.00000   0.00147   2.74751
    R7        2.07219  -0.00010  -0.00029   0.00000  -0.00029   2.07190
    R8        2.07219  -0.00010  -0.00029   0.00000  -0.00029   2.07190
    R9        2.19209  -0.00155  -0.00078   0.00000  -0.00078   2.19130
   R10        2.64562   0.22316   0.00000   0.00000   0.00000   2.64562
    A1        1.90207   0.00003   0.00061   0.00000   0.00061   1.90268
    A2        1.90651  -0.00008  -0.00067   0.00000  -0.00067   1.90585
    A3        1.90638  -0.00002  -0.00057   0.00000  -0.00057   1.90581
    A4        1.93046   0.00009   0.00056   0.00000   0.00056   1.93102
    A5        1.93047   0.00005   0.00054   0.00000   0.00055   1.93102
    A6        1.88769  -0.00007  -0.00052   0.00000  -0.00052   1.88717
    A7        1.95568   0.00007  -0.00062   0.00000  -0.00062   1.95505
    A8        1.93562   0.00001   0.00058   0.00000   0.00058   1.93620
    A9        1.93562  -0.00001   0.00059   0.00000   0.00059   1.93621
   A10        1.87863  -0.00006  -0.00059   0.00000  -0.00059   1.87804
   A11        1.87857  -0.00003  -0.00059   0.00000  -0.00059   1.87798
   A12        1.87650   0.00002   0.00062   0.00000   0.00062   1.87712
   A13        3.10696   0.00043   0.00573   0.00000   0.00573   3.11269
   A14        3.13969  -0.00044  -0.00242   0.00000  -0.00242   3.13727
   A15        3.18329  -0.00000  -0.00272   0.00000  -0.00272   3.18057
   A16        3.12706  -0.00007  -0.00011   0.00000  -0.00011   3.12695
   A17        3.13880  -0.00004  -0.00032   0.00000  -0.00032   3.13848
   A18        3.11217  -0.00001   0.00083   0.00000   0.00083   3.11300
    D1        3.14140   0.00003   0.00011   0.00000   0.00011   3.14150
    D2       -1.04202   0.00000  -0.00066   0.00000  -0.00066  -1.04268
    D3        1.04170   0.00002   0.00088   0.00000   0.00088   1.04258
    D4       -1.04562   0.00000   0.00001   0.00000   0.00001  -1.04561
    D5        1.05415  -0.00002  -0.00076   0.00000  -0.00076   1.05339
    D6        3.13786  -0.00000   0.00079   0.00000   0.00079   3.13865
    D7        1.04539   0.00000   0.00008   0.00000   0.00008   1.04547
    D8       -3.13803  -0.00002  -0.00069   0.00000  -0.00069  -3.13871
    D9       -1.05431  -0.00000   0.00086   0.00000   0.00086  -1.05345
         Item               Value     Threshold  Converged?
 Maximum Force            0.001554     0.000450     NO 
 RMS     Force            0.000293     0.000300     YES
 Maximum Displacement     0.013783     0.001800     NO 
 RMS     Displacement     0.003706     0.001200     NO 
 Predicted change in Energy=-3.235360D-06
 GradGradGradGradGradGradGradGradGradGradGradGradGradGradGradGradGradGrad

 Leave Link  103 at Thu Aug  7 18:43:36 2025, MaxMem=   104857600 cpu:               0.0 elap:               0.0
 (Enter /Applications/g16/l202.exe)
                          Input orientation:                          
 ---------------------------------------------------------------------
 Center     Atomic      Atomic             Coordinates (Angstroms)
 Number     Number       Type             X           Y           Z
 ---------------------------------------------------------------------
      1          7           0        3.259204   -0.183270   -0.000556
      2          6           0        2.167596    0.196735    0.000111
      3          6           0        0.772426    0.634026    0.000051
      4          6           0       -0.148016   -0.613599    0.000105
      5          6           0       -1.556245   -0.251977    0.000171
      6          7           0       -2.677954    0.041985   -0.000341
      7          1           0        0.034651   -1.235256   -0.884358
      8          1           0        0.034681   -1.235209    0.884596
      9          1           0        0.588236    1.249125   -0.885850
     10          1           0        0.588227    1.249209    0.885889
     11          3           0       -4.046072    0.339057    0.000219
 ---------------------------------------------------------------------
                    Distance matrix (angstroms):
                    1          2          3          4          5
     1  N    0.000000
     2  C    1.155861   0.000000
     3  C    2.617640   1.462095   0.000000
     4  C    3.434288   2.453303   1.550413   0.000000
     5  C    4.815940   3.750778   2.491527   1.453919   0.000000
     6  N    5.941430   4.848020   3.500804   2.613499   1.159588
     7  H    3.505072   2.717046   2.195611   1.096404   2.068860
     8  H    3.505371   2.717003   2.195616   1.096404   2.068816
     9  H    3.157463   2.094476   1.094117   2.190142   2.763537
    10  H    3.157832   2.094447   1.094116   2.190142   2.763479
    11  Li   7.323926   6.215298   4.827518   4.012779   2.559015
                    6          7          8          9         10
     6  N    0.000000
     7  H    3.125869   0.000000
     8  H    3.126136   1.768955   0.000000
     9  H    3.592952   2.545311   3.100455   0.000000
    10  H    3.593150   3.100450   2.545339   1.771739   0.000000
    11  Li   1.400000   4.462426   4.462397   4.805221   4.805155
                   11
    11  Li   0.000000
 Stoichiometry    C4H4LiN2(1+)
 Framework group  C1[X(C4H4LiN2)]
 Deg. of freedom    27
 Full point group                 C1      NOp   1
 RotChk:  IX=0 Diff= 7.85D-04
 Largest Abelian subgroup         C1      NOp   1
 Largest concise Abelian subgroup C1      NOp   1
                         Standard orientation:                         
 ---------------------------------------------------------------------
 Center     Atomic      Atomic             Coordinates (Angstroms)
 Number     Number       Type             X           Y           Z
 ---------------------------------------------------------------------
      1          7           0        3.245455   -0.190711   -0.000495
      2          6           0        2.155121    0.192936    0.000172
      3          6           0        0.761419    0.634884    0.000111
      4          6           0       -0.163183   -0.609661    0.000165
      5          6           0       -1.570198   -0.243339    0.000231
      6          7           0       -2.690918    0.054367   -0.000281
      7          1           0        0.017407   -1.231925   -0.884298
      8          1           0        0.017437   -1.231878    0.884657
      9          1           0        0.579284    1.250594   -0.885790
     10          1           0        0.579275    1.250678    0.885949
     11          3           0       -4.058037    0.356005    0.000280
 ---------------------------------------------------------------------
 Rotational constants (GHZ):          23.7882299           1.0973230           1.0628730
 Leave Link  202 at Thu Aug  7 18:43:36 2025, MaxMem=   104857600 cpu:               0.0 elap:               0.0
 (Enter /Applications/g16/l301.exe)
 Standard basis: 6-31G(d) (6D, 7F)
 Ernie: Thresh=  0.10000D-02 Tol=  0.10000D-05 Strict=F.
 There are   113 symmetry adapted cartesian basis functions of A   symmetry.
 There are   113 symmetry adapted basis functions of A   symmetry.
   113 basis functions,   212 primitive gaussians,   113 cartesian basis functions
    22 alpha electrons       22 beta electrons
       nuclear repulsion energy       199.4826535171 Hartrees.
 IExCor= 4639 DFT=T Ex+Corr=wB97XD ExCW=0 ScaHFX=  1.000000
 ScaDFX=  1.000000  1.000000  1.000000  1.000000 ScalE2=  1.000000  1.000000
 IRadAn=      5 IRanWt=     -1 IRanGd=            0 ICorTp=0 IEmpDi=121
 HFx  wShort=  0.000000 wLong=  0.200000 cFull=  0.222036 cShort=  0.000000 cLong=  0.777964
 DFx  wShort=  0.000000 wLong=  0.200000 cFull=  0.000000 cShort=  0.000000 cLong=  1.000000
 NAtoms=   11 NActive=   11 NUniq=   11 SFac= 1.00D+00 NAtFMM=   60 NAOKFM=F Big=F
 Integral buffers will be    131072 words long.
 Raffenetti 2 integral format.
 Two-electron integral symmetry is turned on.
 R6Disp:  Grimme-D2 Dispersion energy=       -0.0048529847 Hartrees.
 Nuclear repulsion after empirical dispersion term =      199.4778005324 Hartrees.
 Leave Link  301 at Thu Aug  7 18:43:36 2025, MaxMem=   104857600 cpu:               0.0 elap:               0.0
 (Enter /Applications/g16/l302.exe)
 NPDir=0 NMtPBC=     1 NCelOv=     1 NCel=       1 NClECP=     1 NCelD=      1
         NCelK=      1 NCelE2=     1 NClLst=     1 CellRange=     0.0.
 One-electron integrals computed using PRISM.
 One-electron integral symmetry used in STVInt
 NBasis=   113 RedAO= T EigKep=  7.90D-04  NBF=   113
 NBsUse=   113 1.00D-06 EigRej= -1.00D+00 NBFU=   113
 Precomputing XC quadrature grid using
 IXCGrd= 4 IRadAn=           5 IRanWt=          -1 IRanGd=           0 AccXCQ= 0.00D+00.
 Generated NRdTot=       0 NPtTot=           0 NUsed=           0 NTot=          32
 NSgBfM=   113   113   113   113   113 MxSgAt=    11 MxSgA2=    11.
 Leave Link  302 at Thu Aug  7 18:43:36 2025, MaxMem=   104857600 cpu:               0.1 elap:               0.1
 (Enter /Applications/g16/l303.exe)
 DipDrv:  MaxL=1.
 Leave Link  303 at Thu Aug  7 18:43:36 2025, MaxMem=   104857600 cpu:               0.0 elap:               0.0
 (Enter /Applications/g16/l401.exe)
 Initial guess from the checkpoint file:  "/Users/srak/g16_scratch/Gau-74194.chk"
 B after Tr=     0.000000   -0.000000   -0.000000
         Rot=    1.000000   -0.000088   -0.000022   -0.000004 Ang=  -0.01 deg.
 Guess basis will be translated and rotated to current coordinates.
 JPrj=2 DoOrth=T DoCkMO=T.
 Leave Link  401 at Thu Aug  7 18:43:36 2025, MaxMem=   104857600 cpu:               0.0 elap:               0.0
 (Enter /Applications/g16/l502.exe)
 Keep R1 ints in memory in canonical form, NReq=43174005.
 FoFCou: FMM=F IPFlag=           0 FMFlag=           0 FMFlg1=           0
         NFxFlg=           0 DoJE=F BraDBF=F KetDBF=F FulRan=T
         wScrn=  0.000000 ICntrl=       600 IOpCl=  0 I1Cent=           0 NGrid=           0
         NMat0=    1 NMatS0=   6441 NMatT0=    0 NMatD0=    1 NMtDS0=    0 NMtDT0=    0
 Symmetry not used in FoFCou.
 Two-electron integral symmetry not used.
 Closed shell SCF:
 Using DIIS extrapolation, IDIIS=  1040.
 NGot=   104857600 LenX=    63336875 LenY=    63323665
 Requested convergence on RMS density matrix=1.00D-08 within 128 cycles.
 Requested convergence on MAX density matrix=1.00D-06.
 Requested convergence on             energy=1.00D-06.
 No special actions if energy rises.

 Cycle   1  Pass 1  IDiag  1:
 E= -271.482054250947    
 DIIS: error= 4.44D-04 at cycle   1 NSaved=   1.
 NSaved= 1 IEnMin= 1 EnMin= -271.482054250947     IErMin= 1 ErrMin= 4.44D-04
 ErrMax= 4.44D-04  0.00D+00 EMaxC= 1.00D-01 BMatC= 2.06D-05 BMatP= 2.06D-05
 IDIUse=3 WtCom= 9.96D-01 WtEn= 4.44D-03
 Coeff-Com:  0.100D+01
 Coeff-En:   0.100D+01
 Coeff:      0.100D+01
 Gap=     1.246 Goal=   None    Shift=    0.000
 RMSDP=6.35D-05 MaxDP=1.40D-03              OVMax= 2.08D-03

 Cycle   2  Pass 1  IDiag  1:
 E= -271.482087212693     Delta-E=       -0.000032961746 Rises=F Damp=F
 DIIS: error= 8.98D-05 at cycle   2 NSaved=   2.
 NSaved= 2 IEnMin= 2 EnMin= -271.482087212693     IErMin= 2 ErrMin= 8.98D-05
 ErrMax= 8.98D-05  0.00D+00 EMaxC= 1.00D-01 BMatC= 9.27D-07 BMatP= 2.06D-05
 IDIUse=1 WtCom= 1.00D+00 WtEn= 0.00D+00
 Coeff-Com: -0.171D+00 0.117D+01
 Coeff:     -0.171D+00 0.117D+01
 Gap=     0.390 Goal=   None    Shift=    0.000
 RMSDP=1.77D-05 MaxDP=3.76D-04 DE=-3.30D-05 OVMax= 8.14D-04

 Cycle   3  Pass 1  IDiag  1:
 E= -271.482089400735     Delta-E=       -0.000002188042 Rises=F Damp=F
 DIIS: error= 2.30D-05 at cycle   3 NSaved=   3.
 NSaved= 3 IEnMin= 3 EnMin= -271.482089400735     IErMin= 3 ErrMin= 2.30D-05
 ErrMax= 2.30D-05  0.00D+00 EMaxC= 1.00D-01 BMatC= 9.22D-08 BMatP= 9.27D-07
 IDIUse=1 WtCom= 1.00D+00 WtEn= 0.00D+00
 Coeff-Com: -0.479D-01 0.204D+00 0.844D+00
 Coeff:     -0.479D-01 0.204D+00 0.844D+00
 Gap=     0.390 Goal=   None    Shift=    0.000
 RMSDP=4.51D-06 MaxDP=9.20D-05 DE=-2.19D-06 OVMax= 2.03D-04

 Cycle   4  Pass 1  IDiag  1:
 E= -271.482089491052     Delta-E=       -0.000000090317 Rises=F Damp=F
 DIIS: error= 2.08D-05 at cycle   4 NSaved=   4.
 NSaved= 4 IEnMin= 4 EnMin= -271.482089491052     IErMin= 4 ErrMin= 2.08D-05
 ErrMax= 2.08D-05  0.00D+00 EMaxC= 1.00D-01 BMatC= 7.44D-08 BMatP= 9.22D-08
 IDIUse=1 WtCom= 1.00D+00 WtEn= 0.00D+00
 Coeff-Com: -0.334D-02-0.469D-01 0.491D+00 0.559D+00
 Coeff:     -0.334D-02-0.469D-01 0.491D+00 0.559D+00
 Gap=     0.390 Goal=   None    Shift=    0.000
 RMSDP=2.26D-06 MaxDP=4.62D-05 DE=-9.03D-08 OVMax= 7.40D-05

 Cycle   5  Pass 1  IDiag  1:
 E= -271.482089559646     Delta-E=       -0.000000068595 Rises=F Damp=F
 DIIS: error= 4.65D-06 at cycle   5 NSaved=   5.
 NSaved= 5 IEnMin= 5 EnMin= -271.482089559646     IErMin= 5 ErrMin= 4.65D-06
 ErrMax= 4.65D-06  0.00D+00 EMaxC= 1.00D-01 BMatC= 4.45D-09 BMatP= 7.44D-08
 IDIUse=1 WtCom= 1.00D+00 WtEn= 0.00D+00
 Coeff-Com:  0.104D-01-0.699D-01-0.118D-01 0.190D+00 0.881D+00
 Coeff:      0.104D-01-0.699D-01-0.118D-01 0.190D+00 0.881D+00
 Gap=     0.390 Goal=   None    Shift=    0.000
 RMSDP=9.17D-07 MaxDP=1.69D-05 DE=-6.86D-08 OVMax= 4.92D-05

 Cycle   6  Pass 1  IDiag  1:
 E= -271.482089565893     Delta-E=       -0.000000006246 Rises=F Damp=F
 DIIS: error= 1.25D-06 at cycle   6 NSaved=   6.
 NSaved= 6 IEnMin= 6 EnMin= -271.482089565893     IErMin= 6 ErrMin= 1.25D-06
 ErrMax= 1.25D-06  0.00D+00 EMaxC= 1.00D-01 BMatC= 1.69D-10 BMatP= 4.45D-09
 IDIUse=1 WtCom= 1.00D+00 WtEn= 0.00D+00
 Coeff-Com:  0.303D-02-0.172D-01-0.244D-01 0.258D-01 0.229D+00 0.784D+00
 Coeff:      0.303D-02-0.172D-01-0.244D-01 0.258D-01 0.229D+00 0.784D+00
 Gap=     0.390 Goal=   None    Shift=    0.000
 RMSDP=1.83D-07 MaxDP=3.21D-06 DE=-6.25D-09 OVMax= 7.42D-06

 Cycle   7  Pass 1  IDiag  1:
 E= -271.482089566061     Delta-E=       -0.000000000168 Rises=F Damp=F
 DIIS: error= 7.23D-07 at cycle   7 NSaved=   7.
 NSaved= 7 IEnMin= 7 EnMin= -271.482089566061     IErMin= 7 ErrMin= 7.23D-07
 ErrMax= 7.23D-07  0.00D+00 EMaxC= 1.00D-01 BMatC= 7.31D-11 BMatP= 1.69D-10
 IDIUse=1 WtCom= 1.00D+00 WtEn= 0.00D+00
 Coeff-Com:  0.283D-03-0.235D-03-0.980D-02-0.969D-02 0.465D-02 0.412D+00
 Coeff-Com:  0.603D+00
 Coeff:      0.283D-03-0.235D-03-0.980D-02-0.969D-02 0.465D-02 0.412D+00
 Coeff:      0.603D+00
 Gap=     0.390 Goal=   None    Shift=    0.000
 RMSDP=8.76D-08 MaxDP=1.96D-06 DE=-1.68D-10 OVMax= 2.72D-06

 Cycle   8  Pass 1  IDiag  1:
 E= -271.482089566121     Delta-E=       -0.000000000061 Rises=F Damp=F
 DIIS: error= 2.31D-07 at cycle   8 NSaved=   8.
 NSaved= 8 IEnMin= 8 EnMin= -271.482089566121     IErMin= 8 ErrMin= 2.31D-07
 ErrMax= 2.31D-07  0.00D+00 EMaxC= 1.00D-01 BMatC= 1.11D-11 BMatP= 7.31D-11
 IDIUse=1 WtCom= 1.00D+00 WtEn= 0.00D+00
 Coeff-Com: -0.358D-03 0.277D-02-0.682D-03-0.949D-02-0.378D-01 0.884D-01
 Coeff-Com:  0.327D+00 0.630D+00
 Coeff:     -0.358D-03 0.277D-02-0.682D-03-0.949D-02-0.378D-01 0.884D-01
 Coeff:      0.327D+00 0.630D+00
 Gap=     0.390 Goal=   None    Shift=    0.000
 RMSDP=3.06D-08 MaxDP=5.12D-07 DE=-6.08D-11 OVMax= 8.63D-07

 Cycle   9  Pass 1  IDiag  1:
 E= -271.482089566126     Delta-E=       -0.000000000004 Rises=F Damp=F
 DIIS: error= 2.74D-08 at cycle   9 NSaved=   9.
 NSaved= 9 IEnMin= 9 EnMin= -271.482089566126     IErMin= 9 ErrMin= 2.74D-08
 ErrMax= 2.74D-08  0.00D+00 EMaxC= 1.00D-01 BMatC= 1.89D-13 BMatP= 1.11D-11
 IDIUse=1 WtCom= 1.00D+00 WtEn= 0.00D+00
 Coeff-Com: -0.101D-03 0.633D-03 0.628D-03-0.160D-02-0.958D-02-0.878D-02
 Coeff-Com:  0.302D-01 0.133D+00 0.855D+00
 Coeff:     -0.101D-03 0.633D-03 0.628D-03-0.160D-02-0.958D-02-0.878D-02
 Coeff:      0.302D-01 0.133D+00 0.855D+00
 Gap=     0.390 Goal=   None    Shift=    0.000
 RMSDP=8.43D-09 MaxDP=1.83D-07 DE=-4.21D-12 OVMax= 1.88D-07

 SCF Done:  E(RwB97XD) =  -271.482089566     A.U. after    9 cycles
            NFock=  9  Conv=0.84D-08     -V/T= 2.0070
 KE= 2.695869904690D+02 PE=-1.022255972649D+03 EE= 2.817090920814D+02
 Leave Link  502 at Thu Aug  7 18:43:42 2025, MaxMem=   104857600 cpu:               5.8 elap:               5.8
 (Enter /Applications/g16/l701.exe)
 ... and contract with generalized density number  0.
 Compute integral first derivatives.
 R6Disp: Adding Grimme-D2 dispersion energy 1st derivatives to the gradient.
 Leave Link  701 at Thu Aug  7 18:43:42 2025, MaxMem=   104857600 cpu:               0.0 elap:               0.0
 (Enter /Applications/g16/l702.exe)
 L702 exits ... SP integral derivatives will be done elsewhere.
 Leave Link  702 at Thu Aug  7 18:43:42 2025, MaxMem=   104857600 cpu:               0.0 elap:               0.0
 (Enter /Applications/g16/l703.exe)
 Integral derivatives from FoFJK, PRISM(SPDF).
 Compute integral first derivatives, UseDBF=F ICtDFT=           0.
 Calling FoFJK, ICntrl=      2127 FMM=F ISym2X=0 I1Cent= 0 IOpClX= 0 NMat=1 NMatS=1 NMatT=0.
 FoFJK:  IHMeth= 1 ICntrl=    2127 DoSepK=T KAlg= 0 I1Cent=           0 FoldK=F
 IRaf=         1 NMat=       1 IRICut=       1 DoRegI=T DoRafI=F ISym2E= 0 IDoP0=0 IntGTp=1.
 FoFCou: FMM=F IPFlag=           0 FMFlag=      100000 FMFlg1=         800
         NFxFlg=           0 DoJE=F BraDBF=F KetDBF=F FulRan=T
         wScrn=  0.000000 ICntrl=      2527 IOpCl=  0 I1Cent=           0 NGrid=           0
         NMat0=    1 NMatS0=      1 NMatT0=    0 NMatD0=    1 NMtDS0=    0 NMtDT0=    0
 Symmetry not used in FoFCou.
 Leave Link  703 at Thu Aug  7 18:43:45 2025, MaxMem=   104857600 cpu:               2.5 elap:               2.5
 (Enter /Applications/g16/l716.exe)
 Dipole        =-5.93978981D+00 4.72105555D-01 1.21904647D-03
 ***** Axes restored to original set *****
 -------------------------------------------------------------------
 Center     Atomic                   Forces (Hartrees/Bohr)
 Number     Number              X              Y              Z
 -------------------------------------------------------------------
      1        7           0.000007631   -0.000005894    0.000023423
      2        6          -0.000002392    0.000021300   -0.000050595
      3        6           0.000072962   -0.000002735    0.000028574
      4        6          -0.000034817    0.000027346    0.000031498
      5        6          -0.000688601    0.000002533   -0.000060034
      6        7           0.218683415   -0.047378719   -0.000053877
      7        1           0.000025701    0.000014147    0.000016572
      8        1           0.000040994    0.000012949   -0.000019111
      9        1           0.000006392   -0.000011859    0.000005959
     10        1          -0.000005116   -0.000008658   -0.000006566
     11        3          -0.218106170    0.047329591    0.000084157
 -------------------------------------------------------------------
 Cartesian Forces:  Max     0.218683415 RMS     0.055014619
 Leave Link  716 at Thu Aug  7 18:43:45 2025, MaxMem=   104857600 cpu:               0.0 elap:               0.0
 (Enter /Applications/g16/l103.exe)

 GradGradGradGradGradGradGradGradGradGradGradGradGradGradGradGradGradGrad
 Berny optimization.
 Using GEDIIS/GDIIS optimizer.
 FormGI is forming the generalized inverse of G from B-inverse, IUseBI=4.
 Internal  Forces:  Max     0.223182381 RMS     0.036691097
 Search for a local minimum.
 Step number   5 out of a maximum of   47
 All quantities printed in internal units (Hartrees-Bohrs-Radians)
 RMS Force = .10268D-03 SwitMx=.10000D-02 MixMth= 2
 Mixed Optimization -- En-DIIS/RFO-DIIS
 Swapping is turned off.
 Update second derivatives using D2CorX and points    1    2    3    4    5
 DE= -3.23D-06 DEPred=-3.24D-06 R= 9.97D-01
 TightC=F SS=  1.41D+00  RLast= 7.62D-03 DXNew= 1.2613D-01 2.2858D-02
 Trust test= 9.97D-01 RLast= 7.62D-03 DXMaxT set to 7.50D-02
 ITU=  1 -1 -1  1  0
     Eigenvalues ---    0.00230   0.01297   0.04249   0.04907   0.05312
     Eigenvalues ---    0.05611   0.05791   0.06403   0.07190   0.07390
     Eigenvalues ---    0.08792   0.15663   0.16022   0.16028   0.16141
     Eigenvalues ---    0.22100   0.23876   0.27436   0.33851   0.34136
     Eigenvalues ---    0.34299   0.34342   0.35455   0.36839   1.30540
     Eigenvalues ---    1.331461000.000001000.000001000.000001000.00000
     Eigenvalues --- 1000.000001000.000001000.000001000.000001000.00000
     Eigenvalues --- 1000.000001000.00000
 En-DIIS/RFO-DIIS/Sim-DIIS IScMMF=       -3 using points:     5    4    3    2    1
 RFO step:  Lambda=-5.05783454D-05.
 NNeg= 0 NGDIIS= 5 SimSw=  2.50D-03 Rises=F DC= -3.23D-06 SmlDif=  1.00D-05
 NRisDI= 0 DoIntr=F SqrtH=F CThrHd= 10.0 CDAdj=  3.0
 RMS Error=  0.5956362472D-03 NUsed= 5 OKEnD=F EnDIS=F
 InvSVX:  RCond= 1.04D-11 Info=           0 Equed=N FErr=  5.16D-10 BErr=  8.30D-17
 DIIS inversion failure, remove point   5.
 InvSVX:  RCond= 1.34D-11 Info=           0 Equed=N FErr=  4.26D-10 BErr=  8.01D-17
 DIIS inversion failure, remove point   4.
 InvSVX:  RCond= 1.35D-06 Info=           0 Equed=N FErr=  5.22D-15 BErr=  2.51D-17
 RFO-DIIS uses    3 points instead of    5
 DidBck=F Rises=F RFO-DIIS coefs:    1.10798   -0.02195   -0.08603    0.00000    0.00000
 Iteration  1 RMS(Cart)=  0.00080568 RMS(Int)=  0.00000075
 Iteration  2 RMS(Cart)=  0.00000082 RMS(Int)=  0.00000010
 Iteration  1 RMS(Cart)=  0.00000000 RMS(Int)=  0.00000000
 ITry= 1 IFail=0 DXMaxC= 3.12D-03 DCOld= 1.00D+10 DXMaxT= 7.50D-02 DXLimC= 3.00D+00 Rises=F
 Variable       Old X    -DE/DX   Delta X   Delta X   Delta X     New X
                                 (Linear)    (Quad)   (Total)
    R1        2.18426   0.00001  -0.00000   0.00001   0.00001   2.18427
    R2        2.76296   0.00000  -0.00000   0.00004   0.00004   2.76300
    R3        2.92986   0.00004  -0.00000   0.00019   0.00019   2.93005
    R4        2.06758  -0.00001   0.00000  -0.00006  -0.00006   2.06753
    R5        2.06758  -0.00001   0.00000  -0.00005  -0.00005   2.06753
    R6        2.74751   0.00010   0.00001   0.00004   0.00005   2.74756
    R7        2.07190  -0.00002  -0.00000   0.00001   0.00000   2.07191
    R8        2.07190  -0.00002  -0.00000   0.00001   0.00001   2.07191
    R9        2.19130  -0.00057  -0.00001  -0.00032  -0.00033   2.19097
   R10        2.64562   0.22318   0.00000   0.00000  -0.00000   2.64562
    A1        1.90268   0.00003   0.00002   0.00003   0.00004   1.90272
    A2        1.90585  -0.00002  -0.00002   0.00010   0.00008   1.90592
    A3        1.90581  -0.00000  -0.00002   0.00020   0.00019   1.90599
    A4        1.93102  -0.00001   0.00001  -0.00022  -0.00021   1.93081
    A5        1.93102  -0.00001   0.00001  -0.00022  -0.00020   1.93081
    A6        1.88717   0.00001  -0.00001   0.00012   0.00012   1.88728
    A7        1.95505   0.00007  -0.00000   0.00046   0.00046   1.95551
    A8        1.93620  -0.00004   0.00002  -0.00049  -0.00048   1.93572
    A9        1.93621  -0.00005   0.00002  -0.00050  -0.00048   1.93572
   A10        1.87804  -0.00000  -0.00002   0.00037   0.00035   1.87838
   A11        1.87798   0.00001  -0.00002   0.00052   0.00050   1.87848
   A12        1.87712   0.00002   0.00001  -0.00034  -0.00033   1.87679
   A13        3.11269   0.00001  -0.00047   0.00082   0.00036   3.11305
   A14        3.13727  -0.00015  -0.00014  -0.00139  -0.00154   3.13574
   A15        3.18057   0.00006  -0.00004   0.00132   0.00128   3.18185
   A16        3.12695  -0.00004  -0.00012  -0.00218  -0.00231   3.12464
   A17        3.13848  -0.00001  -0.00001   0.00004   0.00003   3.13851
   A18        3.11300  -0.00003   0.00001  -0.00048  -0.00047   3.11254
    D1        3.14150   0.00001   0.00000   0.00023   0.00023  -3.14145
    D2       -1.04268   0.00002  -0.00002   0.00067   0.00065  -1.04203
    D3        1.04258  -0.00002   0.00002  -0.00041  -0.00038   1.04219
    D4       -1.04561   0.00001   0.00000   0.00023   0.00023  -1.04538
    D5        1.05339   0.00002  -0.00002   0.00067   0.00065   1.05404
    D6        3.13865  -0.00002   0.00002  -0.00041  -0.00039   3.13826
    D7        1.04547   0.00000   0.00001   0.00009   0.00010   1.04558
    D8       -3.13871   0.00001  -0.00001   0.00054   0.00053  -3.13819
    D9       -1.05345  -0.00003   0.00003  -0.00054  -0.00051  -1.05397
         Item               Value     Threshold  Converged?
 Maximum Force            0.000571     0.000450     NO 
 RMS     Force            0.000103     0.000300     YES
 Maximum Displacement     0.003125     0.001800     NO 
 RMS     Displacement     0.000806     0.001200     YES
 Predicted change in Energy=-3.842678D-07
 Lowest energy point so far.  Saving SCF results.
 GradGradGradGradGradGradGradGradGradGradGradGradGradGradGradGradGradGrad

 Leave Link  103 at Thu Aug  7 18:43:45 2025, MaxMem=   104857600 cpu:               0.0 elap:               0.0
 (Enter /Applications/g16/l202.exe)
                          Input orientation:                          
 ---------------------------------------------------------------------
 Center     Atomic      Atomic             Coordinates (Angstroms)
 Number     Number       Type             X           Y           Z
 ---------------------------------------------------------------------
      1          7           0        3.259014   -0.183636    0.001098
      2          6           0        2.167562    0.196825   -0.000327
      3          6           0        0.772369    0.634114   -0.000275
      4          6           0       -0.148178   -0.613560   -0.000218
      5          6           0       -1.556585   -0.252526   -0.000355
      6          7           0       -2.677839    0.042483   -0.000281
      7          1           0        0.035240   -1.235190   -0.884549
      8          1           0        0.035201   -1.235080    0.884200
      9          1           0        0.587990    1.249093   -0.886183
     10          1           0        0.588006    1.249170    0.885586
     11          3           0       -4.046048    0.339135    0.001341
 ---------------------------------------------------------------------
                    Distance matrix (angstroms):
                    1          2          3          4          5
     1  N    0.000000
     2  C    1.155863   0.000000
     3  C    2.617656   1.462117   0.000000
     4  C    3.434209   2.453441   1.550515   0.000000
     5  C    4.816092   3.751159   2.492019   1.453946   0.000000
     6  N    5.941158   4.847859   3.500566   2.613346   1.159414
     7  H    3.504691   2.716489   2.195359   1.096406   2.069139
     8  H    3.504051   2.716561   2.195359   1.096408   2.069211
     9  H    3.158219   2.094530   1.094087   2.190058   2.763830
    10  H    3.157457   2.094581   1.094090   2.190064   2.763920
    11  Li   7.323744   6.215240   4.827438   4.012608   2.558806
                    6          7          8          9         10
     6  N    0.000000
     7  H    3.126528   0.000000
     8  H    3.126510   1.768749   0.000000
     9  H    3.592544   2.545034   3.100153   0.000000
    10  H    3.592576   3.100157   2.545014   1.771769   0.000000
    11  Li   1.400000   4.463206   4.462532   4.805209   4.804634
                   11
    11  Li   0.000000
 Stoichiometry    C4H4LiN2(1+)
 Framework group  C1[X(C4H4LiN2)]
 Deg. of freedom    27
 Full point group                 C1      NOp   1
 RotChk:  IX=2 Diff= 8.63D-05
 Largest Abelian subgroup         C1      NOp   1
 Largest concise Abelian subgroup C1      NOp   1
                         Standard orientation:                         
 ---------------------------------------------------------------------
 Center     Atomic      Atomic             Coordinates (Angstroms)
 Number     Number       Type             X           Y           Z
 ---------------------------------------------------------------------
      1          7           0        3.245350   -0.190863    0.001059
      2          6           0        2.155151    0.193174   -0.000366
      3          6           0        0.761398    0.635034   -0.000314
      4          6           0       -0.163233   -0.609616   -0.000257
      5          6           0       -1.570450   -0.243967   -0.000394
      6          7           0       -2.690730    0.054716   -0.000320
      7          1           0        0.018146   -1.231844   -0.884587
      8          1           0        0.018108   -1.231734    0.884161
      9          1           0        0.579037    1.250614   -0.886221
     10          1           0        0.579053    1.250691    0.885547
     11          3           0       -4.057959    0.355851    0.001302
 ---------------------------------------------------------------------
 Rotational constants (GHZ):          23.7812260           1.0973663           1.0628984
 Leave Link  202 at Thu Aug  7 18:43:45 2025, MaxMem=   104857600 cpu:               0.0 elap:               0.0
 (Enter /Applications/g16/l301.exe)
 Standard basis: 6-31G(d) (6D, 7F)
 Ernie: Thresh=  0.10000D-02 Tol=  0.10000D-05 Strict=F.
 There are   113 symmetry adapted cartesian basis functions of A   symmetry.
 There are   113 symmetry adapted basis functions of A   symmetry.
   113 basis functions,   212 primitive gaussians,   113 cartesian basis functions
    22 alpha electrons       22 beta electrons
       nuclear repulsion energy       199.4839088117 Hartrees.
 IExCor= 4639 DFT=T Ex+Corr=wB97XD ExCW=0 ScaHFX=  1.000000
 ScaDFX=  1.000000  1.000000  1.000000  1.000000 ScalE2=  1.000000  1.000000
 IRadAn=      5 IRanWt=     -1 IRanGd=            0 ICorTp=0 IEmpDi=121
 HFx  wShort=  0.000000 wLong=  0.200000 cFull=  0.222036 cShort=  0.000000 cLong=  0.777964
 DFx  wShort=  0.000000 wLong=  0.200000 cFull=  0.000000 cShort=  0.000000 cLong=  1.000000
 NAtoms=   11 NActive=   11 NUniq=   11 SFac= 1.00D+00 NAtFMM=   60 NAOKFM=F Big=F
 Integral buffers will be    131072 words long.
 Raffenetti 2 integral format.
 Two-electron integral symmetry is turned on.
 R6Disp:  Grimme-D2 Dispersion energy=       -0.0048531418 Hartrees.
 Nuclear repulsion after empirical dispersion term =      199.4790556698 Hartrees.
 Leave Link  301 at Thu Aug  7 18:43:45 2025, MaxMem=   104857600 cpu:               0.0 elap:               0.0
 (Enter /Applications/g16/l302.exe)
 NPDir=0 NMtPBC=     1 NCelOv=     1 NCel=       1 NClECP=     1 NCelD=      1
         NCelK=      1 NCelE2=     1 NClLst=     1 CellRange=     0.0.
 One-electron integrals computed using PRISM.
 One-electron integral symmetry used in STVInt
 NBasis=   113 RedAO= T EigKep=  7.90D-04  NBF=   113
 NBsUse=   113 1.00D-06 EigRej= -1.00D+00 NBFU=   113
 Precomputing XC quadrature grid using
 IXCGrd= 4 IRadAn=           5 IRanWt=          -1 IRanGd=           0 AccXCQ= 0.00D+00.
 Generated NRdTot=       0 NPtTot=           0 NUsed=           0 NTot=          32
 NSgBfM=   113   113   113   113   113 MxSgAt=    11 MxSgA2=    11.
 Leave Link  302 at Thu Aug  7 18:43:45 2025, MaxMem=   104857600 cpu:               0.1 elap:               0.1
 (Enter /Applications/g16/l303.exe)
 DipDrv:  MaxL=1.
 Leave Link  303 at Thu Aug  7 18:43:45 2025, MaxMem=   104857600 cpu:               0.0 elap:               0.0
 (Enter /Applications/g16/l401.exe)
 Initial guess from the checkpoint file:  "/Users/srak/g16_scratch/Gau-74194.chk"
 B after Tr=     0.000000    0.000000   -0.000000
         Rot=    1.000000    0.000030    0.000046   -0.000007 Ang=   0.01 deg.
 Guess basis will be translated and rotated to current coordinates.
 JPrj=2 DoOrth=T DoCkMO=T.
 Leave Link  401 at Thu Aug  7 18:43:45 2025, MaxMem=   104857600 cpu:               0.0 elap:               0.0
 (Enter /Applications/g16/l502.exe)
 Keep R1 ints in memory in canonical form, NReq=43174005.
 FoFCou: FMM=F IPFlag=           0 FMFlag=           0 FMFlg1=           0
         NFxFlg=           0 DoJE=F BraDBF=F KetDBF=F FulRan=T
         wScrn=  0.000000 ICntrl=       600 IOpCl=  0 I1Cent=           0 NGrid=           0
         NMat0=    1 NMatS0=   6441 NMatT0=    0 NMatD0=    1 NMtDS0=    0 NMtDT0=    0
 Symmetry not used in FoFCou.
 Two-electron integral symmetry not used.
 Closed shell SCF:
 Using DIIS extrapolation, IDIIS=  1040.
 NGot=   104857600 LenX=    63336875 LenY=    63323665
 Requested convergence on RMS density matrix=1.00D-08 within 128 cycles.
 Requested convergence on MAX density matrix=1.00D-06.
 Requested convergence on             energy=1.00D-06.
 No special actions if energy rises.

 Cycle   1  Pass 1  IDiag  1:
 E= -271.482086972701    
 DIIS: error= 1.25D-04 at cycle   1 NSaved=   1.
 NSaved= 1 IEnMin= 1 EnMin= -271.482086972701     IErMin= 1 ErrMin= 1.25D-04
 ErrMax= 1.25D-04  0.00D+00 EMaxC= 1.00D-01 BMatC= 1.73D-06 BMatP= 1.73D-06
 IDIUse=3 WtCom= 9.99D-01 WtEn= 1.25D-03
 Coeff-Com:  0.100D+01
 Coeff-En:   0.100D+01
 Coeff:      0.100D+01
 Gap=     1.245 Goal=   None    Shift=    0.000
 RMSDP=1.74D-05 MaxDP=4.36D-04              OVMax= 5.41D-04

 Cycle   2  Pass 1  IDiag  1:
 E= -271.482089657681     Delta-E=       -0.000002684980 Rises=F Damp=F
 DIIS: error= 2.53D-05 at cycle   2 NSaved=   2.
 NSaved= 2 IEnMin= 2 EnMin= -271.482089657681     IErMin= 2 ErrMin= 2.53D-05
 ErrMax= 2.53D-05  0.00D+00 EMaxC= 1.00D-01 BMatC= 7.27D-08 BMatP= 1.73D-06
 IDIUse=1 WtCom= 1.00D+00 WtEn= 0.00D+00
 Coeff-Com: -0.167D+00 0.117D+01
 Coeff:     -0.167D+00 0.117D+01
 Gap=     0.390 Goal=   None    Shift=    0.000
 RMSDP=4.82D-06 MaxDP=1.16D-04 DE=-2.68D-06 OVMax= 2.10D-04

 Cycle   3  Pass 1  IDiag  1:
 E= -271.482089831204     Delta-E=       -0.000000173524 Rises=F Damp=F
 DIIS: error= 7.03D-06 at cycle   3 NSaved=   3.
 NSaved= 3 IEnMin= 3 EnMin= -271.482089831204     IErMin= 3 ErrMin= 7.03D-06
 ErrMax= 7.03D-06  0.00D+00 EMaxC= 1.00D-01 BMatC= 5.35D-09 BMatP= 7.27D-08
 IDIUse=1 WtCom= 1.00D+00 WtEn= 0.00D+00
 Coeff-Com: -0.377D-01 0.139D+00 0.898D+00
 Coeff:     -0.377D-01 0.139D+00 0.898D+00
 Gap=     0.390 Goal=   None    Shift=    0.000
 RMSDP=1.16D-06 MaxDP=2.40D-05 DE=-1.74D-07 OVMax= 5.26D-05

 Cycle   4  Pass 1  IDiag  1:
 E= -271.482089838055     Delta-E=       -0.000000006851 Rises=F Damp=F
 DIIS: error= 5.52D-06 at cycle   4 NSaved=   4.
 NSaved= 4 IEnMin= 4 EnMin= -271.482089838055     IErMin= 4 ErrMin= 5.52D-06
 ErrMax= 5.52D-06  0.00D+00 EMaxC= 1.00D-01 BMatC= 4.10D-09 BMatP= 5.35D-09
 IDIUse=1 WtCom= 1.00D+00 WtEn= 0.00D+00
 Coeff-Com: -0.188D-02-0.531D-01 0.487D+00 0.568D+00
 Coeff:     -0.188D-02-0.531D-01 0.487D+00 0.568D+00
 Gap=     0.390 Goal=   None    Shift=    0.000
 RMSDP=5.40D-07 MaxDP=1.45D-05 DE=-6.85D-09 OVMax= 2.01D-05

 Cycle   5  Pass 1  IDiag  1:
 E= -271.482089841761     Delta-E=       -0.000000003706 Rises=F Damp=F
 DIIS: error= 1.85D-06 at cycle   5 NSaved=   5.
 NSaved= 5 IEnMin= 5 EnMin= -271.482089841761     IErMin= 5 ErrMin= 1.85D-06
 ErrMax= 1.85D-06  0.00D+00 EMaxC= 1.00D-01 BMatC= 4.37D-10 BMatP= 4.10D-09
 IDIUse=1 WtCom= 1.00D+00 WtEn= 0.00D+00
 Coeff-Com:  0.941D-02-0.658D-01-0.744D-02 0.253D+00 0.811D+00
 Coeff:      0.941D-02-0.658D-01-0.744D-02 0.253D+00 0.811D+00
 Gap=     0.390 Goal=   None    Shift=    0.000
 RMSDP=2.29D-07 MaxDP=3.54D-06 DE=-3.71D-09 OVMax= 1.12D-05

 Cycle   6  Pass 1  IDiag  1:
 E= -271.482089842285     Delta-E=       -0.000000000524 Rises=F Damp=F
 DIIS: error= 2.46D-07 at cycle   6 NSaved=   6.
 NSaved= 6 IEnMin= 6 EnMin= -271.482089842285     IErMin= 6 ErrMin= 2.46D-07
 ErrMax= 2.46D-07  0.00D+00 EMaxC= 1.00D-01 BMatC= 1.44D-11 BMatP= 4.37D-10
 IDIUse=1 WtCom= 1.00D+00 WtEn= 0.00D+00
 Coeff-Com:  0.281D-02-0.160D-01-0.254D-01 0.409D-01 0.223D+00 0.775D+00
 Coeff:      0.281D-02-0.160D-01-0.254D-01 0.409D-01 0.223D+00 0.775D+00
 Gap=     0.390 Goal=   None    Shift=    0.000
 RMSDP=4.90D-08 MaxDP=8.45D-07 DE=-5.24D-10 OVMax= 1.88D-06

 Cycle   7  Pass 1  IDiag  1:
 E= -271.482089842297     Delta-E=       -0.000000000012 Rises=F Damp=F
 DIIS: error= 2.29D-07 at cycle   7 NSaved=   7.
 NSaved= 7 IEnMin= 7 EnMin= -271.482089842297     IErMin= 7 ErrMin= 2.29D-07
 ErrMax= 2.29D-07  0.00D+00 EMaxC= 1.00D-01 BMatC= 6.28D-12 BMatP= 1.44D-11
 IDIUse=1 WtCom= 1.00D+00 WtEn= 0.00D+00
 Coeff-Com:  0.320D-03-0.267D-03-0.115D-01-0.103D-01 0.139D-01 0.419D+00
 Coeff-Com:  0.589D+00
 Coeff:      0.320D-03-0.267D-03-0.115D-01-0.103D-01 0.139D-01 0.419D+00
 Coeff:      0.589D+00
 Gap=     0.390 Goal=   None    Shift=    0.000
 RMSDP=2.43D-08 MaxDP=5.94D-07 DE=-1.18D-11 OVMax= 9.73D-07

 Cycle   8  Pass 1  IDiag  1:
 E= -271.482089842304     Delta-E=       -0.000000000007 Rises=F Damp=F
 DIIS: error= 6.85D-08 at cycle   8 NSaved=   8.
 NSaved= 8 IEnMin= 8 EnMin= -271.482089842304     IErMin= 8 ErrMin= 6.85D-08
 ErrMax= 6.85D-08  0.00D+00 EMaxC= 1.00D-01 BMatC= 7.26D-13 BMatP= 6.28D-12
 IDIUse=1 WtCom= 1.00D+00 WtEn= 0.00D+00
 Coeff-Com: -0.273D-03 0.232D-02-0.119D-02-0.114D-01-0.291D-01 0.863D-01
 Coeff-Com:  0.298D+00 0.655D+00
 Coeff:     -0.273D-03 0.232D-02-0.119D-02-0.114D-01-0.291D-01 0.863D-01
 Coeff:      0.298D+00 0.655D+00
 Gap=     0.390 Goal=   None    Shift=    0.000
 RMSDP=7.92D-09 MaxDP=1.40D-07 DE=-7.28D-12 OVMax= 2.69D-07

 SCF Done:  E(RwB97XD) =  -271.482089842     A.U. after    8 cycles
            NFock=  8  Conv=0.79D-08     -V/T= 2.0070
 KE= 2.695875301188D+02 PE=-1.022258919977D+03 EE= 2.817102443462D+02
 Leave Link  502 at Thu Aug  7 18:43:50 2025, MaxMem=   104857600 cpu:               5.3 elap:               5.3
 (Enter /Applications/g16/l701.exe)
 ... and contract with generalized density number  0.
 Compute integral first derivatives.
 R6Disp: Adding Grimme-D2 dispersion energy 1st derivatives to the gradient.
 Leave Link  701 at Thu Aug  7 18:43:50 2025, MaxMem=   104857600 cpu:               0.0 elap:               0.0
 (Enter /Applications/g16/l702.exe)
 L702 exits ... SP integral derivatives will be done elsewhere.
 Leave Link  702 at Thu Aug  7 18:43:50 2025, MaxMem=   104857600 cpu:               0.0 elap:               0.0
 (Enter /Applications/g16/l703.exe)
 Integral derivatives from FoFJK, PRISM(SPDF).
 Compute integral first derivatives, UseDBF=F ICtDFT=           0.
 Calling FoFJK, ICntrl=      2127 FMM=F ISym2X=0 I1Cent= 0 IOpClX= 0 NMat=1 NMatS=1 NMatT=0.
 FoFJK:  IHMeth= 1 ICntrl=    2127 DoSepK=T KAlg= 0 I1Cent=           0 FoldK=F
 IRaf=         1 NMat=       1 IRICut=       1 DoRegI=T DoRafI=F ISym2E= 0 IDoP0=0 IntGTp=1.
 FoFCou: FMM=F IPFlag=           0 FMFlag=      100000 FMFlg1=         800
         NFxFlg=           0 DoJE=F BraDBF=F KetDBF=F FulRan=T
         wScrn=  0.000000 ICntrl=      2527 IOpCl=  0 I1Cent=           0 NGrid=           0
         NMat0=    1 NMatS0=      1 NMatT0=    0 NMatD0=    1 NMtDS0=    0 NMtDT0=    0
 Symmetry not used in FoFCou.
 Leave Link  703 at Thu Aug  7 18:43:53 2025, MaxMem=   104857600 cpu:               2.5 elap:               2.5
 (Enter /Applications/g16/l716.exe)
 Dipole        =-5.93986556D+00 4.71458145D-01 1.35690215D-03
 ***** Axes restored to original set *****
 -------------------------------------------------------------------
 Center     Atomic                   Forces (Hartrees/Bohr)
 Number     Number              X              Y              Z
 -------------------------------------------------------------------
      1        7           0.000008722    0.000009338   -0.000047644
      2        6          -0.000045003   -0.000007093    0.000102649
      3        6          -0.000021107   -0.000001812   -0.000056180
      4        6           0.000093443   -0.000072031   -0.000016054
      5        6          -0.000173444    0.000036569    0.000019166
      6        7           0.218276531   -0.047286315   -0.000252432
      7        1          -0.000018935    0.000008931    0.000010551
      8        1          -0.000026788    0.000011541   -0.000011050
      9        1           0.000004011    0.000018144    0.000000560
     10        1           0.000028829    0.000012644    0.000000355
     11        3          -0.218126260    0.047270086    0.000250079
 -------------------------------------------------------------------
 Cartesian Forces:  Max     0.218276531 RMS     0.054963999
 Leave Link  716 at Thu Aug  7 18:43:53 2025, MaxMem=   104857600 cpu:               0.0 elap:               0.0
 (Enter /Applications/g16/l103.exe)

 GradGradGradGradGradGradGradGradGradGradGradGradGradGradGradGradGradGrad
 Berny optimization.
 Using GEDIIS/GDIIS optimizer.
 FormGI is forming the generalized inverse of G from B-inverse, IUseBI=4.
 Internal  Forces:  Max     0.223189531 RMS     0.036692148
 Search for a local minimum.
 Step number   6 out of a maximum of   47
 All quantities printed in internal units (Hartrees-Bohrs-Radians)
 RMS Force = .34306D-04 SwitMx=.10000D-02 MixMth= 2
 Mixed Optimization -- En-DIIS/RFO-DIIS
 Swapping is turned off.
 Update second derivatives using D2CorX and points    1    2    3    4    5
                                                      6
 DE= -2.76D-07 DEPred=-3.84D-07 R= 7.19D-01
 Trust test= 7.19D-01 RLast= 3.59D-03 DXMaxT set to 7.50D-02
 ITU=  0  1 -1 -1  1  0
     Eigenvalues ---    0.00230   0.01803   0.03912   0.04953   0.05311
     Eigenvalues ---    0.05616   0.05803   0.06685   0.07240   0.07390
     Eigenvalues ---    0.09758   0.15921   0.15995   0.16118   0.16669
     Eigenvalues ---    0.22368   0.24230   0.27466   0.33649   0.34137
     Eigenvalues ---    0.34295   0.34347   0.35384   0.37050   1.18524
     Eigenvalues ---    1.305431000.000001000.000001000.000001000.00000
     Eigenvalues --- 1000.000001000.000001000.000001000.000001000.00000
     Eigenvalues --- 1000.000001000.00000
 En-DIIS/RFO-DIIS/Sim-DIIS IScMMF=       -3 using points:     6    5    4    3    2    1
 RFO step:  Lambda=-5.02339936D-05.
 NNeg= 0 NGDIIS= 6 SimSw=  2.50D-03 Rises=F DC= -2.76D-07 SmlDif=  1.00D-05
 NRisDI= 0 DoIntr=F SqrtH=F CThrHd= 10.0 CDAdj=  3.0
 RMS Error=  0.6696365572D-03 NUsed= 6 OKEnD=F EnDIS=F
 InvSVX:  RCond= 4.11D-12 Info=           0 Equed=N FErr=  1.57D-09 BErr=  8.15D-17
 DIIS inversion failure, remove point   6.
 InvSVX:  RCond= 7.06D-12 Info=           0 Equed=N FErr=  9.74D-10 BErr=  7.49D-17
 DIIS inversion failure, remove point   5.
 InvSVX:  RCond= 6.09D-07 Info=           0 Equed=N FErr=  1.74D-14 BErr=  9.36D-17
 RFO-DIIS uses    4 points instead of    6
 DidBck=T Rises=F RFO-DIIS coefs:    0.58660    0.49296   -0.06447   -0.01509    0.00000
                  RFO-DIIS coefs:    0.00000
 Iteration  1 RMS(Cart)=  0.00078657 RMS(Int)=  0.00000130
 Iteration  2 RMS(Cart)=  0.00000144 RMS(Int)=  0.00000004
 Iteration  3 RMS(Cart)=  0.00000000 RMS(Int)=  0.00000004
 Iteration  1 RMS(Cart)=  0.00000000 RMS(Int)=  0.00000000
 ITry= 1 IFail=0 DXMaxC= 3.39D-03 DCOld= 1.00D+10 DXMaxT= 7.50D-02 DXLimC= 3.00D+00 Rises=F
 Variable       Old X    -DE/DX   Delta X   Delta X   Delta X     New X
                                 (Linear)    (Quad)   (Total)
    R1        2.18427   0.00001  -0.00000   0.00001   0.00001   2.18427
    R2        2.76300  -0.00004  -0.00002  -0.00004  -0.00006   2.76294
    R3        2.93005   0.00001  -0.00012   0.00025   0.00014   2.93019
    R4        2.06753   0.00001   0.00003  -0.00003  -0.00000   2.06752
    R5        2.06753   0.00000   0.00003  -0.00004  -0.00001   2.06752
    R6        2.74756   0.00003   0.00007  -0.00002   0.00005   2.74761
    R7        2.07191  -0.00002  -0.00002  -0.00001  -0.00004   2.07187
    R8        2.07191  -0.00002  -0.00002  -0.00002  -0.00004   2.07187
    R9        2.19097  -0.00015   0.00009  -0.00031  -0.00022   2.19076
   R10        2.64562   0.22319   0.00000   0.00000  -0.00000   2.64562
    A1        1.90272  -0.00001   0.00002  -0.00006  -0.00004   1.90268
    A2        1.90592   0.00000  -0.00008   0.00012   0.00004   1.90597
    A3        1.90599  -0.00003  -0.00011  -0.00001  -0.00012   1.90587
    A4        1.93081   0.00002   0.00012  -0.00006   0.00006   1.93087
    A5        1.93081   0.00003   0.00012  -0.00005   0.00007   1.93088
    A6        1.88728  -0.00002  -0.00008   0.00007  -0.00001   1.88728
    A7        1.95551  -0.00003  -0.00023   0.00032   0.00009   1.95560
    A8        1.93572   0.00002   0.00024  -0.00030  -0.00007   1.93566
    A9        1.93572   0.00002   0.00024  -0.00032  -0.00008   1.93564
   A10        1.87838  -0.00000  -0.00018   0.00023   0.00005   1.87843
   A11        1.87848  -0.00001  -0.00025   0.00030   0.00005   1.87853
   A12        1.87679  -0.00000   0.00018  -0.00021  -0.00004   1.87675
   A13        3.11305  -0.00002   0.00012  -0.00034  -0.00022   3.11283
   A14        3.13574   0.00002   0.00046  -0.00123  -0.00077   3.13497
   A15        3.18185   0.00005  -0.00070   0.00174   0.00104   3.18289
   A16        3.12464   0.00009   0.00092   0.00271   0.00364   3.12828
   A17        3.13851  -0.00002  -0.00003  -0.00023  -0.00026   3.13825
   A18        3.11254  -0.00003   0.00024  -0.00073  -0.00048   3.11205
    D1       -3.14145  -0.00001  -0.00009  -0.00009  -0.00018   3.14155
    D2       -1.04203  -0.00002  -0.00031   0.00021  -0.00010  -1.04214
    D3        1.04219   0.00000   0.00022  -0.00047  -0.00025   1.04194
    D4       -1.04538  -0.00000  -0.00009  -0.00002  -0.00011  -1.04549
    D5        1.05404  -0.00001  -0.00032   0.00028  -0.00004   1.05400
    D6        3.13826   0.00001   0.00021  -0.00040  -0.00018   3.13808
    D7        1.04558   0.00000  -0.00004  -0.00001  -0.00004   1.04553
    D8       -3.13819  -0.00000  -0.00026   0.00029   0.00003  -3.13816
    D9       -1.05397   0.00002   0.00027  -0.00038  -0.00011  -1.05408
         Item               Value     Threshold  Converged?
 Maximum Force            0.000150     0.000450     YES
 RMS     Force            0.000034     0.000300     YES
 Maximum Displacement     0.003393     0.001800     NO 
 RMS     Displacement     0.000787     0.001200     YES
 Predicted change in Energy=-2.104068D-07
 Lowest energy point so far.  Saving SCF results.
 GradGradGradGradGradGradGradGradGradGradGradGradGradGradGradGradGradGrad

 Leave Link  103 at Thu Aug  7 18:43:53 2025, MaxMem=   104857600 cpu:               0.0 elap:               0.0
 (Enter /Applications/g16/l202.exe)
                          Input orientation:                          
 ---------------------------------------------------------------------
 Center     Atomic      Atomic             Coordinates (Angstroms)
 Number     Number       Type             X           Y           Z
 ---------------------------------------------------------------------
      1          7           0        3.259256   -0.182885   -0.000698
      2          6           0        2.167455    0.196582    0.000655
      3          6           0        0.772326    0.633964    0.000075
      4          6           0       -0.148307   -0.613736   -0.000005
      5          6           0       -1.556762   -0.252774   -0.000523
      6          7           0       -2.677689    0.043024   -0.000613
      7          1           0        0.035415   -1.235419   -0.884212
      8          1           0        0.034936   -1.235166    0.884478
      9          1           0        0.588317    1.248864   -0.885961
     10          1           0        0.587784    1.249158    0.885794
     11          3           0       -4.045998    0.339214    0.001048
 ---------------------------------------------------------------------
                    Distance matrix (angstroms):
                    1          2          3          4          5
     1  N    0.000000
     2  C    1.155866   0.000000
     3  C    2.617645   1.462084   0.000000
     4  C    3.434693   2.453440   1.550587   0.000000
     5  C    4.816525   3.751228   2.492179   1.453974   0.000000
     6  N    5.941241   4.847577   3.500259   2.613256   1.159299
     7  H    3.504508   2.716471   2.195358   1.096388   2.069185
     8  H    3.505292   2.716373   2.195350   1.096387   2.069257
     9  H    3.157136   2.094531   1.094085   2.190163   2.764106
    10  H    3.158065   2.094456   1.094082   2.190170   2.764134
    11  Li   7.323887   6.215090   4.827330   4.012494   2.558661
                    6          7          8          9         10
     6  N    0.000000
     7  H    3.126675   0.000000
     8  H    3.126578   1.768691   0.000000
     9  H    3.592310   2.545068   3.100176   0.000000
    10  H    3.592185   3.100187   2.545095   1.771755   0.000000
    11  Li   1.400000   4.463304   4.462414   4.805323   4.804447
                   11
    11  Li   0.000000
 Stoichiometry    C4H4LiN2(1+)
 Framework group  C1[X(C4H4LiN2)]
 Deg. of freedom    27
 Full point group                 C1      NOp   1
 RotChk:  IX=0 Diff= 5.71D-04
 Largest Abelian subgroup         C1      NOp   1
 Largest concise Abelian subgroup C1      NOp   1
                         Standard orientation:                         
 ---------------------------------------------------------------------
 Center     Atomic      Atomic             Coordinates (Angstroms)
 Number     Number       Type             X           Y           Z
 ---------------------------------------------------------------------
      1          7           0        3.245585   -0.190274   -0.000452
      2          6           0        2.155043    0.192796    0.000724
      3          6           0        0.761366    0.634781   -0.000060
      4          6           0       -0.163381   -0.609873    0.000342
      5          6           0       -1.570637   -0.244263   -0.000351
      6          7           0       -2.690581    0.055235   -0.000584
      7          1           0        0.018304   -1.232515   -0.883611
      8          1           0        0.017792   -1.231548    0.885080
      9          1           0        0.579406    1.249929   -0.886348
     10          1           0        0.578839    1.250938    0.885406
     11          3           0       -4.057905    0.355941    0.000929
 ---------------------------------------------------------------------
 Rotational constants (GHZ):          23.7835283           1.0973458           1.0628832
 Leave Link  202 at Thu Aug  7 18:43:53 2025, MaxMem=   104857600 cpu:               0.0 elap:               0.0
 (Enter /Applications/g16/l301.exe)
 Standard basis: 6-31G(d) (6D, 7F)
 Ernie: Thresh=  0.10000D-02 Tol=  0.10000D-05 Strict=F.
 There are   113 symmetry adapted cartesian basis functions of A   symmetry.
 There are   113 symmetry adapted basis functions of A   symmetry.
   113 basis functions,   212 primitive gaussians,   113 cartesian basis functions
    22 alpha electrons       22 beta electrons
       nuclear repulsion energy       199.4846174530 Hartrees.
 IExCor= 4639 DFT=T Ex+Corr=wB97XD ExCW=0 ScaHFX=  1.000000
 ScaDFX=  1.000000  1.000000  1.000000  1.000000 ScalE2=  1.000000  1.000000
 IRadAn=      5 IRanWt=     -1 IRanGd=            0 ICorTp=0 IEmpDi=121
 HFx  wShort=  0.000000 wLong=  0.200000 cFull=  0.222036 cShort=  0.000000 cLong=  0.777964
 DFx  wShort=  0.000000 wLong=  0.200000 cFull=  0.000000 cShort=  0.000000 cLong=  1.000000
 NAtoms=   11 NActive=   11 NUniq=   11 SFac= 1.00D+00 NAtFMM=   60 NAOKFM=F Big=F
 Integral buffers will be    131072 words long.
 Raffenetti 2 integral format.
 Two-electron integral symmetry is turned on.
 R6Disp:  Grimme-D2 Dispersion energy=       -0.0048530795 Hartrees.
 Nuclear repulsion after empirical dispersion term =      199.4797643735 Hartrees.
 Leave Link  301 at Thu Aug  7 18:43:53 2025, MaxMem=   104857600 cpu:               0.0 elap:               0.0
 (Enter /Applications/g16/l302.exe)
 NPDir=0 NMtPBC=     1 NCelOv=     1 NCel=       1 NClECP=     1 NCelD=      1
         NCelK=      1 NCelE2=     1 NClLst=     1 CellRange=     0.0.
 One-electron integrals computed using PRISM.
 One-electron integral symmetry used in STVInt
 NBasis=   113 RedAO= T EigKep=  7.90D-04  NBF=   113
 NBsUse=   113 1.00D-06 EigRej= -1.00D+00 NBFU=   113
 Precomputing XC quadrature grid using
 IXCGrd= 4 IRadAn=           5 IRanWt=          -1 IRanGd=           0 AccXCQ= 0.00D+00.
 Generated NRdTot=       0 NPtTot=           0 NUsed=           0 NTot=          32
 NSgBfM=   113   113   113   113   113 MxSgAt=    11 MxSgA2=    11.
 Leave Link  302 at Thu Aug  7 18:43:53 2025, MaxMem=   104857600 cpu:               0.1 elap:               0.1
 (Enter /Applications/g16/l303.exe)
 DipDrv:  MaxL=1.
 Leave Link  303 at Thu Aug  7 18:43:53 2025, MaxMem=   104857600 cpu:               0.0 elap:               0.0
 (Enter /Applications/g16/l401.exe)
 Initial guess from the checkpoint file:  "/Users/srak/g16_scratch/Gau-74194.chk"
 B after Tr=    -0.000000    0.000000   -0.000000
         Rot=    1.000000    0.000091   -0.000022    0.000003 Ang=   0.01 deg.
 Guess basis will be translated and rotated to current coordinates.
 JPrj=2 DoOrth=T DoCkMO=T.
 Leave Link  401 at Thu Aug  7 18:43:53 2025, MaxMem=   104857600 cpu:               0.0 elap:               0.0
 (Enter /Applications/g16/l502.exe)
 Keep R1 ints in memory in canonical form, NReq=43174005.
 FoFCou: FMM=F IPFlag=           0 FMFlag=           0 FMFlg1=           0
         NFxFlg=           0 DoJE=F BraDBF=F KetDBF=F FulRan=T
         wScrn=  0.000000 ICntrl=       600 IOpCl=  0 I1Cent=           0 NGrid=           0
         NMat0=    1 NMatS0=   6441 NMatT0=    0 NMatD0=    1 NMtDS0=    0 NMtDT0=    0
 Symmetry not used in FoFCou.
 Two-electron integral symmetry not used.
 Closed shell SCF:
 Using DIIS extrapolation, IDIIS=  1040.
 NGot=   104857600 LenX=    63336875 LenY=    63323665
 Requested convergence on RMS density matrix=1.00D-08 within 128 cycles.
 Requested convergence on MAX density matrix=1.00D-06.
 Requested convergence on             energy=1.00D-06.
 No special actions if energy rises.

 Cycle   1  Pass 1  IDiag  1:
 E= -271.482085580029    
 DIIS: error= 1.70D-04 at cycle   1 NSaved=   1.
 NSaved= 1 IEnMin= 1 EnMin= -271.482085580029     IErMin= 1 ErrMin= 1.70D-04
 ErrMax= 1.70D-04  0.00D+00 EMaxC= 1.00D-01 BMatC= 2.48D-06 BMatP= 2.48D-06
 IDIUse=3 WtCom= 9.98D-01 WtEn= 1.70D-03
 Coeff-Com:  0.100D+01
 Coeff-En:   0.100D+01
 Coeff:      0.100D+01
 Gap=     1.245 Goal=   None    Shift=    0.000
 RMSDP=1.89D-05 MaxDP=5.72D-04              OVMax= 7.49D-04

 Cycle   2  Pass 1  IDiag  1:
 E= -271.482089509934     Delta-E=       -0.000003929905 Rises=F Damp=F
 DIIS: error= 2.80D-05 at cycle   2 NSaved=   2.
 NSaved= 2 IEnMin= 2 EnMin= -271.482089509934     IErMin= 2 ErrMin= 2.80D-05
 ErrMax= 2.80D-05  0.00D+00 EMaxC= 1.00D-01 BMatC= 1.05D-07 BMatP= 2.48D-06
 IDIUse=1 WtCom= 1.00D+00 WtEn= 0.00D+00
 Coeff-Com: -0.186D+00 0.119D+01
 Coeff:     -0.186D+00 0.119D+01
 Gap=     0.390 Goal=   None    Shift=    0.000
 RMSDP=6.06D-06 MaxDP=1.56D-04 DE=-3.93D-06 OVMax= 2.99D-04

 Cycle   3  Pass 1  IDiag  1:
 E= -271.482089783057     Delta-E=       -0.000000273123 Rises=F Damp=F
 DIIS: error= 9.00D-06 at cycle   3 NSaved=   3.
 NSaved= 3 IEnMin= 3 EnMin= -271.482089783057     IErMin= 3 ErrMin= 9.00D-06
 ErrMax= 9.00D-06  0.00D+00 EMaxC= 1.00D-01 BMatC= 4.82D-09 BMatP= 1.05D-07
 IDIUse=1 WtCom= 1.00D+00 WtEn= 0.00D+00
 Coeff-Com: -0.139D-01-0.642D-02 0.102D+01
 Coeff:     -0.139D-01-0.642D-02 0.102D+01
 Gap=     0.390 Goal=   None    Shift=    0.000
 RMSDP=1.47D-06 MaxDP=2.93D-05 DE=-2.73D-07 OVMax= 8.02D-05

 Cycle   4  Pass 1  IDiag  1:
 E= -271.482089792945     Delta-E=       -0.000000009888 Rises=F Damp=F
 DIIS: error= 6.08D-06 at cycle   4 NSaved=   4.
 NSaved= 4 IEnMin= 4 EnMin= -271.482089792945     IErMin= 4 ErrMin= 6.08D-06
 ErrMax= 6.08D-06  0.00D+00 EMaxC= 1.00D-01 BMatC= 4.25D-09 BMatP= 4.82D-09
 IDIUse=1 WtCom= 1.00D+00 WtEn= 0.00D+00
 Coeff-Com:  0.101D-01-0.117D+00 0.550D+00 0.556D+00
 Coeff:      0.101D-01-0.117D+00 0.550D+00 0.556D+00
 Gap=     0.390 Goal=   None    Shift=    0.000
 RMSDP=6.41D-07 MaxDP=1.53D-05 DE=-9.89D-09 OVMax= 2.51D-05

 Cycle   5  Pass 1  IDiag  1:
 E= -271.482089796711     Delta-E=       -0.000000003766 Rises=F Damp=F
 DIIS: error= 2.07D-06 at cycle   5 NSaved=   5.
 NSaved= 5 IEnMin= 5 EnMin= -271.482089796711     IErMin= 5 ErrMin= 2.07D-06
 ErrMax= 2.07D-06  0.00D+00 EMaxC= 1.00D-01 BMatC= 5.52D-10 BMatP= 4.25D-09
 IDIUse=1 WtCom= 1.00D+00 WtEn= 0.00D+00
 Coeff-Com:  0.993D-02-0.680D-01 0.354D-01 0.282D+00 0.740D+00
 Coeff:      0.993D-02-0.680D-01 0.354D-01 0.282D+00 0.740D+00
 Gap=     0.390 Goal=   None    Shift=    0.000
 RMSDP=2.55D-07 MaxDP=4.95D-06 DE=-3.77D-09 OVMax= 1.16D-05

 Cycle   6  Pass 1  IDiag  1:
 E= -271.482089797310     Delta-E=       -0.000000000599 Rises=F Damp=F
 DIIS: error= 2.46D-07 at cycle   6 NSaved=   6.
 NSaved= 6 IEnMin= 6 EnMin= -271.482089797310     IErMin= 6 ErrMin= 2.46D-07
 ErrMax= 2.46D-07  0.00D+00 EMaxC= 1.00D-01 BMatC= 1.37D-11 BMatP= 5.52D-10
 IDIUse=1 WtCom= 1.00D+00 WtEn= 0.00D+00
 Coeff-Com:  0.185D-02-0.940D-02-0.221D-01 0.311D-01 0.170D+00 0.829D+00
 Coeff:      0.185D-02-0.940D-02-0.221D-01 0.311D-01 0.170D+00 0.829D+00
 Gap=     0.390 Goal=   None    Shift=    0.000
 RMSDP=4.92D-08 MaxDP=8.29D-07 DE=-5.99D-10 OVMax= 2.08D-06

 Cycle   7  Pass 1  IDiag  1:
 E= -271.482089797325     Delta-E=       -0.000000000014 Rises=F Damp=F
 DIIS: error= 1.46D-07 at cycle   7 NSaved=   7.
 NSaved= 7 IEnMin= 7 EnMin= -271.482089797325     IErMin= 7 ErrMin= 1.46D-07
 ErrMax= 1.46D-07  0.00D+00 EMaxC= 1.00D-01 BMatC= 3.78D-12 BMatP= 1.37D-11
 IDIUse=1 WtCom= 1.00D+00 WtEn= 0.00D+00
 Coeff-Com: -0.155D-03 0.247D-02-0.103D-01-0.143D-01-0.611D-02 0.359D+00
 Coeff-Com:  0.670D+00
 Coeff:     -0.155D-03 0.247D-02-0.103D-01-0.143D-01-0.611D-02 0.359D+00
 Coeff:      0.670D+00
 Gap=     0.390 Goal=   None    Shift=    0.000
 RMSDP=1.97D-08 MaxDP=4.74D-07 DE=-1.42D-11 OVMax= 7.05D-07

 Cycle   8  Pass 1  IDiag  1:
 E= -271.482089797327     Delta-E=       -0.000000000002 Rises=F Damp=F
 DIIS: error= 9.67D-08 at cycle   8 NSaved=   8.
 NSaved= 8 IEnMin= 8 EnMin= -271.482089797327     IErMin= 8 ErrMin= 9.67D-08
 ErrMax= 9.67D-08  0.00D+00 EMaxC= 1.00D-01 BMatC= 8.92D-13 BMatP= 3.78D-12
 IDIUse=1 WtCom= 1.00D+00 WtEn= 0.00D+00
 Coeff-Com: -0.298D-03 0.243D-02-0.282D-02-0.118D-01-0.246D-01 0.103D+00
 Coeff-Com:  0.382D+00 0.552D+00
 Coeff:     -0.298D-03 0.243D-02-0.282D-02-0.118D-01-0.246D-01 0.103D+00
 Coeff:      0.382D+00 0.552D+00
 Gap=     0.390 Goal=   None    Shift=    0.000
 RMSDP=7.41D-09 MaxDP=1.75D-07 DE=-2.44D-12 OVMax= 2.30D-07

 SCF Done:  E(RwB97XD) =  -271.482089797     A.U. after    8 cycles
            NFock=  8  Conv=0.74D-08     -V/T= 2.0070
 KE= 2.695880741155D+02 PE=-1.022260880126D+03 EE= 2.817109518398D+02
 Leave Link  502 at Thu Aug  7 18:43:58 2025, MaxMem=   104857600 cpu:               5.2 elap:               5.3
 (Enter /Applications/g16/l701.exe)
 ... and contract with generalized density number  0.
 Compute integral first derivatives.
 R6Disp: Adding Grimme-D2 dispersion energy 1st derivatives to the gradient.
 Leave Link  701 at Thu Aug  7 18:43:58 2025, MaxMem=   104857600 cpu:               0.0 elap:               0.0
 (Enter /Applications/g16/l702.exe)
 L702 exits ... SP integral derivatives will be done elsewhere.
 Leave Link  702 at Thu Aug  7 18:43:58 2025, MaxMem=   104857600 cpu:               0.0 elap:               0.0
 (Enter /Applications/g16/l703.exe)
 Integral derivatives from FoFJK, PRISM(SPDF).
 Compute integral first derivatives, UseDBF=F ICtDFT=           0.
 Calling FoFJK, ICntrl=      2127 FMM=F ISym2X=0 I1Cent= 0 IOpClX= 0 NMat=1 NMatS=1 NMatT=0.
 FoFJK:  IHMeth= 1 ICntrl=    2127 DoSepK=T KAlg= 0 I1Cent=           0 FoldK=F
 IRaf=         1 NMat=       1 IRICut=       1 DoRegI=T DoRafI=F ISym2E= 0 IDoP0=0 IntGTp=1.
 FoFCou: FMM=F IPFlag=           0 FMFlag=      100000 FMFlg1=         800
         NFxFlg=           0 DoJE=F BraDBF=F KetDBF=F FulRan=T
         wScrn=  0.000000 ICntrl=      2527 IOpCl=  0 I1Cent=           0 NGrid=           0
         NMat0=    1 NMatS0=      1 NMatT0=    0 NMatD0=    1 NMtDS0=    0 NMtDT0=    0
 Symmetry not used in FoFCou.
 Leave Link  703 at Thu Aug  7 18:44:01 2025, MaxMem=   104857600 cpu:               2.7 elap:               2.8
 (Enter /Applications/g16/l716.exe)
 Dipole        =-5.94026225D+00 4.70485762D-01 2.29579799D-03
 ***** Axes restored to original set *****
 -------------------------------------------------------------------
 Center     Atomic                   Forces (Hartrees/Bohr)
 Number     Number              X              Y              Z
 -------------------------------------------------------------------
      1        7          -0.000011313   -0.000018591    0.000059511
      2        6           0.000006241    0.000044629   -0.000127550
      3        6          -0.000066921   -0.000043380    0.000065817
      4        6           0.000089046   -0.000071856   -0.000020618
      5        6           0.000142859    0.000047036    0.000031546
      6        7           0.218011395   -0.047191001   -0.000262187
      7        1          -0.000015926    0.000003738    0.000001289
      8        1          -0.000031733    0.000003192   -0.000000773
      9        1           0.000027268    0.000008633   -0.000005432
     10        1          -0.000006542    0.000014326    0.000003910
     11        3          -0.218144374    0.047203274    0.000254487
 -------------------------------------------------------------------
 Cartesian Forces:  Max     0.218144374 RMS     0.054930061
 Leave Link  716 at Thu Aug  7 18:44:01 2025, MaxMem=   104857600 cpu:               0.0 elap:               0.0
 (Enter /Applications/g16/l103.exe)

 GradGradGradGradGradGradGradGradGradGradGradGradGradGradGradGradGradGrad
 Berny optimization.
 Using GEDIIS/GDIIS optimizer.
 FormGI is forming the generalized inverse of G from B-inverse, IUseBI=4.
 Internal  Forces:  Max     0.223193098 RMS     0.036692739
 Search for a local minimum.
 Step number   7 out of a maximum of   47
 All quantities printed in internal units (Hartrees-Bohrs-Radians)
 RMS Force = .38371D-04 SwitMx=.10000D-02 MixMth= 2
 Mixed Optimization -- En-DIIS/RFO-DIIS
 Swapping is turned off.
 Update second derivatives using D2CorX and points    1    2    3    4    5
                                                      6    7
 DE=  4.50D-08 DEPred=-2.10D-07 R=-2.14D-01
 Trust test=-2.14D-01 RLast= 3.94D-03 DXMaxT set to 5.00D-02
 ITU= -1  0  1 -1 -1  1  0
     Eigenvalues ---    0.00230   0.02484   0.04551   0.04963   0.05313
     Eigenvalues ---    0.05800   0.06094   0.06646   0.07365   0.07426
     Eigenvalues ---    0.10612   0.15878   0.16066   0.16293   0.17316
     Eigenvalues ---    0.22949   0.24756   0.27847   0.33565   0.34137
     Eigenvalues ---    0.34322   0.34353   0.35076   0.36956   1.12006
     Eigenvalues ---    1.305441000.000001000.000001000.000001000.00000
     Eigenvalues --- 1000.000001000.000001000.000001000.000001000.00000
     Eigenvalues --- 1000.000001000.00000
 En-DIIS/RFO-DIIS/Sim-DIIS IScMMF=       -3 using points:     7    6    5    4    3    2    1
 RFO step:  Lambda=-5.01871894D-05.
 NNeg= 0 NGDIIS= 7 SimSw=  2.50D-03 Rises=F DC=  4.50D-08 SmlDif=  1.00D-05
 NRisDI= 0 DoIntr=F SqrtH=F CThrHd= 10.0 CDAdj=  3.0
 RMS Error=  0.3792862448D-03 NUsed= 7 OKEnD=F EnDIS=F
 InvSVX:  RCond= 1.52D-12 Info=           0 Equed=N FErr=  6.02D-09 BErr=  1.07D-16
 DIIS inversion failure, remove point   7.
 InvSVX:  RCond= 1.85D-12 Info=           0 Equed=N FErr=  5.31D-09 BErr=  1.15D-16
 DIIS inversion failure, remove point   6.
 InvSVX:  RCond= 5.17D-07 Info=           0 Equed=N FErr=  6.97D-15 BErr=  9.72D-17
 RFO-DIIS uses    5 points instead of    7
 DidBck=T Rises=F RFO-DIIS coefs:    0.50409    0.58002   -0.18362    0.05986    0.03965
                  RFO-DIIS coefs:    0.00000    0.00000
 Iteration  1 RMS(Cart)=  0.00061369 RMS(Int)=  0.00000045
 Iteration  2 RMS(Cart)=  0.00000052 RMS(Int)=  0.00000002
 Iteration  1 RMS(Cart)=  0.00000000 RMS(Int)=  0.00000000
 ITry= 1 IFail=0 DXMaxC= 1.84D-03 DCOld= 1.00D+10 DXMaxT= 5.00D-02 DXLimC= 3.00D+00 Rises=F
 Variable       Old X    -DE/DX   Delta X   Delta X   Delta X     New X
                                 (Linear)    (Quad)   (Total)
    R1        2.18427  -0.00000  -0.00000   0.00000  -0.00000   2.18427
    R2        2.76294  -0.00001   0.00004  -0.00007  -0.00003   2.76291
    R3        2.93019  -0.00002  -0.00002   0.00000  -0.00002   2.93016
    R4        2.06752   0.00000  -0.00001   0.00002   0.00001   2.06753
    R5        2.06752   0.00001  -0.00000   0.00002   0.00002   2.06753
    R6        2.74761   0.00000  -0.00010   0.00009  -0.00002   2.74760
    R7        2.07187  -0.00001   0.00003  -0.00004  -0.00001   2.07186
    R8        2.07187  -0.00001   0.00004  -0.00005  -0.00001   2.07186
    R9        2.19076   0.00013   0.00012  -0.00007   0.00005   2.19081
   R10        2.64562   0.22319   0.00000   0.00000   0.00000   2.64562
    A1        1.90268   0.00001  -0.00002  -0.00000  -0.00002   1.90267
    A2        1.90597  -0.00003   0.00003  -0.00012  -0.00010   1.90587
    A3        1.90587   0.00000   0.00011  -0.00012  -0.00001   1.90586
    A4        1.93087   0.00003  -0.00008   0.00016   0.00008   1.93095
    A5        1.93088   0.00000  -0.00008   0.00015   0.00006   1.93094
    A6        1.88728  -0.00001   0.00004  -0.00007  -0.00003   1.88725
    A7        1.95560  -0.00006   0.00003  -0.00018  -0.00016   1.95544
    A8        1.93566   0.00002  -0.00004   0.00016   0.00011   1.93577
    A9        1.93564   0.00004  -0.00004   0.00017   0.00013   1.93577
   A10        1.87843   0.00001   0.00005  -0.00009  -0.00005   1.87839
   A11        1.87853  -0.00000   0.00006  -0.00018  -0.00012   1.87841
   A12        1.87675  -0.00001  -0.00005   0.00013   0.00008   1.87683
   A13        3.11283   0.00001   0.00007  -0.00001   0.00006   3.11289
   A14        3.13497   0.00010   0.00044   0.00037   0.00081   3.13578
   A15        3.18289   0.00003  -0.00026   0.00047   0.00021   3.18310
   A16        3.12828  -0.00011  -0.00193  -0.00011  -0.00204   3.12624
   A17        3.13825  -0.00000   0.00016  -0.00022  -0.00007   3.13818
   A18        3.11205  -0.00003   0.00015  -0.00032  -0.00017   3.11189
    D1        3.14155   0.00001   0.00010  -0.00009   0.00001   3.14157
    D2       -1.04214  -0.00000   0.00015  -0.00022  -0.00008  -1.04221
    D3        1.04194   0.00003   0.00004   0.00015   0.00019   1.04213
    D4       -1.04549  -0.00001   0.00007  -0.00014  -0.00007  -1.04556
    D5        1.05400  -0.00002   0.00012  -0.00028  -0.00016   1.05384
    D6        3.13808   0.00001   0.00001   0.00009   0.00010   3.13818
    D7        1.04553  -0.00001   0.00002  -0.00003  -0.00001   1.04552
    D8       -3.13816  -0.00002   0.00007  -0.00017  -0.00010  -3.13825
    D9       -1.05408   0.00001  -0.00004   0.00021   0.00017  -1.05391
         Item               Value     Threshold  Converged?
 Maximum Force            0.000131     0.000450     YES
 RMS     Force            0.000038     0.000300     YES
 Maximum Displacement     0.001841     0.001800     NO 
 RMS     Displacement     0.000614     0.001200     YES
 Predicted change in Energy=-1.859887D-07
 GradGradGradGradGradGradGradGradGradGradGradGradGradGradGradGradGradGrad

 Leave Link  103 at Thu Aug  7 18:44:01 2025, MaxMem=   104857600 cpu:               0.0 elap:               0.0
 (Enter /Applications/g16/l202.exe)
                          Input orientation:                          
 ---------------------------------------------------------------------
 Center     Atomic      Atomic             Coordinates (Angstroms)
 Number     Number       Type             X           Y           Z
 ---------------------------------------------------------------------
      1          7           0        3.259060   -0.183624    0.000233
      2          6           0        2.167526    0.196608    0.000080
      3          6           0        0.772450    0.634109   -0.000110
      4          6           0       -0.148265   -0.613517   -0.000090
      5          6           0       -1.556629   -0.252233   -0.000238
      6          7           0       -2.677726    0.043027   -0.000468
      7          1           0        0.035052   -1.235160   -0.884403
      8          1           0        0.034919   -1.235041    0.884331
      9          1           0        0.588387    1.249130   -0.886058
     10          1           0        0.588205    1.249288    0.885691
     11          3           0       -4.046246    0.338240    0.001068
 ---------------------------------------------------------------------
                    Distance matrix (angstroms):
                    1          2          3          4          5
     1  N    0.000000
     2  C    1.155866   0.000000
     3  C    2.617617   1.462068   0.000000
     4  C    3.434337   2.453403   1.550576   0.000000
     5  C    4.816178   3.751105   2.492030   1.453966   0.000000
     6  N    5.941112   4.847685   3.500442   2.613279   1.159326
     7  H    3.504646   2.716563   2.195427   1.096382   2.069140
     8  H    3.504596   2.716529   2.195429   1.096380   2.069154
     9  H    3.157657   2.094450   1.094091   2.190217   2.764030
    10  H    3.157648   2.094443   1.094090   2.190214   2.764010
    11  Li   7.323923   6.215386   4.827771   4.012493   2.558682
                    6          7          8          9         10
     6  N    0.000000
     7  H    3.126382   0.000000
     8  H    3.126463   1.768734   0.000000
     9  H    3.592555   2.545168   3.100276   0.000000
    10  H    3.592583   3.100273   2.545194   1.771749   0.000000
    11  Li   1.400000   4.462806   4.462205   4.805885   4.805279
                   11
    11  Li   0.000000
 Stoichiometry    C4H4LiN2(1+)
 Framework group  C1[X(C4H4LiN2)]
 Deg. of freedom    27
 Full point group                 C1      NOp   1
 RotChk:  IX=2 Diff= 5.73D-04
 Largest Abelian subgroup         C1      NOp   1
 Largest concise Abelian subgroup C1      NOp   1
                         Standard orientation:                         
 ---------------------------------------------------------------------
 Center     Atomic      Atomic             Coordinates (Angstroms)
 Number     Number       Type             X           Y           Z
 ---------------------------------------------------------------------
      1          7           0        3.245396   -0.190853    0.000256
      2          6           0        2.155108    0.192940    0.000103
      3          6           0        0.761468    0.634992   -0.000087
      4          6           0       -0.163315   -0.609622   -0.000067
      5          6           0       -1.570492   -0.243743   -0.000215
      6          7           0       -2.690619    0.055175   -0.000445
      7          1           0        0.017971   -1.231860   -0.884380
      8          1           0        0.017840   -1.231740    0.884354
      9          1           0        0.579413    1.250611   -0.886035
     10          1           0        0.579232    1.250769    0.885714
     11          3           0       -4.058168    0.354854    0.001090
 ---------------------------------------------------------------------
 Rotational constants (GHZ):          23.7891283           1.0973445           1.0628933
 Leave Link  202 at Thu Aug  7 18:44:01 2025, MaxMem=   104857600 cpu:               0.0 elap:               0.0
 (Enter /Applications/g16/l301.exe)
 Standard basis: 6-31G(d) (6D, 7F)
 Ernie: Thresh=  0.10000D-02 Tol=  0.10000D-05 Strict=F.
 There are   113 symmetry adapted cartesian basis functions of A   symmetry.
 There are   113 symmetry adapted basis functions of A   symmetry.
   113 basis functions,   212 primitive gaussians,   113 cartesian basis functions
    22 alpha electrons       22 beta electrons
       nuclear repulsion energy       199.4856214991 Hartrees.
 IExCor= 4639 DFT=T Ex+Corr=wB97XD ExCW=0 ScaHFX=  1.000000
 ScaDFX=  1.000000  1.000000  1.000000  1.000000 ScalE2=  1.000000  1.000000
 IRadAn=      5 IRanWt=     -1 IRanGd=            0 ICorTp=0 IEmpDi=121
 HFx  wShort=  0.000000 wLong=  0.200000 cFull=  0.222036 cShort=  0.000000 cLong=  0.777964
 DFx  wShort=  0.000000 wLong=  0.200000 cFull=  0.000000 cShort=  0.000000 cLong=  1.000000
 NAtoms=   11 NActive=   11 NUniq=   11 SFac= 1.00D+00 NAtFMM=   60 NAOKFM=F Big=F
 Integral buffers will be    131072 words long.
 Raffenetti 2 integral format.
 Two-electron integral symmetry is turned on.
 R6Disp:  Grimme-D2 Dispersion energy=       -0.0048530863 Hartrees.
 Nuclear repulsion after empirical dispersion term =      199.4807684128 Hartrees.
 Leave Link  301 at Thu Aug  7 18:44:01 2025, MaxMem=   104857600 cpu:               0.0 elap:               0.0
 (Enter /Applications/g16/l302.exe)
 NPDir=0 NMtPBC=     1 NCelOv=     1 NCel=       1 NClECP=     1 NCelD=      1
         NCelK=      1 NCelE2=     1 NClLst=     1 CellRange=     0.0.
 One-electron integrals computed using PRISM.
 One-electron integral symmetry used in STVInt
 NBasis=   113 RedAO= T EigKep=  7.90D-04  NBF=   113
 NBsUse=   113 1.00D-06 EigRej= -1.00D+00 NBFU=   113
 Precomputing XC quadrature grid using
 IXCGrd= 4 IRadAn=           5 IRanWt=          -1 IRanGd=           0 AccXCQ= 0.00D+00.
 Generated NRdTot=       0 NPtTot=           0 NUsed=           0 NTot=          32
 NSgBfM=   113   113   113   113   113 MxSgAt=    11 MxSgA2=    11.
 Leave Link  302 at Thu Aug  7 18:44:01 2025, MaxMem=   104857600 cpu:               0.1 elap:               0.1
 (Enter /Applications/g16/l303.exe)
 DipDrv:  MaxL=1.
 Leave Link  303 at Thu Aug  7 18:44:01 2025, MaxMem=   104857600 cpu:               0.0 elap:               0.0
 (Enter /Applications/g16/l401.exe)
 Initial guess from the checkpoint file:  "/Users/srak/g16_scratch/Gau-74194.chk"
 B after Tr=    -0.000000   -0.000000    0.000000
         Rot=    1.000000   -0.000128    0.000005    0.000004 Ang=  -0.01 deg.
 Guess basis will be translated and rotated to current coordinates.
 JPrj=2 DoOrth=T DoCkMO=T.
 Leave Link  401 at Thu Aug  7 18:44:01 2025, MaxMem=   104857600 cpu:               0.0 elap:               0.0
 (Enter /Applications/g16/l502.exe)
 Keep R1 ints in memory in canonical form, NReq=43174005.
 FoFCou: FMM=F IPFlag=           0 FMFlag=           0 FMFlg1=           0
         NFxFlg=           0 DoJE=F BraDBF=F KetDBF=F FulRan=T
         wScrn=  0.000000 ICntrl=       600 IOpCl=  0 I1Cent=           0 NGrid=           0
         NMat0=    1 NMatS0=   6441 NMatT0=    0 NMatD0=    1 NMtDS0=    0 NMtDT0=    0
 Symmetry not used in FoFCou.
 Two-electron integral symmetry not used.
 Closed shell SCF:
 Using DIIS extrapolation, IDIIS=  1040.
 NGot=   104857600 LenX=    63336875 LenY=    63323665
 Requested convergence on RMS density matrix=1.00D-08 within 128 cycles.
 Requested convergence on MAX density matrix=1.00D-06.
 Requested convergence on             energy=1.00D-06.
 No special actions if energy rises.

 Cycle   1  Pass 1  IDiag  1:
 E= -271.482088471068    
 DIIS: error= 9.23D-05 at cycle   1 NSaved=   1.
 NSaved= 1 IEnMin= 1 EnMin= -271.482088471068     IErMin= 1 ErrMin= 9.23D-05
 ErrMax= 9.23D-05  0.00D+00 EMaxC= 1.00D-01 BMatC= 8.94D-07 BMatP= 8.94D-07
 IDIUse=1 WtCom= 1.00D+00 WtEn= 0.00D+00
 Coeff-Com:  0.100D+01
 Coeff:      0.100D+01
 Gap=     1.245 Goal=   None    Shift=    0.000
 RMSDP=1.22D-05 MaxDP=3.08D-04              OVMax= 4.28D-04

 Cycle   2  Pass 1  IDiag  1:
 E= -271.482089895975     Delta-E=       -0.000001424908 Rises=F Damp=F
 DIIS: error= 1.47D-05 at cycle   2 NSaved=   2.
 NSaved= 2 IEnMin= 2 EnMin= -271.482089895975     IErMin= 2 ErrMin= 1.47D-05
 ErrMax= 1.47D-05  0.00D+00 EMaxC= 1.00D-01 BMatC= 3.83D-08 BMatP= 8.94D-07
 IDIUse=1 WtCom= 1.00D+00 WtEn= 0.00D+00
 Coeff-Com: -0.178D+00 0.118D+01
 Coeff:     -0.178D+00 0.118D+01
 Gap=     0.390 Goal=   None    Shift=    0.000
 RMSDP=3.69D-06 MaxDP=8.35D-05 DE=-1.42D-06 OVMax= 1.70D-04

 Cycle   3  Pass 1  IDiag  1:
 E= -271.482089992345     Delta-E=       -0.000000096370 Rises=F Damp=F
 DIIS: error= 4.93D-06 at cycle   3 NSaved=   3.
 NSaved= 3 IEnMin= 3 EnMin= -271.482089992345     IErMin= 3 ErrMin= 4.93D-06
 ErrMax= 4.93D-06  0.00D+00 EMaxC= 1.00D-01 BMatC= 1.51D-09 BMatP= 3.83D-08
 IDIUse=1 WtCom= 1.00D+00 WtEn= 0.00D+00
 Coeff-Com: -0.187D-01 0.120D-01 0.101D+01
 Coeff:     -0.187D-01 0.120D-01 0.101D+01
 Gap=     0.390 Goal=   None    Shift=    0.000
 RMSDP=8.03D-07 MaxDP=1.64D-05 DE=-9.64D-08 OVMax= 4.57D-05

 Cycle   4  Pass 1  IDiag  1:
 E= -271.482089996531     Delta-E=       -0.000000004186 Rises=F Damp=F
 DIIS: error= 1.48D-06 at cycle   4 NSaved=   4.
 NSaved= 4 IEnMin= 4 EnMin= -271.482089996531     IErMin= 4 ErrMin= 1.48D-06
 ErrMax= 1.48D-06  0.00D+00 EMaxC= 1.00D-01 BMatC= 4.07D-10 BMatP= 1.51D-09
 IDIUse=1 WtCom= 1.00D+00 WtEn= 0.00D+00
 Coeff-Com:  0.910D-02-0.896D-01 0.251D+00 0.830D+00
 Coeff:      0.910D-02-0.896D-01 0.251D+00 0.830D+00
 Gap=     0.390 Goal=   None    Shift=    0.000
 RMSDP=3.01D-07 MaxDP=4.34D-06 DE=-4.19D-09 OVMax= 1.33D-05

 Cycle   5  Pass 1  IDiag  1:
 E= -271.482089996920     Delta-E=       -0.000000000388 Rises=F Damp=F
 DIIS: error= 1.25D-06 at cycle   5 NSaved=   5.
 NSaved= 5 IEnMin= 5 EnMin= -271.482089996920     IErMin= 5 ErrMin= 1.25D-06
 ErrMax= 1.25D-06  0.00D+00 EMaxC= 1.00D-01 BMatC= 2.75D-10 BMatP= 4.07D-10
 IDIUse=1 WtCom= 1.00D+00 WtEn= 0.00D+00
 Coeff-Com:  0.961D-02-0.631D-01-0.135D-01 0.531D+00 0.536D+00
 Coeff:      0.961D-02-0.631D-01-0.135D-01 0.531D+00 0.536D+00
 Gap=     0.390 Goal=   None    Shift=    0.000
 RMSDP=1.33D-07 MaxDP=2.68D-06 DE=-3.88D-10 OVMax= 4.74D-06

 Cycle   6  Pass 1  IDiag  1:
 E= -271.482089997170     Delta-E=       -0.000000000250 Rises=F Damp=F
 DIIS: error= 1.28D-07 at cycle   6 NSaved=   6.
 NSaved= 6 IEnMin= 6 EnMin= -271.482089997170     IErMin= 6 ErrMin= 1.28D-07
 ErrMax= 1.28D-07  0.00D+00 EMaxC= 1.00D-01 BMatC= 2.71D-12 BMatP= 2.75D-10
 IDIUse=1 WtCom= 1.00D+00 WtEn= 0.00D+00
 Coeff-Com:  0.567D-03-0.109D-02-0.175D-01-0.414D-02 0.624D-01 0.960D+00
 Coeff:      0.567D-03-0.109D-02-0.175D-01-0.414D-02 0.624D-01 0.960D+00
 Gap=     0.390 Goal=   None    Shift=    0.000
 RMSDP=2.68D-08 MaxDP=4.15D-07 DE=-2.50D-10 OVMax= 1.29D-06

 Cycle   7  Pass 1  IDiag  1:
 E= -271.482089997178     Delta-E=       -0.000000000008 Rises=F Damp=F
 DIIS: error= 6.25D-08 at cycle   7 NSaved=   7.
 NSaved= 7 IEnMin= 7 EnMin= -271.482089997178     IErMin= 7 ErrMin= 6.25D-08
 ErrMax= 6.25D-08  0.00D+00 EMaxC= 1.00D-01 BMatC= 8.91D-13 BMatP= 2.71D-12
 IDIUse=1 WtCom= 1.00D+00 WtEn= 0.00D+00
 Coeff-Com: -0.420D-03 0.394D-02-0.595D-02-0.412D-01-0.112D-01 0.433D+00
 Coeff-Com:  0.622D+00
 Coeff:     -0.420D-03 0.394D-02-0.595D-02-0.412D-01-0.112D-01 0.433D+00
 Coeff:      0.622D+00
 Gap=     0.390 Goal=   None    Shift=    0.000
 RMSDP=9.50D-09 MaxDP=1.92D-07 DE=-7.96D-12 OVMax= 2.78D-07

 SCF Done:  E(RwB97XD) =  -271.482089997     A.U. after    7 cycles
            NFock=  7  Conv=0.95D-08     -V/T= 2.0070
 KE= 2.695880329107D+02 PE=-1.022262910799D+03 EE= 2.817120194786D+02
 Leave Link  502 at Thu Aug  7 18:44:06 2025, MaxMem=   104857600 cpu:               4.7 elap:               4.8
 (Enter /Applications/g16/l701.exe)
 ... and contract with generalized density number  0.
 Compute integral first derivatives.
 R6Disp: Adding Grimme-D2 dispersion energy 1st derivatives to the gradient.
 Leave Link  701 at Thu Aug  7 18:44:06 2025, MaxMem=   104857600 cpu:               0.0 elap:               0.0
 (Enter /Applications/g16/l702.exe)
 L702 exits ... SP integral derivatives will be done elsewhere.
 Leave Link  702 at Thu Aug  7 18:44:06 2025, MaxMem=   104857600 cpu:               0.0 elap:               0.0
 (Enter /Applications/g16/l703.exe)
 Integral derivatives from FoFJK, PRISM(SPDF).
 Compute integral first derivatives, UseDBF=F ICtDFT=           0.
 Calling FoFJK, ICntrl=      2127 FMM=F ISym2X=0 I1Cent= 0 IOpClX= 0 NMat=1 NMatS=1 NMatT=0.
 FoFJK:  IHMeth= 1 ICntrl=    2127 DoSepK=T KAlg= 0 I1Cent=           0 FoldK=F
 IRaf=         1 NMat=       1 IRICut=       1 DoRegI=T DoRafI=F ISym2E= 0 IDoP0=0 IntGTp=1.
 FoFCou: FMM=F IPFlag=           0 FMFlag=      100000 FMFlg1=         800
         NFxFlg=           0 DoJE=F BraDBF=F KetDBF=F FulRan=T
         wScrn=  0.000000 ICntrl=      2527 IOpCl=  0 I1Cent=           0 NGrid=           0
         NMat0=    1 NMatS0=      1 NMatT0=    0 NMatD0=    1 NMtDS0=    0 NMtDT0=    0
 Symmetry not used in FoFCou.
 Leave Link  703 at Thu Aug  7 18:44:09 2025, MaxMem=   104857600 cpu:               2.8 elap:               2.9
 (Enter /Applications/g16/l716.exe)
 Dipole        =-5.94048319D+00 4.69576075D-01 1.85594850D-03
 ***** Axes restored to original set *****
 -------------------------------------------------------------------
 Center     Atomic                   Forces (Hartrees/Bohr)
 Number     Number              X              Y              Z
 -------------------------------------------------------------------
      1        7          -0.000000949   -0.000000456    0.000000162
      2        6           0.000006909    0.000001200   -0.000000546
      3        6          -0.000034242   -0.000025400    0.000000877
      4        6           0.000070672   -0.000014858    0.000001075
      5        6           0.000039226   -0.000008378   -0.000014505
      6        7           0.218116252   -0.047023130   -0.000222942
      7        1          -0.000012420    0.000004901   -0.000000847
      8        1          -0.000010124    0.000004337    0.000001467
      9        1          -0.000000046    0.000005005   -0.000002108
     10        1           0.000000241    0.000005851    0.000002006
     11        3          -0.218175520    0.047050929    0.000235360
 -------------------------------------------------------------------
 Cartesian Forces:  Max     0.218175520 RMS     0.054938074
 Leave Link  716 at Thu Aug  7 18:44:09 2025, MaxMem=   104857600 cpu:               0.0 elap:               0.0
 (Enter /Applications/g16/l103.exe)

 GradGradGradGradGradGradGradGradGradGradGradGradGradGradGradGradGradGrad
 Berny optimization.
 Using GEDIIS/GDIIS optimizer.
 FormGI is forming the generalized inverse of G from B-inverse, IUseBI=4.
 Internal  Forces:  Max     0.223191352 RMS     0.036692435
 Search for a local minimum.
 Step number   8 out of a maximum of   47
 All quantities printed in internal units (Hartrees-Bohrs-Radians)
 RMS Force = .14638D-04 SwitMx=.10000D-02 MixMth= 2
 Mixed Optimization -- En-DIIS/RFO-DIIS
 Swapping is turned off.
 Update second derivatives using D2CorX and points    1    2    3    4    5
                                                      6    7    8
 DE= -2.00D-07 DEPred=-1.86D-07 R= 1.07D+00
 Trust test= 1.07D+00 RLast= 2.27D-03 DXMaxT set to 5.00D-02
 ITU=  0 -1  0  1 -1 -1  1  0
     Eigenvalues ---    0.00230   0.02363   0.04690   0.05007   0.05316
     Eigenvalues ---    0.05666   0.05921   0.06272   0.07338   0.07485
     Eigenvalues ---    0.10786   0.15969   0.16122   0.16367   0.16485
     Eigenvalues ---    0.22330   0.24290   0.27664   0.33660   0.34140
     Eigenvalues ---    0.34308   0.34353   0.35273   0.37228   1.30544
     Eigenvalues ---    1.321921000.000001000.000001000.000001000.00000
     Eigenvalues --- 1000.000001000.000001000.000001000.000001000.00000
     Eigenvalues --- 1000.000001000.00000
 En-DIIS/RFO-DIIS/Sim-DIIS IScMMF=       -3 using points:     8    7    6    5    4    3    2    1
 RFO step:  Lambda=-4.98573329D-05.
 NNeg= 0 NGDIIS= 8 SimSw=  2.50D-03 Rises=F DC= -2.00D-07 SmlDif=  1.00D-05
 NRisDI= 0 DoIntr=F SqrtH=F CThrHd= 10.0 CDAdj=  3.0
 RMS Error=  0.1694676489D-03 NUsed= 8 OKEnD=F EnDIS=F
 InvSVX:  RCond= 1.40D-12 Info=           0 Equed=N FErr=  4.31D-09 BErr=  8.42D-17
 DIIS inversion failure, remove point   8.
 InvSVX:  RCond= 1.67D-12 Info=           0 Equed=N FErr=  3.78D-09 BErr=  8.31D-17
 DIIS inversion failure, remove point   7.
 InvSVX:  RCond= 5.24D-08 Info=           0 Equed=N FErr=  1.24D-14 BErr=  6.65D-17
 DIIS inversion failure, remove point   6.
 InvSVX:  RCond= 7.62D-08 Info=           0 Equed=N FErr=  8.94D-15 BErr=  4.66D-17
 DIIS inversion failure, remove point   5.
 InvSVX:  RCond= 1.13D-07 Info=           0 Equed=N FErr=  6.65D-15 BErr=  1.69D-17
 RFO-DIIS uses    4 points instead of    8
 DidBck=F Rises=F RFO-DIIS coefs:    1.72683   -0.28882   -0.33838   -0.09963    0.00000
                  RFO-DIIS coefs:    0.00000    0.00000    0.00000
 Iteration  1 RMS(Cart)=  0.00028107 RMS(Int)=  0.00000018
 Iteration  2 RMS(Cart)=  0.00000021 RMS(Int)=  0.00000001
 Iteration  1 RMS(Cart)=  0.00000000 RMS(Int)=  0.00000000
 ITry= 1 IFail=0 DXMaxC= 1.21D-03 DCOld= 1.00D+10 DXMaxT= 5.00D-02 DXLimC= 3.00D+00 Rises=F
 Variable       Old X    -DE/DX   Delta X   Delta X   Delta X     New X
                                 (Linear)    (Quad)   (Total)
    R1        2.18427  -0.00000   0.00000  -0.00000   0.00000   2.18427
    R2        2.76291   0.00001  -0.00005   0.00006   0.00001   2.76292
    R3        2.93016  -0.00003   0.00006  -0.00016  -0.00009   2.93007
    R4        2.06753   0.00000   0.00000   0.00001   0.00001   2.06754
    R5        2.06753   0.00000   0.00000   0.00001   0.00002   2.06755
    R6        2.74760   0.00002   0.00002   0.00006   0.00008   2.74767
    R7        2.07186  -0.00000  -0.00002   0.00000  -0.00002   2.07184
    R8        2.07186  -0.00000  -0.00003   0.00001  -0.00002   2.07184
    R9        2.19081   0.00006  -0.00009   0.00012   0.00003   2.19084
   R10        2.64562   0.22319   0.00000   0.00000  -0.00000   2.64562
    A1        1.90267   0.00000  -0.00003   0.00004   0.00002   1.90268
    A2        1.90587  -0.00000  -0.00004   0.00004  -0.00000   1.90587
    A3        1.90586  -0.00000  -0.00004   0.00004   0.00000   1.90586
    A4        1.93095   0.00000   0.00006  -0.00006   0.00001   1.93096
    A5        1.93094   0.00000   0.00006  -0.00003   0.00002   1.93097
    A6        1.88725  -0.00000  -0.00001  -0.00003  -0.00004   1.88721
    A7        1.95544  -0.00002  -0.00003  -0.00013  -0.00016   1.95529
    A8        1.93577   0.00001   0.00000   0.00007   0.00007   1.93584
    A9        1.93577   0.00001   0.00001   0.00005   0.00006   1.93584
   A10        1.87839   0.00000   0.00002  -0.00009  -0.00007   1.87832
   A11        1.87841   0.00000  -0.00002   0.00000  -0.00002   1.87839
   A12        1.87683   0.00000   0.00001   0.00011   0.00012   1.87695
   A13        3.11289  -0.00000  -0.00002   0.00000  -0.00001   3.11288
   A14        3.13578   0.00001   0.00010  -0.00008   0.00002   3.13579
   A15        3.18310   0.00002   0.00074   0.00013   0.00087   3.18397
   A16        3.12624  -0.00000  -0.00012   0.00005  -0.00007   3.12616
   A17        3.13818   0.00001  -0.00016   0.00027   0.00011   3.13829
   A18        3.11189  -0.00002  -0.00038  -0.00026  -0.00064   3.11125
    D1        3.14157   0.00000  -0.00005   0.00011   0.00006  -3.14156
    D2       -1.04221  -0.00001  -0.00004  -0.00005  -0.00009  -1.04230
    D3        1.04213   0.00001  -0.00001   0.00016   0.00015   1.04227
    D4       -1.04556   0.00000  -0.00008   0.00015   0.00007  -1.04549
    D5        1.05384  -0.00001  -0.00007  -0.00001  -0.00008   1.05377
    D6        3.13818   0.00001  -0.00004   0.00020   0.00016   3.13834
    D7        1.04552  -0.00000  -0.00002   0.00005   0.00004   1.04556
    D8       -3.13825  -0.00001  -0.00000  -0.00011  -0.00011  -3.13836
    D9       -1.05391   0.00001   0.00002   0.00010   0.00012  -1.05379
         Item               Value     Threshold  Converged?
 Maximum Force            0.000064     0.000450     YES
 RMS     Force            0.000015     0.000300     YES
 Maximum Displacement     0.001213     0.001800     YES
 RMS     Displacement     0.000281     0.001200     YES
 Predicted change in Energy=-2.070015D-08
 Optimization completed.
    -- Stationary point found.
                           ----------------------------
                           !   Optimized Parameters   !
                           ! (Angstroms and Degrees)  !
 --------------------------                            --------------------------
 ! Name  Definition              Value          Derivative Info.                !
 --------------------------------------------------------------------------------
 ! R1    R(1,2)                  1.1559         -DE/DX =    0.0                 !
 ! R2    R(2,3)                  1.4621         -DE/DX =    0.0                 !
 ! R3    R(3,4)                  1.5506         -DE/DX =    0.0                 !
 ! R4    R(3,9)                  1.0941         -DE/DX =    0.0                 !
 ! R5    R(3,10)                 1.0941         -DE/DX =    0.0                 !
 ! R6    R(4,5)                  1.454          -DE/DX =    0.0                 !
 ! R7    R(4,7)                  1.0964         -DE/DX =    0.0                 !
 ! R8    R(4,8)                  1.0964         -DE/DX =    0.0                 !
 ! R9    R(5,6)                  1.1593         -DE/DX =    0.0001              !
 ! R10   R(6,11)                 1.4            -DE/DX =    0.2232              !
 ! A1    A(2,3,4)              109.0147         -DE/DX =    0.0                 !
 ! A2    A(2,3,9)              109.1984         -DE/DX =    0.0                 !
 ! A3    A(2,3,10)             109.1978         -DE/DX =    0.0                 !
 ! A4    A(4,3,9)              110.6352         -DE/DX =    0.0                 !
 ! A5    A(4,3,10)             110.635          -DE/DX =    0.0                 !
 ! A6    A(9,3,10)             108.1313         -DE/DX =    0.0                 !
 ! A7    A(3,4,5)              112.0387         -DE/DX =    0.0                 !
 ! A8    A(3,4,7)              110.9114         -DE/DX =    0.0                 !
 ! A9    A(3,4,8)              110.9117         -DE/DX =    0.0                 !
 ! A10   A(5,4,7)              107.6236         -DE/DX =    0.0                 !
 ! A11   A(5,4,8)              107.6249         -DE/DX =    0.0                 !
 ! A12   A(7,4,8)              107.5347         -DE/DX =    0.0                 !
 ! A13   L(1,2,3,7,-1)         178.3555         -DE/DX =    0.0                 !
 ! A14   L(4,5,6,10,-1)        179.6668         -DE/DX =    0.0                 !
 ! A15   L(5,6,11,9,-1)        182.3784         -DE/DX =    0.0                 !
 ! A16   L(1,2,3,7,-2)         179.1201         -DE/DX =    0.0                 !
 ! A17   L(4,5,6,10,-2)        179.8046         -DE/DX =    0.0                 !
 ! A18   L(5,6,11,9,-2)        178.2981         -DE/DX =    0.0                 !
 ! D1    D(2,3,4,5)           -180.0016         -DE/DX =    0.0                 !
 ! D2    D(2,3,4,7)            -59.7143         -DE/DX =    0.0                 !
 ! D3    D(2,3,4,8)             59.7094         -DE/DX =    0.0                 !
 ! D4    D(9,3,4,5)            -59.9064         -DE/DX =    0.0                 !
 ! D5    D(9,3,4,7)             60.3808         -DE/DX =    0.0                 !
 ! D6    D(9,3,4,8)            179.8046         -DE/DX =    0.0                 !
 ! D7    D(10,3,4,5)            59.9041         -DE/DX =    0.0                 !
 ! D8    D(10,3,4,7)          -179.8086         -DE/DX =    0.0                 !
 ! D9    D(10,3,4,8)           -60.3849         -DE/DX =    0.0                 !
 --------------------------------------------------------------------------------
 Lowest energy point so far.  Saving SCF results.
 Largest change from initial coordinates is atom   11       0.007 Angstoms.
 GradGradGradGradGradGradGradGradGradGradGradGradGradGradGradGradGradGrad

 Leave Link  103 at Thu Aug  7 18:44:09 2025, MaxMem=   104857600 cpu:               0.0 elap:               0.0
 (Enter /Applications/g16/l202.exe)
                          Input orientation:                          
 ---------------------------------------------------------------------
 Center     Atomic      Atomic             Coordinates (Angstroms)
 Number     Number       Type             X           Y           Z
 ---------------------------------------------------------------------
      1          7           0        3.259060   -0.183624    0.000233
      2          6           0        2.167526    0.196608    0.000080
      3          6           0        0.772450    0.634109   -0.000110
      4          6           0       -0.148265   -0.613517   -0.000090
      5          6           0       -1.556629   -0.252233   -0.000238
      6          7           0       -2.677726    0.043027   -0.000468
      7          1           0        0.035052   -1.235160   -0.884403
      8          1           0        0.034919   -1.235041    0.884331
      9          1           0        0.588387    1.249130   -0.886058
     10          1           0        0.588205    1.249288    0.885691
     11          3           0       -4.046246    0.338240    0.001068
 ---------------------------------------------------------------------
                    Distance matrix (angstroms):
                    1          2          3          4          5
     1  N    0.000000
     2  C    1.155866   0.000000
     3  C    2.617617   1.462068   0.000000
     4  C    3.434337   2.453403   1.550576   0.000000
     5  C    4.816178   3.751105   2.492030   1.453966   0.000000
     6  N    5.941112   4.847685   3.500442   2.613279   1.159326
     7  H    3.504646   2.716563   2.195427   1.096382   2.069140
     8  H    3.504596   2.716529   2.195429   1.096380   2.069154
     9  H    3.157657   2.094450   1.094091   2.190217   2.764030
    10  H    3.157648   2.094443   1.094090   2.190214   2.764010
    11  Li   7.323923   6.215386   4.827771   4.012493   2.558682
                    6          7          8          9         10
     6  N    0.000000
     7  H    3.126382   0.000000
     8  H    3.126463   1.768734   0.000000
     9  H    3.592555   2.545168   3.100276   0.000000
    10  H    3.592583   3.100273   2.545194   1.771749   0.000000
    11  Li   1.400000   4.462806   4.462205   4.805885   4.805279
                   11
    11  Li   0.000000
 Stoichiometry    C4H4LiN2(1+)
 Framework group  C1[X(C4H4LiN2)]
 Deg. of freedom    27
 Full point group                 C1      NOp   1
 RotChk:  IX=2 Diff= 8.77D-17
 Largest Abelian subgroup         C1      NOp   1
 Largest concise Abelian subgroup C1      NOp   1
                         Standard orientation:                         
 ---------------------------------------------------------------------
 Center     Atomic      Atomic             Coordinates (Angstroms)
 Number     Number       Type             X           Y           Z
 ---------------------------------------------------------------------
      1          7           0        3.245396   -0.190853    0.000256
      2          6           0        2.155108    0.192940    0.000103
      3          6           0        0.761468    0.634992   -0.000087
      4          6           0       -0.163315   -0.609622   -0.000067
      5          6           0       -1.570492   -0.243743   -0.000215
      6          7           0       -2.690619    0.055175   -0.000445
      7          1           0        0.017971   -1.231860   -0.884380
      8          1           0        0.017840   -1.231740    0.884354
      9          1           0        0.579413    1.250611   -0.886035
     10          1           0        0.579232    1.250769    0.885714
     11          3           0       -4.058168    0.354854    0.001090
 ---------------------------------------------------------------------
 Rotational constants (GHZ):          23.7891283           1.0973445           1.0628933
 Leave Link  202 at Thu Aug  7 18:44:09 2025, MaxMem=   104857600 cpu:               0.0 elap:               0.0
 (Enter /Applications/g16/l601.exe)
 Copying SCF densities to generalized density rwf, IOpCl= 0 IROHF=0.

 **********************************************************************

            Population analysis using the SCF Density.

 **********************************************************************

 Orbital symmetries:
       Occupied  (A) (A) (A) (A) (A) (A) (A) (A) (A) (A) (A) (A)
                 (A) (A) (A) (A) (A) (A) (A) (A) (A) (A)
       Virtual   (A) (A) (A) (A) (A) (A) (A) (A) (A) (A) (A) (A)
                 (A) (A) (A) (A) (A) (A) (A) (A) (A) (A) (A) (A)
                 (A) (A) (A) (A) (A) (A) (A) (A) (A) (A) (A) (A)
                 (A) (A) (A) (A) (A) (A) (A) (A) (A) (A) (A) (A)
                 (A) (A) (A) (A) (A) (A) (A) (A) (A) (A) (A) (A)
                 (A) (A) (A) (A) (A) (A) (A) (A) (A) (A) (A) (A)
                 (A) (A) (A) (A) (A) (A) (A) (A) (A) (A) (A) (A)
                 (A) (A) (A) (A) (A) (A) (A)
 The electronic state is 1-A.
 Alpha  occ. eigenvalues --  -14.67004 -14.58311 -10.60125 -10.54118 -10.51844
 Alpha  occ. eigenvalues --  -10.46886  -2.31232  -1.24942  -1.13939  -1.10257
 Alpha  occ. eigenvalues --   -0.98576  -0.81562  -0.76867  -0.76335  -0.73064
 Alpha  occ. eigenvalues --   -0.70107  -0.68555  -0.64857  -0.63665  -0.56836
 Alpha  occ. eigenvalues --   -0.54196  -0.53813
 Alpha virt. eigenvalues --   -0.14803  -0.14221  -0.13361  -0.07154  -0.06408
 Alpha virt. eigenvalues --   -0.06251  -0.01703  -0.01021   0.04033   0.04620
 Alpha virt. eigenvalues --    0.04960   0.05812   0.08165   0.09698   0.10167
 Alpha virt. eigenvalues --    0.12515   0.14212   0.14363   0.23700   0.27783
 Alpha virt. eigenvalues --    0.33349   0.36044   0.36047   0.39032   0.41767
 Alpha virt. eigenvalues --    0.46712   0.47142   0.47963   0.52564   0.53287
 Alpha virt. eigenvalues --    0.54204   0.60023   0.60260   0.63841   0.65647
 Alpha virt. eigenvalues --    0.69756   0.73963   0.76174   0.76791   0.77326
 Alpha virt. eigenvalues --    0.80790   0.83472   0.85714   0.86997   0.91228
 Alpha virt. eigenvalues --    0.93517   0.95862   1.00024   1.03174   1.09485
 Alpha virt. eigenvalues --    1.18858   1.29172   1.30092   1.31193   1.37389
 Alpha virt. eigenvalues --    1.38556   1.42011   1.44972   1.47355   1.50693
 Alpha virt. eigenvalues --    1.61385   1.65182   1.68626   1.76276   1.76996
 Alpha virt. eigenvalues --    1.81072   1.85361   1.87751   1.88803   1.91063
 Alpha virt. eigenvalues --    1.93802   1.97133   2.12593   2.12654   2.16656
 Alpha virt. eigenvalues --    2.25450   2.35108   2.58360   2.65424   2.72236
 Alpha virt. eigenvalues --    2.73927   2.75950   2.79878   3.09060   3.22406
 Alpha virt. eigenvalues --    3.99281   4.02496   4.08516   4.16845   4.46283
 Alpha virt. eigenvalues --    4.68063
          Condensed to atoms (all electrons):
               1          2          3          4          5          6
     1  N    6.621918   0.854948  -0.080773  -0.000700  -0.000051  -0.000000
     2  C    0.854948   4.604242   0.277948  -0.037986   0.003608  -0.000033
     3  C   -0.080773   0.277948   5.229322   0.297848  -0.030960  -0.000936
     4  C   -0.000700  -0.037986   0.297848   5.299827   0.278938  -0.082371
     5  C   -0.000051   0.003608  -0.030960   0.278938   4.961460   0.217267
     6  N   -0.000000  -0.000033  -0.000936  -0.082371   0.217267   7.222228
     7  H    0.000321  -0.001700  -0.025106   0.372130  -0.031702  -0.001163
     8  H    0.000321  -0.001699  -0.025112   0.372176  -0.031732  -0.001168
     9  H   -0.000549  -0.026734   0.377393  -0.032219  -0.003393   0.000249
    10  H   -0.000549  -0.026738   0.377395  -0.032229  -0.003389   0.000250
    11  Li  -0.000013  -0.000048   0.000720  -0.005213  -0.138245   0.346628
               7          8          9         10         11
     1  N    0.000321   0.000321  -0.000549  -0.000549  -0.000013
     2  C   -0.001700  -0.001699  -0.026734  -0.026738  -0.000048
     3  C   -0.025106  -0.025112   0.377393   0.377395   0.000720
     4  C    0.372130   0.372176  -0.032219  -0.032229  -0.005213
     5  C   -0.031702  -0.031732  -0.003393  -0.003389  -0.138245
     6  N   -0.001163  -0.001168   0.000249   0.000250   0.346628
     7  H    0.398334  -0.015844  -0.002179   0.002577   0.000366
     8  H   -0.015844   0.398340   0.002576  -0.002179   0.000370
     9  H   -0.002179   0.002576   0.436437  -0.020039   0.000473
    10  H    0.002577  -0.002179  -0.020039   0.436465   0.000473
    11  Li   0.000366   0.000370   0.000473   0.000473   2.146979
 Mulliken charges:
               1
     1  N   -0.394873
     2  C    0.354192
     3  C   -0.397739
     4  C   -0.430202
     5  C    0.778197
     6  N   -0.700951
     7  H    0.303967
     8  H    0.303950
     9  H    0.267985
    10  H    0.267963
    11  Li   0.647510
 Sum of Mulliken charges =   1.00000
 Mulliken charges with hydrogens summed into heavy atoms:
               1
     1  N   -0.394873
     2  C    0.354192
     3  C    0.138209
     4  C    0.177715
     5  C    0.778197
     6  N   -0.700951
    11  Li   0.647510
 Electronic spatial extent (au):  <R**2>=            881.7228
 Charge=              1.0000 electrons
 Dipole moment (field-independent basis, Debye):
    X=            -15.0992    Y=              1.1935    Z=              0.0047  Tot=             15.1463
 Quadrupole moment (field-independent basis, Debye-Ang):
   XX=             10.2569   YY=            -30.4778   ZZ=            -32.3298
   XY=             -2.9934   XZ=             -0.0238   YZ=              0.0022
 Traceless Quadrupole moment (field-independent basis, Debye-Ang):
   XX=             27.7738   YY=            -12.9609   ZZ=            -14.8129
   XY=             -2.9934   XZ=             -0.0238   YZ=              0.0022
 Octapole moment (field-independent basis, Debye-Ang**2):
  XXX=           -312.7698  YYY=              1.0428  ZZZ=              0.0050  XYY=             -7.5796
  XXY=             30.2625  XXZ=              0.0879  XZZ=             -5.3586  YZZ=              0.0941
  YYZ=              0.0021  XYZ=             -0.0077
 Hexadecapole moment (field-independent basis, Debye-Ang**3):
 XXXX=            -30.3006 YYYY=            -78.8334 ZZZZ=            -41.5706 XXXY=            -93.3737
 XXXZ=             -0.4092 YYYX=             -5.8703 YYYZ=              0.0013 ZZZX=             -0.0340
 ZZZY=             -0.0005 XXYY=           -163.3627 XXZZ=           -166.2029 YYZZ=            -16.4711
 XXYZ=              0.0321 YYXZ=             -0.0143 ZZXY=             -1.4229
 N-N= 1.994807684128D+02 E-N=-1.022262911922D+03  KE= 2.695880329107D+02
 No NMR shielding tensors so no spin-rotation constants.
 Leave Link  601 at Thu Aug  7 18:44:09 2025, MaxMem=   104857600 cpu:               0.0 elap:               0.0
 (Enter /Applications/g16/l9999.exe)
 Unable to Open any file for archive entry.
 1\1\GINC-MBPSRAK\FOpt\RwB97XD\6-31G(d)\C4H4Li1N2(1+)\SRAK\07-Aug-2025\
 0\\#p opt=modredundant wb97xd/6-31g(d)\\Gaussian input prepared by ASE
 \\1,1\N,3.25906049,-0.1836239087,0.0002332669\C,2.1675255462,0.1966083
 523,0.0000801715\C,0.7724504889,0.6341092554,-0.0001096823\C,-0.148264
 5713,-0.6135169262,-0.0000899528\C,-1.5566290393,-0.2522331581,-0.0002
 375147\N,-2.6777261513,0.043026607,-0.0004681788\H,0.0350516264,-1.235
 1600631,-0.8844026531\H,0.0349193844,-1.2350405029,0.8843313309\H,0.58
 83866393,1.2491304824,-0.8860576013\H,0.5882053271,1.249287646,0.88569
 11459\Li,-4.0462460804,0.3382398158,0.0010675478\\Version=Apple M1-G16
 RevC.02\State=1-A\HF=-271.48209\RMSD=9.499e-09\RMSF=5.494e-02\Dipole=-
 5.9419844,0.4501822,0.0018559\Quadrupole=20.6633406,-9.6503406,-11.013
 ,-2.1266119,-0.0176711,0.0015651\PG=C01 [X(C4H4Li1N2)]\\@
 The archive entry for this job was punched.


 IT IS BY LOGIC THAT WE PROVE, BUT BY INTUITION THAT WE DISCOVER.
     -- J.H.POINCARE (1854-1912)
 Job cpu time:       0 days  0 hours  1 minutes 10.6 seconds.
 Elapsed time:       0 days  0 hours  1 minutes 10.6 seconds.
 File lengths (MBytes):  RWF=     10 Int=      0 D2E=      0 Chk=      2 Scr=      1
 Normal termination of Gaussian 16 at Thu Aug  7 18:44:09 2025.
