10

N       7.558446000000000      6.866407000000000      3.896444000000000
C       8.159200999999999      7.466387000000000      3.121818000000000
C       8.934248000000000      8.240456000000000      2.157010000000000
C       9.899027000000000      9.208154000000000      2.869825000000000
C      10.674045000000000      9.982416000000001      1.905106000000000
N      11.274882000000000     10.582522000000001      1.130636000000000
H       9.342449000000000      9.898180000000000      3.508060000000000
H      10.588630999999999      8.653914000000000      3.510540000000000
H       8.244729000000000      8.794686000000000      1.516190000000000
H       9.490850999999999      7.550369000000000      1.518872000000000
