#p opt=modredundant wb97xd/6-31g(d)

Gaussian input prepared by ASE

1 1
 N                  3.26137700   -0.17795000   -0.00025700
 C                  2.16825500    0.19779800   -0.00009900
 C                  0.77172300    0.63134500   -0.00001800
 C                 -0.14816800   -0.61536500    0.00004800
 C                 -1.55930600   -0.25212600    0.00013900
 N                 -2.67851400    0.04158700    0.00024600
 H                  0.03616500   -1.23636500   -0.88395200
 H                  0.03625800   -1.23634100    0.88404600
 H                  0.58708300    1.24680900   -0.88558600
 H                  0.58718700    1.24682400    0.88556000
 Li                -3.94769689    0.32296698   -0.00006518

B 6 11 F

