 Entering Gaussian System, Link 0=g16
 Initial command:
 /Applications/g16/l1.exe "/Users/srak/g16_scratch/Gau-95627.inp" -scrdir="/Users/srak/g16_scratch/"
 Entering Link 1 = /Applications/g16/l1.exe PID=     95628.
  
 Copyright (c) 1988-2021, Gaussian, Inc.  All Rights Reserved.
  
 This is part of the Gaussian(R) 16 program.  It is based on
 the Gaussian(R) 09 system (copyright 2009, Gaussian, Inc.),
 the Gaussian(R) 03 system (copyright 2003, Gaussian, Inc.),
 the Gaussian(R) 98 system (copyright 1998, Gaussian, Inc.),
 the Gaussian(R) 94 system (copyright 1995, Gaussian, Inc.),
 the Gaussian 92(TM) system (copyright 1992, Gaussian, Inc.),
 the Gaussian 90(TM) system (copyright 1990, Gaussian, Inc.),
 the Gaussian 88(TM) system (copyright 1988, Gaussian, Inc.),
 the Gaussian 86(TM) system (copyright 1986, Carnegie Mellon
 University), and the Gaussian 82(TM) system (copyright 1983,
 Carnegie Mellon University). Gaussian is a federally registered
 trademark of Gaussian, Inc.
  
 This software contains proprietary and confidential information,
 including trade secrets, belonging to Gaussian, Inc.
  
 This software is provided under written license and may be
 used, copied, transmitted, or stored only in accord with that
 written license.
  
 The following legend is applicable only to US Government
 contracts under FAR:
  
                    RESTRICTED RIGHTS LEGEND
  
 Use, reproduction and disclosure by the US Government is
 subject to restrictions as set forth in subparagraphs (a)
 and (c) of the Commercial Computer Software - Restricted
 Rights clause in FAR 52.227-19.
  
 Gaussian, Inc.
 340 Quinnipiac St., Bldg. 40, Wallingford CT 06492
  
  
 ---------------------------------------------------------------
 Warning -- This program may not be used in any manner that
 competes with the business of Gaussian, Inc. or will provide
 assistance to any competitor of Gaussian, Inc.  The licensee
 of this program is prohibited from giving any competitor of
 Gaussian, Inc. access to this program.  By using this program,
 the user acknowledges that Gaussian, Inc. is engaged in the
 business of creating and licensing software in the field of
 computational chemistry and represents and warrants to the
 licensee that it is not a competitor of Gaussian, Inc. and that
 it will not use this program in any manner prohibited above.
 ---------------------------------------------------------------
  

 Cite this work as:
 Gaussian 16, Revision C.02,
 M. J. Frisch, G. W. Trucks, H. B. Schlegel, G. E. Scuseria, 
 M. A. Robb, J. R. Cheeseman, G. Scalmani, V. Barone, 
 G. A. Petersson, H. Nakatsuji, X. Li, M. Caricato, A. V. Marenich, 
 J. Bloino, B. G. Janesko, R. Gomperts, B. Mennucci, H. P. Hratchian, 
 J. V. Ortiz, A. F. Izmaylov, J. L. Sonnenberg, D. Williams-Young, 
 F. Ding, F. Lipparini, F. Egidi, J. Goings, B. Peng, A. Petrone, 
 T. Henderson, D. Ranasinghe, V. G. Zakrzewski, J. Gao, N. Rega, 
 G. Zheng, W. Liang, M. Hada, M. Ehara, K. Toyota, R. Fukuda, 
 J. Hasegawa, M. Ishida, T. Nakajima, Y. Honda, O. Kitao, H. Nakai, 
 T. Vreven, K. Throssell, J. A. Montgomery, Jr., J. E. Peralta, 
 F. Ogliaro, M. J. Bearpark, J. J. Heyd, E. N. Brothers, K. N. Kudin, 
 V. N. Staroverov, T. A. Keith, R. Kobayashi, J. Normand, 
 K. Raghavachari, A. P. Rendell, J. C. Burant, S. S. Iyengar, 
 J. Tomasi, M. Cossi, J. M. Millam, M. Klene, C. Adamo, R. Cammi, 
 J. W. Ochterski, R. L. Martin, K. Morokuma, O. Farkas, 
 J. B. Foresman, and D. J. Fox, Gaussian, Inc., Wallingford CT, 2019.
 
 *********************************************
 Gaussian 16:  Apple M1-G16RevC.02  7-Dec-2021
                   6-Aug-2025 
 *********************************************
 ------------------------------------
 #P wb97xd/6-31g(d) opt(modredundant)
 ------------------------------------
 1/18=120,19=15,26=3,38=1/1,3;
 2/9=110,12=2,17=6,18=5,40=1/2;
 3/5=1,6=6,7=1,11=2,25=1,30=1,71=1,74=-58/1,2,3;
 4//1;
 5/5=2,38=5/2;
 6/7=2,8=2,9=2,10=2,28=1/1;
 7//1,2,3,16;
 1/18=20,19=15,26=3/3(2);
 2/9=110/2;
 99//99;
 2/9=110/2;
 3/5=1,6=6,7=1,11=2,25=1,30=1,71=1,74=-58/1,2,3;
 4/5=5,16=3,69=1/1;
 5/5=2,38=5/2;
 7//1,2,3,16;
 1/18=20,19=15,26=3/3(-5);
 2/9=110/2;
 6/7=2,8=2,9=2,10=2,19=2,28=1/1;
 99/9=1/99;
 Leave Link    1 at Wed Aug  6 21:38:37 2025, MaxMem=           0 cpu:               0.0 elap:               0.0
 (Enter /Applications/g16/l101.exe)
 ------------------------------
 Gaussian input prepared by ASE
 ------------------------------
 Symbolic Z-matrix:
 Charge =  1 Multiplicity = 1
 N                    -2.97028   0.2608    0.00014 
 C                    -1.88952  -0.14937   0.00029 
 C                    -0.50729  -0.62743  -0.00002 
 C                     0.45635   0.58365  -0.00002 
 C                     1.85594   0.16678  -0.0003 
 N                     2.96192  -0.1664   -0.0005 
 H                     0.29183   1.21027  -0.88324 
 H                     0.29211   1.21005   0.88342 
 H                    -0.34428  -1.24963  -0.88516 
 H                    -0.34399  -1.24986   0.88491 
 Li                    5.38307  -0.7893    0.00147 
 
 Add virtual bond connecting atoms Li11       and N6         Dist= 4.72D+00.
 The following ModRedundant input section has been read:
 B       6      11 F                                                           
 
 ITRead=  0  0  0  0  0  0  0  0  0  0  0
 MicOpt= -1 -1 -1 -1 -1 -1 -1 -1 -1 -1 -1
 NAtoms=     11 NQM=       11 NQMF=       0 NMMI=      0 NMMIF=      0
                NMic=       0 NMicF=      0.
                    Isotopes and Nuclear Properties:
 (Nuclear quadrupole moments (NQMom) in fm**2, nuclear magnetic moments (NMagM)
  in nuclear magnetons)

  Atom         1           2           3           4           5           6           7           8           9          10
 IAtWgt=          14          12          12          12          12          14           1           1           1           1
 AtmWgt=  14.0030740  12.0000000  12.0000000  12.0000000  12.0000000  14.0030740   1.0078250   1.0078250   1.0078250   1.0078250
 NucSpn=           2           0           0           0           0           2           1           1           1           1
 AtZEff=  -0.0000000  -0.0000000  -0.0000000  -0.0000000  -0.0000000  -0.0000000  -0.0000000  -0.0000000  -0.0000000  -0.0000000
 NQMom=    2.0440000   0.0000000   0.0000000   0.0000000   0.0000000   2.0440000   0.0000000   0.0000000   0.0000000   0.0000000
 NMagM=    0.4037610   0.0000000   0.0000000   0.0000000   0.0000000   0.4037610   2.7928460   2.7928460   2.7928460   2.7928460
 AtZNuc=   7.0000000   6.0000000   6.0000000   6.0000000   6.0000000   7.0000000   1.0000000   1.0000000   1.0000000   1.0000000

  Atom        11
 IAtWgt=           7
 AtmWgt=   7.0160045
 NucSpn=           3
 AtZEff=  -0.0000000
 NQMom=   -4.0100000
 NMagM=    3.2564240
 AtZNuc=   3.0000000
 Leave Link  101 at Wed Aug  6 21:38:37 2025, MaxMem=   104857600 cpu:               0.0 elap:               0.0
 (Enter /Applications/g16/l103.exe)

 GradGradGradGradGradGradGradGradGradGradGradGradGradGradGradGradGradGrad
 Berny optimization.
 Initialization pass.
                           ----------------------------
                           !    Initial Parameters    !
                           ! (Angstroms and Degrees)  !
 --------------------------                            --------------------------
 ! Name  Definition              Value          Derivative Info.                !
 --------------------------------------------------------------------------------
 ! R1    R(1,2)                  1.156          estimate D2E/DX2                !
 ! R2    R(2,3)                  1.4626         estimate D2E/DX2                !
 ! R3    R(3,4)                  1.5477         estimate D2E/DX2                !
 ! R4    R(3,9)                  1.0942         estimate D2E/DX2                !
 ! R5    R(3,10)                 1.0942         estimate D2E/DX2                !
 ! R6    R(4,5)                  1.4604         estimate D2E/DX2                !
 ! R7    R(4,7)                  1.0954         estimate D2E/DX2                !
 ! R8    R(4,8)                  1.0954         estimate D2E/DX2                !
 ! R9    R(5,6)                  1.1551         estimate D2E/DX2                !
 ! R10   R(6,11)                 2.5            Frozen                          !
 ! A1    A(2,3,4)              109.4302         estimate D2E/DX2                !
 ! A2    A(2,3,9)              109.0774         estimate D2E/DX2                !
 ! A3    A(2,3,10)             109.0762         estimate D2E/DX2                !
 ! A4    A(4,3,9)              110.6229         estimate D2E/DX2                !
 ! A5    A(4,3,10)             110.6231         estimate D2E/DX2                !
 ! A6    A(9,3,10)             107.9717         estimate D2E/DX2                !
 ! A7    A(3,4,5)              111.9225         estimate D2E/DX2                !
 ! A8    A(3,4,7)              110.7405         estimate D2E/DX2                !
 ! A9    A(3,4,8)              110.7403         estimate D2E/DX2                !
 ! A10   A(5,4,7)              107.8843         estimate D2E/DX2                !
 ! A11   A(5,4,8)              107.8844         estimate D2E/DX2                !
 ! A12   A(7,4,8)              107.4974         estimate D2E/DX2                !
 ! A13   L(1,2,3,8,-1)         178.4461         estimate D2E/DX2                !
 ! A14   L(4,5,6,10,-1)        179.836          estimate D2E/DX2                !
 ! A15   L(5,6,11,10,-1)       182.1015         estimate D2E/DX2                !
 ! A16   L(1,2,3,8,-2)         180.8628         estimate D2E/DX2                !
 ! A17   L(4,5,6,10,-2)        179.909          estimate D2E/DX2                !
 ! A18   L(5,6,11,10,-2)       181.7312         estimate D2E/DX2                !
 ! D1    D(2,3,4,5)            179.9992         estimate D2E/DX2                !
 ! D2    D(2,3,4,7)            -59.5782         estimate D2E/DX2                !
 ! D3    D(2,3,4,8)             59.5766         estimate D2E/DX2                !
 ! D4    D(9,3,4,5)            -59.7979         estimate D2E/DX2                !
 ! D5    D(9,3,4,7)             60.6247         estimate D2E/DX2                !
 ! D6    D(9,3,4,8)            179.7795         estimate D2E/DX2                !
 ! D7    D(10,3,4,5)            59.7976         estimate D2E/DX2                !
 ! D8    D(10,3,4,7)          -179.7798         estimate D2E/DX2                !
 ! D9    D(10,3,4,8)           -60.625          estimate D2E/DX2                !
 --------------------------------------------------------------------------------
 Trust Radius=3.00D-01 FncErr=1.00D-07 GrdErr=1.00D-06 EigMax=2.50D+02 EigMin=1.00D-04
 Number of steps in this run=     47 maximum allowed number of steps=    100.
 GradGradGradGradGradGradGradGradGradGradGradGradGradGradGradGradGradGrad

 Leave Link  103 at Wed Aug  6 21:38:37 2025, MaxMem=   104857600 cpu:               0.0 elap:               0.0
 (Enter /Applications/g16/l202.exe)
                          Input orientation:                          
 ---------------------------------------------------------------------
 Center     Atomic      Atomic             Coordinates (Angstroms)
 Number     Number       Type             X           Y           Z
 ---------------------------------------------------------------------
      1          7           0       -2.970277    0.260796    0.000136
      2          6           0       -1.889524   -0.149372    0.000290
      3          6           0       -0.507293   -0.627432   -0.000016
      4          6           0        0.456348    0.583651   -0.000019
      5          6           0        1.855938    0.166782   -0.000300
      6          7           0        2.961917   -0.166400   -0.000499
      7          1           0        0.291827    1.210273   -0.883240
      8          1           0        0.292112    1.210046    0.883417
      9          1           0       -0.344279   -1.249631   -0.885156
     10          1           0       -0.343990   -1.249862    0.884908
     11          3           0        5.383073   -0.789296    0.001473
 ---------------------------------------------------------------------
                    Distance matrix (angstroms):
                    1          2          3          4          5
     1  N    0.000000
     2  C    1.155969   0.000000
     3  C    2.618251   1.462568   0.000000
     4  C    3.441801   2.457730   1.547684   0.000000
     5  C    4.827131   3.758782   2.493118   1.460353   0.000000
     6  N    5.947556   4.851471   3.499710   2.615426   1.155076
     7  H    3.510439   2.718005   2.189940   1.095355   2.077234
     8  H    3.510619   2.717989   2.189938   1.095355   2.077235
     9  H    3.156105   2.093410   1.094156   2.187554   2.762273
    10  H    3.156310   2.093395   1.094156   2.187557   2.762274
    11  Li   8.419094   7.300697   5.892590   5.114451   3.654418
                    6          7          8          9         10
     6  N    0.000000
     7  H    3.131109   0.000000
     8  H    3.131097   1.766657   0.000000
     9  H    3.589838   2.540819   3.095619   0.000000
    10  H    3.589827   3.095622   2.540822   1.770064   0.000000
    11  Li   2.500000   5.540919   5.540133   5.813827   5.813074
                   11
    11  Li   0.000000
 Stoichiometry    C4H4LiN2(1+)
 Framework group  C1[X(C4H4LiN2)]
 Deg. of freedom    27
 Full point group                 C1      NOp   1
 Largest Abelian subgroup         C1      NOp   1
 Largest concise Abelian subgroup C1      NOp   1
                         Standard orientation:                         
 ---------------------------------------------------------------------
 Center     Atomic      Atomic             Coordinates (Angstroms)
 Number     Number       Type             X           Y           Z
 ---------------------------------------------------------------------
      1          7           0       -3.325560   -0.131834   -0.000198
      2          6           0       -2.225002    0.221772   -0.000228
      3          6           0       -0.819853    0.627554    0.000224
      4          6           0        0.079727   -0.631844   -0.000134
      5          6           0        1.499041   -0.288070    0.000274
      6          7           0        2.620801   -0.012654    0.000574
      7          1           0       -0.117063   -1.249361    0.882899
      8          1           0       -0.116736   -1.248621   -0.883758
      9          1           0       -0.624827    1.240203    0.885550
     10          1           0       -0.624496    1.240948   -0.884514
     11          3           0        5.070986    0.483926   -0.001207
 ---------------------------------------------------------------------
 Rotational constants (GHZ):          22.6025845           0.9545059           0.9264123
 Leave Link  202 at Wed Aug  6 21:38:37 2025, MaxMem=   104857600 cpu:               0.0 elap:               0.0
 (Enter /Applications/g16/l301.exe)
 Standard basis: 6-31G(d) (6D, 7F)
 Ernie: Thresh=  0.10000D-02 Tol=  0.10000D-05 Strict=F.
 There are   113 symmetry adapted cartesian basis functions of A   symmetry.
 There are   113 symmetry adapted basis functions of A   symmetry.
   113 basis functions,   212 primitive gaussians,   113 cartesian basis functions
    22 alpha electrons       22 beta electrons
       nuclear repulsion energy       193.2958042345 Hartrees.
 IExCor= 4639 DFT=T Ex+Corr=wB97XD ExCW=0 ScaHFX=  1.000000
 ScaDFX=  1.000000  1.000000  1.000000  1.000000 ScalE2=  1.000000  1.000000
 IRadAn=      5 IRanWt=     -1 IRanGd=            0 ICorTp=0 IEmpDi=121
 HFx  wShort=  0.000000 wLong=  0.200000 cFull=  0.222036 cShort=  0.000000 cLong=  0.777964
 DFx  wShort=  0.000000 wLong=  0.200000 cFull=  0.000000 cShort=  0.000000 cLong=  1.000000
 NAtoms=   11 NActive=   11 NUniq=   11 SFac= 1.00D+00 NAtFMM=   60 NAOKFM=F Big=F
 Integral buffers will be    131072 words long.
 Raffenetti 2 integral format.
 Two-electron integral symmetry is turned on.
 R6Disp:  Grimme-D2 Dispersion energy=       -0.0048281998 Hartrees.
 Nuclear repulsion after empirical dispersion term =      193.2909760347 Hartrees.
 Leave Link  301 at Wed Aug  6 21:38:37 2025, MaxMem=   104857600 cpu:               0.0 elap:               0.0
 (Enter /Applications/g16/l302.exe)
 NPDir=0 NMtPBC=     1 NCelOv=     1 NCel=       1 NClECP=     1 NCelD=      1
         NCelK=      1 NCelE2=     1 NClLst=     1 CellRange=     0.0.
 One-electron integrals computed using PRISM.
 One-electron integral symmetry used in STVInt
 NBasis=   113 RedAO= T EigKep=  9.07D-04  NBF=   113
 NBsUse=   113 1.00D-06 EigRej= -1.00D+00 NBFU=   113
 Precomputing XC quadrature grid using
 IXCGrd= 4 IRadAn=           5 IRanWt=          -1 IRanGd=           0 AccXCQ= 0.00D+00.
 Generated NRdTot=       0 NPtTot=           0 NUsed=           0 NTot=          32
 NSgBfM=   113   113   113   113   113 MxSgAt=    11 MxSgA2=    11.
 Leave Link  302 at Wed Aug  6 21:38:37 2025, MaxMem=   104857600 cpu:               0.1 elap:               0.1
 (Enter /Applications/g16/l303.exe)
 DipDrv:  MaxL=1.
 Leave Link  303 at Wed Aug  6 21:38:37 2025, MaxMem=   104857600 cpu:               0.0 elap:               0.0
 (Enter /Applications/g16/l401.exe)
 ExpMin= 3.60D-02 ExpMax= 4.17D+03 ExpMxC= 6.27D+02 IAcc=3 IRadAn=         5 AccDes= 0.00D+00
 Harris functional with IExCor= 4639 and IRadAn=       5 diagonalized for initial guess.
 HarFok:  IExCor= 4639 AccDes= 0.00D+00 IRadAn=         5 IDoV= 1 UseB2=F ITyADJ=14
 ICtDFT=  3500011 ScaDFX=  1.000000  1.000000  1.000000  1.000000
 FoFCou: FMM=F IPFlag=           0 FMFlag=      100000 FMFlg1=           0
         NFxFlg=           0 DoJE=T BraDBF=F KetDBF=T FulRan=T
         wScrn=  0.000000 ICntrl=       500 IOpCl=  0 I1Cent=   200000004 NGrid=           0
         NMat0=    1 NMatS0=      1 NMatT0=    0 NMatD0=    1 NMtDS0=    0 NMtDT0=    0
 Petite list used in FoFCou.
 Harris En= -259.802912699164    
 JPrj=0 DoOrth=F DoCkMO=F.
 Leave Link  401 at Wed Aug  6 21:38:37 2025, MaxMem=   104857600 cpu:               0.6 elap:               0.6
 (Enter /Applications/g16/l502.exe)
 Keep R1 ints in memory in canonical form, NReq=43174005.
 FoFCou: FMM=F IPFlag=           0 FMFlag=           0 FMFlg1=           0
         NFxFlg=           0 DoJE=F BraDBF=F KetDBF=F FulRan=T
         wScrn=  0.000000 ICntrl=       600 IOpCl=  0 I1Cent=           0 NGrid=           0
         NMat0=    1 NMatS0=   6441 NMatT0=    0 NMatD0=    1 NMtDS0=    0 NMtDT0=    0
 Symmetry not used in FoFCou.
 Two-electron integral symmetry not used.
 Closed shell SCF:
 Using DIIS extrapolation, IDIIS=  1040.
 NGot=   104857600 LenX=    63336875 LenY=    63323665
 Requested convergence on RMS density matrix=1.00D-08 within 128 cycles.
 Requested convergence on MAX density matrix=1.00D-06.
 Requested convergence on             energy=1.00D-06.
 No special actions if energy rises.

 Cycle   1  Pass 1  IDiag  1:
 E= -271.487158337138    
 DIIS: error= 5.38D-02 at cycle   1 NSaved=   1.
 NSaved= 1 IEnMin= 1 EnMin= -271.487158337138     IErMin= 1 ErrMin= 5.38D-02
 ErrMax= 5.38D-02  0.00D+00 EMaxC= 1.00D-01 BMatC= 2.38D-01 BMatP= 2.38D-01
 IDIUse=3 WtCom= 4.62D-01 WtEn= 5.38D-01
 Coeff-Com:  0.100D+01
 Coeff-En:   0.100D+01
 Coeff:      0.100D+01
 Gap=     0.397 Goal=   None    Shift=    0.000
 GapD=    0.397 DampG=1.000 DampE=0.500 DampFc=0.5000 IDamp=-1.
 Damping current iteration by 5.00D-01
 RMSDP=5.33D-03 MaxDP=1.88D-01              OVMax= 5.96D-02

 Cycle   2  Pass 1  IDiag  1:
 E= -271.516880080621     Delta-E=       -0.029721743483 Rises=F Damp=T
 DIIS: error= 2.69D-02 at cycle   2 NSaved=   2.
 NSaved= 2 IEnMin= 2 EnMin= -271.516880080621     IErMin= 2 ErrMin= 2.69D-02
 ErrMax= 2.69D-02  0.00D+00 EMaxC= 1.00D-01 BMatC= 5.48D-02 BMatP= 2.38D-01
 IDIUse=3 WtCom= 7.31D-01 WtEn= 2.69D-01
 Coeff-Com: -0.842D+00 0.184D+01
 Coeff-En:   0.000D+00 0.100D+01
 Coeff:     -0.615D+00 0.162D+01
 Gap=     0.368 Goal=   None    Shift=    0.000
 RMSDP=2.99D-03 MaxDP=1.02D-01 DE=-2.97D-02 OVMax= 4.23D-02

 Cycle   3  Pass 1  IDiag  1:
 E= -271.541450011408     Delta-E=       -0.024569930787 Rises=F Damp=F
 DIIS: error= 7.65D-03 at cycle   3 NSaved=   3.
 NSaved= 3 IEnMin= 3 EnMin= -271.541450011408     IErMin= 3 ErrMin= 7.65D-03
 ErrMax= 7.65D-03  0.00D+00 EMaxC= 1.00D-01 BMatC= 6.51D-03 BMatP= 5.48D-02
 IDIUse=3 WtCom= 9.24D-01 WtEn= 7.65D-02
 Coeff-Com: -0.449D+00 0.942D+00 0.507D+00
 Coeff-En:   0.000D+00 0.000D+00 0.100D+01
 Coeff:     -0.415D+00 0.870D+00 0.545D+00
 Gap=     0.361 Goal=   None    Shift=    0.000
 RMSDP=6.55D-04 MaxDP=1.91D-02 DE=-2.46D-02 OVMax= 3.05D-02

 Cycle   4  Pass 1  IDiag  1:
 E= -271.546351289412     Delta-E=       -0.004901278003 Rises=F Damp=F
 DIIS: error= 2.06D-03 at cycle   4 NSaved=   4.
 NSaved= 4 IEnMin= 4 EnMin= -271.546351289412     IErMin= 4 ErrMin= 2.06D-03
 ErrMax= 2.06D-03  0.00D+00 EMaxC= 1.00D-01 BMatC= 6.20D-04 BMatP= 6.51D-03
 IDIUse=3 WtCom= 9.79D-01 WtEn= 2.06D-02
 Coeff-Com: -0.124D+00 0.250D+00 0.281D+00 0.593D+00
 Coeff-En:   0.000D+00 0.000D+00 0.488D-01 0.951D+00
 Coeff:     -0.121D+00 0.244D+00 0.276D+00 0.601D+00
 Gap=     0.366 Goal=   None    Shift=    0.000
 RMSDP=2.42D-04 MaxDP=8.26D-03 DE=-4.90D-03 OVMax= 7.01D-03

 Cycle   5  Pass 1  IDiag  1:
 E= -271.546868093570     Delta-E=       -0.000516804158 Rises=F Damp=F
 DIIS: error= 2.04D-04 at cycle   5 NSaved=   5.
 NSaved= 5 IEnMin= 5 EnMin= -271.546868093570     IErMin= 5 ErrMin= 2.04D-04
 ErrMax= 2.04D-04  0.00D+00 EMaxC= 1.00D-01 BMatC= 6.56D-06 BMatP= 6.20D-04
 IDIUse=3 WtCom= 9.98D-01 WtEn= 2.04D-03
 Coeff-Com:  0.173D-02-0.518D-02 0.253D-01 0.125D+00 0.853D+00
 Coeff-En:   0.000D+00 0.000D+00 0.000D+00 0.000D+00 0.100D+01
 Coeff:      0.172D-02-0.516D-02 0.252D-01 0.125D+00 0.853D+00
 Gap=     0.366 Goal=   None    Shift=    0.000
 RMSDP=5.80D-05 MaxDP=2.23D-03 DE=-5.17D-04 OVMax= 1.03D-03

 Cycle   6  Pass 1  IDiag  1:
 E= -271.546873254904     Delta-E=       -0.000005161335 Rises=F Damp=F
 DIIS: error= 1.61D-04 at cycle   6 NSaved=   6.
 NSaved= 6 IEnMin= 6 EnMin= -271.546873254904     IErMin= 6 ErrMin= 1.61D-04
 ErrMax= 1.61D-04  0.00D+00 EMaxC= 1.00D-01 BMatC= 3.26D-06 BMatP= 6.56D-06
 IDIUse=3 WtCom= 9.98D-01 WtEn= 1.61D-03
 Coeff-Com:  0.133D-01-0.277D-01-0.135D-01 0.920D-02 0.479D+00 0.539D+00
 Coeff-En:   0.000D+00 0.000D+00 0.000D+00 0.000D+00 0.126D+00 0.874D+00
 Coeff:      0.133D-01-0.277D-01-0.135D-01 0.918D-02 0.479D+00 0.540D+00
 Gap=     0.366 Goal=   None    Shift=    0.000
 RMSDP=2.06D-05 MaxDP=7.27D-04 DE=-5.16D-06 OVMax= 5.77D-04

 Cycle   7  Pass 1  IDiag  1:
 E= -271.546876049614     Delta-E=       -0.000002794709 Rises=F Damp=F
 DIIS: error= 4.43D-05 at cycle   7 NSaved=   7.
 NSaved= 7 IEnMin= 7 EnMin= -271.546876049614     IErMin= 7 ErrMin= 4.43D-05
 ErrMax= 4.43D-05  0.00D+00 EMaxC= 1.00D-01 BMatC= 2.66D-07 BMatP= 3.26D-06
 IDIUse=1 WtCom= 1.00D+00 WtEn= 0.00D+00
 Coeff-Com:  0.659D-02-0.133D-01-0.110D-01-0.175D-01 0.890D-01 0.253D+00
 Coeff-Com:  0.693D+00
 Coeff:      0.659D-02-0.133D-01-0.110D-01-0.175D-01 0.890D-01 0.253D+00
 Coeff:      0.693D+00
 Gap=     0.366 Goal=   None    Shift=    0.000
 RMSDP=7.32D-06 MaxDP=2.67D-04 DE=-2.79D-06 OVMax= 1.68D-04

 Cycle   8  Pass 1  IDiag  1:
 E= -271.546876302283     Delta-E=       -0.000000252670 Rises=F Damp=F
 DIIS: error= 7.98D-06 at cycle   8 NSaved=   8.
 NSaved= 8 IEnMin= 8 EnMin= -271.546876302283     IErMin= 8 ErrMin= 7.98D-06
 ErrMax= 7.98D-06  0.00D+00 EMaxC= 1.00D-01 BMatC= 1.00D-08 BMatP= 2.66D-07
 IDIUse=1 WtCom= 1.00D+00 WtEn= 0.00D+00
 Coeff-Com:  0.725D-03-0.143D-02-0.201D-02-0.595D-02-0.167D-01 0.270D-01
 Coeff-Com:  0.203D+00 0.795D+00
 Coeff:      0.725D-03-0.143D-02-0.201D-02-0.595D-02-0.167D-01 0.270D-01
 Coeff:      0.203D+00 0.795D+00
 Gap=     0.366 Goal=   None    Shift=    0.000
 RMSDP=1.90D-06 MaxDP=7.14D-05 DE=-2.53D-07 OVMax= 2.74D-05

 Cycle   9  Pass 1  IDiag  1:
 E= -271.546876314581     Delta-E=       -0.000000012298 Rises=F Damp=F
 DIIS: error= 1.52D-06 at cycle   9 NSaved=   9.
 NSaved= 9 IEnMin= 9 EnMin= -271.546876314581     IErMin= 9 ErrMin= 1.52D-06
 ErrMax= 1.52D-06  0.00D+00 EMaxC= 1.00D-01 BMatC= 3.26D-10 BMatP= 1.00D-08
 IDIUse=1 WtCom= 1.00D+00 WtEn= 0.00D+00
 Coeff-Com: -0.329D-03 0.672D-03 0.374D-03 0.211D-03-0.746D-02-0.122D-01
 Coeff-Com: -0.111D-01 0.819D-01 0.948D+00
 Coeff:     -0.329D-03 0.672D-03 0.374D-03 0.211D-03-0.746D-02-0.122D-01
 Coeff:     -0.111D-01 0.819D-01 0.948D+00
 Gap=     0.366 Goal=   None    Shift=    0.000
 RMSDP=3.85D-07 MaxDP=5.84D-06 DE=-1.23D-08 OVMax= 1.02D-05

 Cycle  10  Pass 1  IDiag  1:
 E= -271.546876315266     Delta-E=       -0.000000000685 Rises=F Damp=F
 DIIS: error= 6.21D-07 at cycle  10 NSaved=  10.
 NSaved=10 IEnMin=10 EnMin= -271.546876315266     IErMin=10 ErrMin= 6.21D-07
 ErrMax= 6.21D-07  0.00D+00 EMaxC= 1.00D-01 BMatC= 4.01D-11 BMatP= 3.26D-10
 IDIUse=1 WtCom= 1.00D+00 WtEn= 0.00D+00
 Coeff-Com: -0.138D-03 0.280D-03 0.241D-03 0.515D-03-0.540D-03-0.491D-02
 Coeff-Com: -0.169D-01-0.415D-01 0.216D+00 0.847D+00
 Coeff:     -0.138D-03 0.280D-03 0.241D-03 0.515D-03-0.540D-03-0.491D-02
 Coeff:     -0.169D-01-0.415D-01 0.216D+00 0.847D+00
 Gap=     0.366 Goal=   None    Shift=    0.000
 RMSDP=1.23D-07 MaxDP=3.07D-06 DE=-6.85D-10 OVMax= 4.37D-06

 Cycle  11  Pass 1  IDiag  1:
 E= -271.546876315353     Delta-E=       -0.000000000086 Rises=F Damp=F
 DIIS: error= 1.86D-07 at cycle  11 NSaved=  11.
 NSaved=11 IEnMin=11 EnMin= -271.546876315353     IErMin=11 ErrMin= 1.86D-07
 ErrMax= 1.86D-07  0.00D+00 EMaxC= 1.00D-01 BMatC= 2.50D-12 BMatP= 4.01D-11
 IDIUse=1 WtCom= 1.00D+00 WtEn= 0.00D+00
 Coeff-Com:  0.501D-04-0.102D-03-0.697D-04-0.830D-04 0.667D-03 0.170D-02
 Coeff-Com:  0.349D-02 0.414D-04-0.115D+00-0.120D+00 0.123D+01
 Coeff:      0.501D-04-0.102D-03-0.697D-04-0.830D-04 0.667D-03 0.170D-02
 Coeff:      0.349D-02 0.414D-04-0.115D+00-0.120D+00 0.123D+01
 Gap=     0.366 Goal=   None    Shift=    0.000
 RMSDP=4.83D-08 MaxDP=1.21D-06 DE=-8.64D-11 OVMax= 2.40D-06

 Cycle  12  Pass 1  IDiag  1:
 E= -271.546876315364     Delta-E=       -0.000000000011 Rises=F Damp=F
 DIIS: error= 5.01D-08 at cycle  12 NSaved=  12.
 NSaved=12 IEnMin=12 EnMin= -271.546876315364     IErMin=12 ErrMin= 5.01D-08
 ErrMax= 5.01D-08  0.00D+00 EMaxC= 1.00D-01 BMatC= 1.22D-13 BMatP= 2.50D-12
 IDIUse=1 WtCom= 1.00D+00 WtEn= 0.00D+00
 Coeff-Com:  0.168D-05-0.332D-05-0.364D-05-0.174D-04-0.353D-04 0.528D-04
 Coeff-Com:  0.405D-03 0.228D-02 0.136D-02-0.347D-01-0.163D+00 0.119D+01
 Coeff:      0.168D-05-0.332D-05-0.364D-05-0.174D-04-0.353D-04 0.528D-04
 Coeff:      0.405D-03 0.228D-02 0.136D-02-0.347D-01-0.163D+00 0.119D+01
 Gap=     0.366 Goal=   None    Shift=    0.000
 RMSDP=1.01D-08 MaxDP=2.86D-07 DE=-1.10D-11 OVMax= 6.12D-07

 Cycle  13  Pass 1  IDiag  1:
 E= -271.546876315368     Delta-E=       -0.000000000004 Rises=F Damp=F
 DIIS: error= 7.91D-09 at cycle  13 NSaved=  13.
 NSaved=13 IEnMin=13 EnMin= -271.546876315368     IErMin=13 ErrMin= 7.91D-09
 ErrMax= 7.91D-09  0.00D+00 EMaxC= 1.00D-01 BMatC= 8.85D-15 BMatP= 1.22D-13
 IDIUse=1 WtCom= 1.00D+00 WtEn= 0.00D+00
 Coeff-Com: -0.211D-05 0.431D-05 0.280D-05 0.108D-05-0.332D-04-0.706D-04
 Coeff-Com: -0.117D-03 0.301D-03 0.585D-02 0.150D-02-0.822D-01 0.165D+00
 Coeff-Com:  0.910D+00
 Coeff:     -0.211D-05 0.431D-05 0.280D-05 0.108D-05-0.332D-04-0.706D-04
 Coeff:     -0.117D-03 0.301D-03 0.585D-02 0.150D-02-0.822D-01 0.165D+00
 Coeff:      0.910D+00
 Gap=     0.366 Goal=   None    Shift=    0.000
 RMSDP=2.06D-09 MaxDP=5.28D-08 DE=-3.98D-12 OVMax= 7.38D-08

 SCF Done:  E(RwB97XD) =  -271.546876315     A.U. after   13 cycles
            NFock= 13  Conv=0.21D-08     -V/T= 2.0096
 KE= 2.689637937179D+02 PE=-1.010869675485D+03 EE= 2.770680294170D+02
 Leave Link  502 at Wed Aug  6 21:38:46 2025, MaxMem=   104857600 cpu:               8.1 elap:               8.2
 (Enter /Applications/g16/l601.exe)
 Copying SCF densities to generalized density rwf, IOpCl= 0 IROHF=0.

 **********************************************************************

            Population analysis using the SCF Density.

 **********************************************************************

 Orbital symmetries:
       Occupied  (A) (A) (A) (A) (A) (A) (A) (A) (A) (A) (A) (A)
                 (A) (A) (A) (A) (A) (A) (A) (A) (A) (A)
       Virtual   (A) (A) (A) (A) (A) (A) (A) (A) (A) (A) (A) (A)
                 (A) (A) (A) (A) (A) (A) (A) (A) (A) (A) (A) (A)
                 (A) (A) (A) (A) (A) (A) (A) (A) (A) (A) (A) (A)
                 (A) (A) (A) (A) (A) (A) (A) (A) (A) (A) (A) (A)
                 (A) (A) (A) (A) (A) (A) (A) (A) (A) (A) (A) (A)
                 (A) (A) (A) (A) (A) (A) (A) (A) (A) (A) (A) (A)
                 (A) (A) (A) (A) (A) (A) (A) (A) (A) (A) (A) (A)
                 (A) (A) (A) (A) (A) (A) (A)
 The electronic state is 1-A.
 Alpha  occ. eigenvalues --  -14.64248 -14.56164 -10.53388 -10.50461 -10.48974
 Alpha  occ. eigenvalues --  -10.44801  -2.37850  -1.19201  -1.11607  -1.06738
 Alpha  occ. eigenvalues --   -0.95095  -0.77485  -0.73307  -0.71910  -0.67075
 Alpha  occ. eigenvalues --   -0.65681  -0.64609  -0.59498  -0.58599  -0.54868
 Alpha  occ. eigenvalues --   -0.52025  -0.51729
 Alpha virt. eigenvalues --   -0.15150  -0.09996  -0.09823  -0.06123  -0.05936
 Alpha virt. eigenvalues --   -0.05412  -0.00211   0.01173   0.03865   0.03925
 Alpha virt. eigenvalues --    0.04179   0.04700   0.08151   0.08565   0.08901
 Alpha virt. eigenvalues --    0.13057   0.15125   0.16353   0.16597   0.29315
 Alpha virt. eigenvalues --    0.34640   0.35339   0.36147   0.36147   0.36681
 Alpha virt. eigenvalues --    0.43897   0.47163   0.48467   0.50969   0.51089
 Alpha virt. eigenvalues --    0.54574   0.57089   0.61132   0.62355   0.65984
 Alpha virt. eigenvalues --    0.67335   0.72427   0.75773   0.78370   0.79614
 Alpha virt. eigenvalues --    0.81343   0.82672   0.85195   0.86010   0.88848
 Alpha virt. eigenvalues --    0.92762   0.97529   0.99401   1.04167   1.09195
 Alpha virt. eigenvalues --    1.11928   1.28017   1.30425   1.32454   1.40787
 Alpha virt. eigenvalues --    1.41596   1.43465   1.47921   1.49425   1.52702
 Alpha virt. eigenvalues --    1.64850   1.65247   1.71788   1.79698   1.80834
 Alpha virt. eigenvalues --    1.85204   1.87181   1.91081   1.91668   1.93194
 Alpha virt. eigenvalues --    1.96147   1.99212   2.16118   2.16175   2.19697
 Alpha virt. eigenvalues --    2.28496   2.39157   2.65342   2.70743   2.74695
 Alpha virt. eigenvalues --    2.77830   2.80231   2.88483   3.13830   3.25382
 Alpha virt. eigenvalues --    3.98737   4.04363   4.08858   4.20030   4.50858
 Alpha virt. eigenvalues --    4.71767
          Condensed to atoms (all electrons):
               1          2          3          4          5          6
     1  N    6.626779   0.864871  -0.081577  -0.000812  -0.000073  -0.000000
     2  C    0.864871   4.603268   0.277671  -0.039668   0.003676  -0.000057
     3  C   -0.081577   0.277671   5.217215   0.314621  -0.035484  -0.001270
     4  C   -0.000812  -0.039668   0.314621   5.222246   0.279995  -0.062598
     5  C   -0.000073   0.003676  -0.035484   0.279995   4.511881   0.845207
     6  N   -0.000000  -0.000057  -0.001270  -0.062598   0.845207   6.668973
     7  H    0.000298  -0.001967  -0.027088   0.377601  -0.032535  -0.001197
     8  H    0.000297  -0.001968  -0.027091   0.377603  -0.032535  -0.001197
     9  H   -0.000545  -0.027893   0.378402  -0.031547  -0.003364   0.000120
    10  H   -0.000541  -0.027889   0.378384  -0.031548  -0.003365   0.000120
    11  Li  -0.000001  -0.000006   0.000087   0.000522  -0.001681   0.104208
               7          8          9         10         11
     1  N    0.000298   0.000297  -0.000545  -0.000541  -0.000001
     2  C   -0.001967  -0.001968  -0.027893  -0.027889  -0.000006
     3  C   -0.027088  -0.027091   0.378402   0.378384   0.000087
     4  C    0.377601   0.377603  -0.031547  -0.031548   0.000522
     5  C   -0.032535  -0.032535  -0.003364  -0.003365  -0.001681
     6  N   -0.001197  -0.001197   0.000120   0.000120   0.104208
     7  H    0.421078  -0.017777  -0.002294   0.002810   0.000014
     8  H   -0.017777   0.421099   0.002809  -0.002295   0.000014
     9  H   -0.002294   0.002809   0.448799  -0.020989   0.000133
    10  H    0.002810  -0.002295  -0.020989   0.448846   0.000133
    11  Li   0.000014   0.000014   0.000133   0.000133   2.028333
 Mulliken charges:
               1
     1  N   -0.408697
     2  C    0.349962
     3  C   -0.393870
     4  C   -0.406413
     5  C    0.468278
     6  N   -0.552310
     7  H    0.281059
     8  H    0.281039
     9  H    0.256371
    10  H    0.256335
    11  Li   0.868245
 Sum of Mulliken charges =   1.00000
 Mulliken charges with hydrogens summed into heavy atoms:
               1
     1  N   -0.408697
     2  C    0.349962
     3  C    0.118836
     4  C    0.155685
     5  C    0.468278
     6  N   -0.552310
    11  Li   0.868245
 Electronic spatial extent (au):  <R**2>=            956.6858
 Charge=              1.0000 electrons
 Dipole moment (field-independent basis, Debye):
    X=             21.2215    Y=              2.0342    Z=             -0.0058  Tot=             21.3188
 Quadrupole moment (field-independent basis, Debye-Ang):
   XX=             55.7390   YY=            -30.3167   ZZ=            -32.5877
   XY=              8.6511   XZ=             -0.0326   YZ=             -0.0027
 Traceless Quadrupole moment (field-independent basis, Debye-Ang):
   XX=             58.1275   YY=            -27.9282   ZZ=            -30.1992
   XY=              8.6511   XZ=             -0.0326   YZ=             -0.0027
 Octapole moment (field-independent basis, Debye-Ang**2):
  XXX=            636.6569  YYY=              2.4716  ZZZ=             -0.0064  XYY=             13.0957
  XXY=             62.6208  XXZ=             -0.1527  XZZ=              7.7220  YZZ=              0.5417
  YYZ=             -0.0031  XYZ=             -0.0144
 Hexadecapole moment (field-independent basis, Debye-Ang**3):
 XXXX=           1784.4746 YYYY=            -80.8169 ZZZZ=            -41.7220 XXXY=            292.7965
 XXXZ=             -0.8244 YYYX=             14.8845 YYYZ=             -0.0079 ZZZX=             -0.0393
 ZZZY=              0.0011 XXYY=           -149.2468 XXZZ=           -171.1866 YYZZ=            -17.0816
 XXYZ=             -0.0743 YYXZ=             -0.0204 ZZXY=              3.8579
 N-N= 1.932909760347D+02 E-N=-1.010869675452D+03  KE= 2.689637937179D+02
 No NMR shielding tensors so no spin-rotation constants.
 Leave Link  601 at Wed Aug  6 21:38:46 2025, MaxMem=   104857600 cpu:               0.0 elap:               0.0
 (Enter /Applications/g16/l701.exe)
 ... and contract with generalized density number  0.
 Compute integral first derivatives.
 R6Disp: Adding Grimme-D2 dispersion energy 1st derivatives to the gradient.
 Leave Link  701 at Wed Aug  6 21:38:46 2025, MaxMem=   104857600 cpu:               0.0 elap:               0.0
 (Enter /Applications/g16/l702.exe)
 L702 exits ... SP integral derivatives will be done elsewhere.
 Leave Link  702 at Wed Aug  6 21:38:46 2025, MaxMem=   104857600 cpu:               0.0 elap:               0.0
 (Enter /Applications/g16/l703.exe)
 Integral derivatives from FoFJK, PRISM(SPDF).
 Compute integral first derivatives, UseDBF=F ICtDFT=           0.
 Calling FoFJK, ICntrl=      2127 FMM=F ISym2X=0 I1Cent= 0 IOpClX= 0 NMat=1 NMatS=1 NMatT=0.
 FoFJK:  IHMeth= 1 ICntrl=    2127 DoSepK=T KAlg= 0 I1Cent=           0 FoldK=F
 IRaf=         1 NMat=       1 IRICut=       1 DoRegI=T DoRafI=F ISym2E= 0 IDoP0=0 IntGTp=1.
 FoFCou: FMM=F IPFlag=           0 FMFlag=      100000 FMFlg1=         800
         NFxFlg=           0 DoJE=F BraDBF=F KetDBF=F FulRan=T
         wScrn=  0.000000 ICntrl=      2527 IOpCl=  0 I1Cent=           0 NGrid=           0
         NMat0=    1 NMatS0=      1 NMatT0=    0 NMatD0=    1 NMtDS0=    0 NMtDT0=    0
 Symmetry not used in FoFCou.
 Leave Link  703 at Wed Aug  6 21:38:48 2025, MaxMem=   104857600 cpu:               2.4 elap:               2.4
 (Enter /Applications/g16/l716.exe)
 Dipole        = 8.34918327D+00 8.00320142D-01-2.28291812D-03
 ***** Axes restored to original set *****
 -------------------------------------------------------------------
 Center     Atomic                   Forces (Hartrees/Bohr)
 Number     Number              X              Y              Z
 -------------------------------------------------------------------
      1        7          -0.000217928    0.000056341    0.000013444
      2        6          -0.000150045   -0.000274024   -0.000028430
      3        6           0.000259995    0.001083385    0.000014692
      4        6          -0.000384803    0.000207920   -0.000002806
      5        6           0.001687063   -0.000803661    0.000000405
      6        7           0.015251067   -0.004025828    0.000020869
      7        1          -0.000464400   -0.000176237    0.000271445
      8        1          -0.000462672   -0.000176036   -0.000272008
      9        1           0.000074447    0.000010852    0.000062220
     10        1           0.000081541    0.000009432   -0.000062869
     11        3          -0.015674264    0.004087858   -0.000016963
 -------------------------------------------------------------------
 Cartesian Forces:  Max     0.015674264 RMS     0.003957846
 Leave Link  716 at Wed Aug  6 21:38:48 2025, MaxMem=   104857600 cpu:               0.0 elap:               0.0
 (Enter /Applications/g16/l103.exe)

 GradGradGradGradGradGradGradGradGradGradGradGradGradGradGradGradGradGrad
 Berny optimization.
 FormGI is forming the generalized inverse of G from B-inverse, IUseBI=4.
 Internal  Forces:  Max     0.016198481 RMS     0.002687732
 Search for a local minimum.
 Step number   1 out of a maximum of   47
 All quantities printed in internal units (Hartrees-Bohrs-Radians)
 RMS Force = .36869D-03 SwitMx=.10000D-02 MixMth= 2
 Mixed Optimization -- En-DIIS/RFO-DIIS
 Second derivative matrix not updated -- first step.
 ITU=  0
     Eigenvalues ---    0.00230   0.00230   0.00230   0.01261   0.01261
     Eigenvalues ---    0.04932   0.04932   0.05329   0.05615   0.05751
     Eigenvalues ---    0.05802   0.16000   0.16000   0.16000   0.16000
     Eigenvalues ---    0.22268   0.22333   0.27849   0.34201   0.34201
     Eigenvalues ---    0.34337   0.34337   0.36645   0.36920   1.30468
     Eigenvalues ---    1.310711000.000001000.000001000.000001000.00000
     Eigenvalues --- 1000.000001000.000001000.000001000.000001000.00000
     Eigenvalues --- 1000.000001000.00000
 RFO step:  Lambda=-4.69072109D-05 EMin= 2.30000000D-03
 Linear search not attempted -- first point.
 Iteration  1 RMS(Cart)=  0.05364926 RMS(Int)=  0.00251372
 Iteration  2 RMS(Cart)=  0.00311861 RMS(Int)=  0.00000642
 Iteration  3 RMS(Cart)=  0.00000813 RMS(Int)=  0.00000330
 Iteration  4 RMS(Cart)=  0.00000000 RMS(Int)=  0.00000330
 Iteration  1 RMS(Cart)=  0.00000000 RMS(Int)=  0.00000000
 ITry= 1 IFail=0 DXMaxC= 2.13D-01 DCOld= 1.00D+10 DXMaxT= 3.00D-01 DXLimC= 3.00D+00 Rises=F
 Variable       Old X    -DE/DX   Delta X   Delta X   Delta X     New X
                                 (Linear)    (Quad)   (Total)
    R1        2.18447   0.00022   0.00000   0.00017   0.00017   2.18464
    R2        2.76385   0.00028   0.00000   0.00075   0.00075   2.76461
    R3        2.92470  -0.00072   0.00000  -0.00260  -0.00260   2.92210
    R4        2.06766  -0.00005   0.00000  -0.00013  -0.00013   2.06752
    R5        2.06766  -0.00004   0.00000  -0.00013  -0.00013   2.06753
    R6        2.75967   0.00142   0.00000   0.00385   0.00385   2.76352
    R7        2.06992  -0.00025   0.00000  -0.00073  -0.00073   2.06919
    R8        2.06992  -0.00025   0.00000  -0.00073  -0.00073   2.06919
    R9        2.18278  -0.00042   0.00000  -0.00032  -0.00032   2.18245
   R10        4.72432  -0.01620   0.00000   0.00000   0.00000   4.72432
    A1        1.90992   0.00075   0.00000   0.00376   0.00376   1.91368
    A2        1.90376  -0.00021   0.00000  -0.00013  -0.00013   1.90363
    A3        1.90374  -0.00020   0.00000  -0.00004  -0.00004   1.90370
    A4        1.93073  -0.00018   0.00000  -0.00122  -0.00122   1.92951
    A5        1.93074  -0.00019   0.00000  -0.00123  -0.00123   1.92951
    A6        1.88446   0.00002   0.00000  -0.00119  -0.00120   1.88327
    A7        1.95342  -0.00032   0.00000  -0.00060  -0.00060   1.95281
    A8        1.93279  -0.00039   0.00000  -0.00306  -0.00307   1.92972
    A9        1.93278  -0.00039   0.00000  -0.00305  -0.00306   1.92972
   A10        1.88294   0.00050   0.00000   0.00412   0.00412   1.88706
   A11        1.88294   0.00050   0.00000   0.00410   0.00410   1.88704
   A12        1.87618   0.00017   0.00000  -0.00119  -0.00120   1.87498
   A13        3.11447   0.00004   0.00000   0.00299   0.00299   3.11746
   A14        3.13873   0.00011   0.00000   0.00222   0.00222   3.14095
   A15        3.17827   0.00024   0.00000   0.10115   0.10115   3.27942
   A16        3.15665  -0.00004   0.00000  -0.00313  -0.00313   3.15352
   A17        3.14000   0.00003   0.00000   0.00061   0.00061   3.14061
   A18        3.17181   0.00005   0.00000   0.02232   0.02232   3.19413
    D1        3.14158   0.00000   0.00000   0.00003   0.00003  -3.14157
    D2       -1.03984   0.00015   0.00000   0.00275   0.00275  -1.03709
    D3        1.03981  -0.00014   0.00000  -0.00268  -0.00267   1.03714
    D4       -1.04367   0.00011   0.00000   0.00152   0.00152  -1.04215
    D5        1.05810   0.00025   0.00000   0.00424   0.00423   1.06233
    D6        3.13774  -0.00004   0.00000  -0.00119  -0.00119   3.13656
    D7        1.04366  -0.00011   0.00000  -0.00155  -0.00155   1.04211
    D8       -3.13775   0.00003   0.00000   0.00117   0.00116  -3.13659
    D9       -1.05811  -0.00026   0.00000  -0.00426  -0.00426  -1.06236
         Item               Value     Threshold  Converged?
 Maximum Force            0.001423     0.000450     NO 
 RMS     Force            0.000369     0.000300     NO 
 Maximum Displacement     0.213347     0.001800     NO 
 RMS     Displacement     0.054901     0.001200     NO 
 Predicted change in Energy=-2.370100D-05
 Lowest energy point so far.  Saving SCF results.
 GradGradGradGradGradGradGradGradGradGradGradGradGradGradGradGradGradGrad

 Leave Link  103 at Wed Aug  6 21:38:48 2025, MaxMem=   104857600 cpu:               0.0 elap:               0.0
 (Enter /Applications/g16/l202.exe)
                          Input orientation:                          
 ---------------------------------------------------------------------
 Center     Atomic      Atomic             Coordinates (Angstroms)
 Number     Number       Type             X           Y           Z
 ---------------------------------------------------------------------
      1          7           0       -2.971618    0.302372   -0.018323
      2          6           0       -1.896646   -0.122875   -0.009648
      3          6           0       -0.522785   -0.625498    0.002523
      4          6           0        0.465791    0.563530    0.004990
      5          6           0        1.857720    0.115220    0.017047
      6          7           0        2.956661   -0.239818    0.026057
      7          1           0        0.317170    1.189128   -0.881291
      8          1           0        0.304192    1.196266    0.883901
      9          1           0       -0.364546   -1.254753   -0.878399
     10          1           0       -0.377535   -1.247618    0.890722
     11          3           0        5.417448   -0.676398   -0.036584
 ---------------------------------------------------------------------
                    Distance matrix (angstroms):
                    1          2          3          4          5
     1  N    0.000000
     2  C    1.156060   0.000000
     3  C    2.618809   1.462967   0.000000
     4  C    3.447395   2.460178   1.546310   0.000000
     5  C    4.833092   3.762003   2.493126   1.462392   0.000000
     6  N    5.953187   4.854847   3.500835   2.617297   1.154905
     7  H    3.513855   2.717002   2.186211   1.094968   2.081726
     8  H    3.513401   2.717030   2.186216   1.094968   2.081716
     9  H    3.156136   2.093611   1.094086   2.185403   2.759912
    10  H    3.155646   2.093661   1.094089   2.185401   2.759891
    11  Li   8.445991   7.335059   5.940580   5.104709   3.647081
                    6          7          8          9         10
     6  N    0.000000
     7  H    3.135614   0.000000
     8  H    3.135893   1.765254   0.000000
     9  H    3.588670   2.537183   3.091990   0.000000
    10  H    3.588895   3.091986   2.537197   1.769184   0.000000
    11  Li   2.500000   5.496049   5.522640   5.871508   5.896441
                   11
    11  Li   0.000000
 Stoichiometry    C4H4LiN2(1+)
 Framework group  C1[X(C4H4LiN2)]
 Deg. of freedom    27
 Full point group                 C1      NOp   1
 RotChk:  IX=2 Diff= 1.20D-02
 Largest Abelian subgroup         C1      NOp   1
 Largest concise Abelian subgroup C1      NOp   1
                         Standard orientation:                         
 ---------------------------------------------------------------------
 Center     Atomic      Atomic             Coordinates (Angstroms)
 Number     Number       Type             X           Y           Z
 ---------------------------------------------------------------------
      1          7           0       -3.329526   -0.160674    0.012559
      2          6           0       -2.232117    0.202779    0.004236
      3          6           0       -0.831898    0.626487   -0.007239
      4          6           0        0.087544   -0.616754    0.000084
      5          6           0        1.502715   -0.248296   -0.010905
      6          7           0        2.620067    0.043700   -0.019076
      7          1           0       -0.098459   -1.227455    0.889692
      8          1           0       -0.107668   -1.244671   -0.875454
      9          1           0       -0.640244    1.251132    0.870321
     10          1           0       -0.649454    1.233895   -0.898754
     11          3           0        5.101527    0.340207    0.047587
 ---------------------------------------------------------------------
 Rotational constants (GHZ):          24.0051616           0.9485678           0.9230864
 Leave Link  202 at Wed Aug  6 21:38:48 2025, MaxMem=   104857600 cpu:               0.0 elap:               0.0
 (Enter /Applications/g16/l301.exe)
 Standard basis: 6-31G(d) (6D, 7F)
 Ernie: Thresh=  0.10000D-02 Tol=  0.10000D-05 Strict=F.
 There are   113 symmetry adapted cartesian basis functions of A   symmetry.
 There are   113 symmetry adapted basis functions of A   symmetry.
   113 basis functions,   212 primitive gaussians,   113 cartesian basis functions
    22 alpha electrons       22 beta electrons
       nuclear repulsion energy       193.2259544568 Hartrees.
 IExCor= 4639 DFT=T Ex+Corr=wB97XD ExCW=0 ScaHFX=  1.000000
 ScaDFX=  1.000000  1.000000  1.000000  1.000000 ScalE2=  1.000000  1.000000
 IRadAn=      5 IRanWt=     -1 IRanGd=            0 ICorTp=0 IEmpDi=121
 HFx  wShort=  0.000000 wLong=  0.200000 cFull=  0.222036 cShort=  0.000000 cLong=  0.777964
 DFx  wShort=  0.000000 wLong=  0.200000 cFull=  0.000000 cShort=  0.000000 cLong=  1.000000
 NAtoms=   11 NActive=   11 NUniq=   11 SFac= 1.00D+00 NAtFMM=   60 NAOKFM=F Big=F
 Integral buffers will be    131072 words long.
 Raffenetti 2 integral format.
 Two-electron integral symmetry is turned on.
 R6Disp:  Grimme-D2 Dispersion energy=       -0.0048281901 Hartrees.
 Nuclear repulsion after empirical dispersion term =      193.2211262668 Hartrees.
 Leave Link  301 at Wed Aug  6 21:38:48 2025, MaxMem=   104857600 cpu:               0.0 elap:               0.0
 (Enter /Applications/g16/l302.exe)
 NPDir=0 NMtPBC=     1 NCelOv=     1 NCel=       1 NClECP=     1 NCelD=      1
         NCelK=      1 NCelE2=     1 NClLst=     1 CellRange=     0.0.
 One-electron integrals computed using PRISM.
 One-electron integral symmetry used in STVInt
 NBasis=   113 RedAO= T EigKep=  9.10D-04  NBF=   113
 NBsUse=   113 1.00D-06 EigRej= -1.00D+00 NBFU=   113
 Precomputing XC quadrature grid using
 IXCGrd= 4 IRadAn=           5 IRanWt=          -1 IRanGd=           0 AccXCQ= 0.00D+00.
 Generated NRdTot=       0 NPtTot=           0 NUsed=           0 NTot=          32
 NSgBfM=   113   113   113   113   113 MxSgAt=    11 MxSgA2=    11.
 Leave Link  302 at Wed Aug  6 21:38:48 2025, MaxMem=   104857600 cpu:               0.1 elap:               0.1
 (Enter /Applications/g16/l303.exe)
 DipDrv:  MaxL=1.
 Leave Link  303 at Wed Aug  6 21:38:48 2025, MaxMem=   104857600 cpu:               0.0 elap:               0.0
 (Enter /Applications/g16/l401.exe)
 Initial guess from the checkpoint file:  "/Users/srak/g16_scratch/Gau-95628.chk"
 B after Tr=    -0.000000   -0.000000   -0.000000
         Rot=    0.999999    0.001008   -0.000076   -0.000502 Ang=   0.13 deg.
 Guess basis will be translated and rotated to current coordinates.
 JPrj=2 DoOrth=T DoCkMO=T.
 Generating alternative initial guess.
 ExpMin= 3.60D-02 ExpMax= 4.17D+03 ExpMxC= 6.27D+02 IAcc=3 IRadAn=         5 AccDes= 0.00D+00
 Harris functional with IExCor= 4639 and IRadAn=       5 diagonalized for initial guess.
 HarFok:  IExCor= 4639 AccDes= 0.00D+00 IRadAn=         5 IDoV= 1 UseB2=F ITyADJ=14
 ICtDFT=  3500011 ScaDFX=  1.000000  1.000000  1.000000  1.000000
 FoFCou: FMM=F IPFlag=           0 FMFlag=      100000 FMFlg1=           0
         NFxFlg=           0 DoJE=T BraDBF=F KetDBF=T FulRan=T
         wScrn=  0.000000 ICntrl=       500 IOpCl=  0 I1Cent=   200000004 NGrid=           0
         NMat0=    1 NMatS0=      1 NMatT0=    0 NMatD0=    1 NMtDS0=    0 NMtDT0=    0
 Petite list used in FoFCou.
 Harris En= -259.802973564564    
 Leave Link  401 at Wed Aug  6 21:38:49 2025, MaxMem=   104857600 cpu:               0.6 elap:               0.6
 (Enter /Applications/g16/l502.exe)
 Keep R1 ints in memory in canonical form, NReq=43174005.
 FoFCou: FMM=F IPFlag=           0 FMFlag=           0 FMFlg1=           0
         NFxFlg=           0 DoJE=F BraDBF=F KetDBF=F FulRan=T
         wScrn=  0.000000 ICntrl=       600 IOpCl=  0 I1Cent=           0 NGrid=           0
         NMat0=    1 NMatS0=   6441 NMatT0=    0 NMatD0=    1 NMtDS0=    0 NMtDT0=    0
 Symmetry not used in FoFCou.
 Two-electron integral symmetry not used.
 Closed shell SCF:
 Using DIIS extrapolation, IDIIS=  1040.
 NGot=   104857600 LenX=    63336875 LenY=    63323665
 Requested convergence on RMS density matrix=1.00D-08 within 128 cycles.
 Requested convergence on MAX density matrix=1.00D-06.
 Requested convergence on             energy=1.00D-06.
 No special actions if energy rises.

 Cycle   1  Pass 1  IDiag  1:
 E= -271.546253689516    
 DIIS: error= 1.31D-03 at cycle   1 NSaved=   1.
 NSaved= 1 IEnMin= 1 EnMin= -271.546253689516     IErMin= 1 ErrMin= 1.31D-03
 ErrMax= 1.31D-03  0.00D+00 EMaxC= 1.00D-01 BMatC= 3.08D-04 BMatP= 3.08D-04
 IDIUse=3 WtCom= 9.87D-01 WtEn= 1.31D-02
 Coeff-Com:  0.100D+01
 Coeff-En:   0.100D+01
 Coeff:      0.100D+01
 Gap=     2.099 Goal=   None    Shift=    0.000
 GapD=    2.099 DampG=2.000 DampE=1.000 DampFc=2.0000 IDamp=-1.
 RMSDP=2.05D-04 MaxDP=2.97D-03              OVMax= 6.16D-03

 Cycle   2  Pass 1  IDiag  1:
 E= -271.546767862548     Delta-E=       -0.000514173032 Rises=F Damp=F
 DIIS: error= 2.73D-04 at cycle   2 NSaved=   2.
 NSaved= 2 IEnMin= 2 EnMin= -271.546767862548     IErMin= 2 ErrMin= 2.73D-04
 ErrMax= 2.73D-04  0.00D+00 EMaxC= 1.00D-01 BMatC= 1.22D-05 BMatP= 3.08D-04
 IDIUse=3 WtCom= 9.97D-01 WtEn= 2.73D-03
 Coeff-Com: -0.174D+00 0.117D+01
 Coeff-En:   0.000D+00 0.100D+01
 Coeff:     -0.174D+00 0.117D+01
 Gap=     0.365 Goal=   None    Shift=    0.000
 RMSDP=6.35D-05 MaxDP=1.12D-03 DE=-5.14D-04 OVMax= 2.41D-03

 Cycle   3  Pass 1  IDiag  1:
 E= -271.546798262916     Delta-E=       -0.000030400367 Rises=F Damp=F
 DIIS: error= 7.58D-05 at cycle   3 NSaved=   3.
 NSaved= 3 IEnMin= 3 EnMin= -271.546798262916     IErMin= 3 ErrMin= 7.58D-05
 ErrMax= 7.58D-05  0.00D+00 EMaxC= 1.00D-01 BMatC= 1.12D-06 BMatP= 1.22D-05
 IDIUse=1 WtCom= 1.00D+00 WtEn= 0.00D+00
 Coeff-Com: -0.532D-01 0.245D+00 0.808D+00
 Coeff:     -0.532D-01 0.245D+00 0.808D+00
 Gap=     0.365 Goal=   None    Shift=    0.000
 RMSDP=1.51D-05 MaxDP=2.93D-04 DE=-3.04D-05 OVMax= 4.28D-04

 Cycle   4  Pass 1  IDiag  1:
 E= -271.546799331916     Delta-E=       -0.000001069000 Rises=F Damp=F
 DIIS: error= 6.96D-05 at cycle   4 NSaved=   4.
 NSaved= 4 IEnMin= 4 EnMin= -271.546799331916     IErMin= 4 ErrMin= 6.96D-05
 ErrMax= 6.96D-05  0.00D+00 EMaxC= 1.00D-01 BMatC= 6.00D-07 BMatP= 1.12D-06
 IDIUse=1 WtCom= 1.00D+00 WtEn= 0.00D+00
 Coeff-Com: -0.878D-02-0.442D-02 0.424D+00 0.589D+00
 Coeff:     -0.878D-02-0.442D-02 0.424D+00 0.589D+00
 Gap=     0.365 Goal=   None    Shift=    0.000
 RMSDP=7.68D-06 MaxDP=1.84D-04 DE=-1.07D-06 OVMax= 3.00D-04

 Cycle   5  Pass 1  IDiag  1:
 E= -271.546799852056     Delta-E=       -0.000000520140 Rises=F Damp=F
 DIIS: error= 2.76D-05 at cycle   5 NSaved=   5.
 NSaved= 5 IEnMin= 5 EnMin= -271.546799852056     IErMin= 5 ErrMin= 2.76D-05
 ErrMax= 2.76D-05  0.00D+00 EMaxC= 1.00D-01 BMatC= 9.15D-08 BMatP= 6.00D-07
 IDIUse=1 WtCom= 1.00D+00 WtEn= 0.00D+00
 Coeff-Com:  0.734D-02-0.574D-01 0.350D-01 0.304D+00 0.711D+00
 Coeff:      0.734D-02-0.574D-01 0.350D-01 0.304D+00 0.711D+00
 Gap=     0.365 Goal=   None    Shift=    0.000
 RMSDP=2.90D-06 MaxDP=6.14D-05 DE=-5.20D-07 OVMax= 8.87D-05

 Cycle   6  Pass 1  IDiag  1:
 E= -271.546799944686     Delta-E=       -0.000000092631 Rises=F Damp=F
 DIIS: error= 3.49D-06 at cycle   6 NSaved=   6.
 NSaved= 6 IEnMin= 6 EnMin= -271.546799944686     IErMin= 6 ErrMin= 3.49D-06
 ErrMax= 3.49D-06  0.00D+00 EMaxC= 1.00D-01 BMatC= 3.37D-09 BMatP= 9.15D-08
 IDIUse=1 WtCom= 1.00D+00 WtEn= 0.00D+00
 Coeff-Com:  0.278D-02-0.164D-01-0.210D-01 0.494D-01 0.219D+00 0.767D+00
 Coeff:      0.278D-02-0.164D-01-0.210D-01 0.494D-01 0.219D+00 0.767D+00
 Gap=     0.365 Goal=   None    Shift=    0.000
 RMSDP=5.93D-07 MaxDP=1.17D-05 DE=-9.26D-08 OVMax= 1.98D-05

 Cycle   7  Pass 1  IDiag  1:
 E= -271.546799948703     Delta-E=       -0.000000004017 Rises=F Damp=F
 DIIS: error= 1.52D-06 at cycle   7 NSaved=   7.
 NSaved= 7 IEnMin= 7 EnMin= -271.546799948703     IErMin= 7 ErrMin= 1.52D-06
 ErrMax= 1.52D-06  0.00D+00 EMaxC= 1.00D-01 BMatC= 3.74D-10 BMatP= 3.37D-09
 IDIUse=1 WtCom= 1.00D+00 WtEn= 0.00D+00
 Coeff-Com:  0.165D-04 0.134D-02-0.101D-01-0.179D-01-0.873D-02 0.222D+00
 Coeff-Com:  0.813D+00
 Coeff:      0.165D-04 0.134D-02-0.101D-01-0.179D-01-0.873D-02 0.222D+00
 Coeff:      0.813D+00
 Gap=     0.365 Goal=   None    Shift=    0.000
 RMSDP=2.55D-07 MaxDP=6.87D-06 DE=-4.02D-09 OVMax= 9.64D-06

 Cycle   8  Pass 1  IDiag  1:
 E= -271.546799949027     Delta-E=       -0.000000000324 Rises=F Damp=F
 DIIS: error= 1.36D-06 at cycle   8 NSaved=   8.
 NSaved= 8 IEnMin= 8 EnMin= -271.546799949027     IErMin= 8 ErrMin= 1.36D-06
 ErrMax= 1.36D-06  0.00D+00 EMaxC= 1.00D-01 BMatC= 2.12D-10 BMatP= 3.74D-10
 IDIUse=1 WtCom= 1.00D+00 WtEn= 0.00D+00
 Coeff-Com: -0.380D-03 0.313D-02-0.349D-02-0.182D-01-0.361D-01 0.306D-01
 Coeff-Com:  0.507D+00 0.518D+00
 Coeff:     -0.380D-03 0.313D-02-0.349D-02-0.182D-01-0.361D-01 0.306D-01
 Coeff:      0.507D+00 0.518D+00
 Gap=     0.365 Goal=   None    Shift=    0.000
 RMSDP=1.05D-07 MaxDP=3.10D-06 DE=-3.24D-10 OVMax= 4.55D-06

 Cycle   9  Pass 1  IDiag  1:
 E= -271.546799949216     Delta-E=       -0.000000000189 Rises=F Damp=F
 DIIS: error= 1.43D-07 at cycle   9 NSaved=   9.
 NSaved= 9 IEnMin= 9 EnMin= -271.546799949216     IErMin= 9 ErrMin= 1.43D-07
 ErrMax= 1.43D-07  0.00D+00 EMaxC= 1.00D-01 BMatC= 3.26D-12 BMatP= 2.12D-10
 IDIUse=1 WtCom= 1.00D+00 WtEn= 0.00D+00
 Coeff-Com: -0.795D-04 0.504D-03 0.231D-03-0.184D-02-0.639D-02-0.164D-01
 Coeff-Com:  0.131D-01 0.937D-01 0.917D+00
 Coeff:     -0.795D-04 0.504D-03 0.231D-03-0.184D-02-0.639D-02-0.164D-01
 Coeff:      0.131D-01 0.937D-01 0.917D+00
 Gap=     0.365 Goal=   None    Shift=    0.000
 RMSDP=3.00D-08 MaxDP=6.15D-07 DE=-1.89D-10 OVMax= 1.01D-06

 Cycle  10  Pass 1  IDiag  1:
 E= -271.546799949223     Delta-E=       -0.000000000007 Rises=F Damp=F
 DIIS: error= 4.28D-08 at cycle  10 NSaved=  10.
 NSaved=10 IEnMin=10 EnMin= -271.546799949223     IErMin=10 ErrMin= 4.28D-08
 ErrMax= 4.28D-08  0.00D+00 EMaxC= 1.00D-01 BMatC= 3.13D-13 BMatP= 3.26D-12
 IDIUse=1 WtCom= 1.00D+00 WtEn= 0.00D+00
 Coeff-Com:  0.188D-04-0.192D-03 0.418D-03 0.143D-02 0.219D-02-0.684D-02
 Coeff-Com: -0.485D-01-0.289D-01 0.226D+00 0.855D+00
 Coeff:      0.188D-04-0.192D-03 0.418D-03 0.143D-02 0.219D-02-0.684D-02
 Coeff:     -0.485D-01-0.289D-01 0.226D+00 0.855D+00
 Gap=     0.365 Goal=   None    Shift=    0.000
 RMSDP=9.39D-09 MaxDP=1.55D-07 DE=-6.93D-12 OVMax= 2.86D-07

 SCF Done:  E(RwB97XD) =  -271.546799949     A.U. after   10 cycles
            NFock= 10  Conv=0.94D-08     -V/T= 2.0096
 KE= 2.689632075534D+02 PE=-1.010732545115D+03 EE= 2.770014113455D+02
 Leave Link  502 at Wed Aug  6 21:38:55 2025, MaxMem=   104857600 cpu:               6.2 elap:               6.2
 (Enter /Applications/g16/l701.exe)
 ... and contract with generalized density number  0.
 Compute integral first derivatives.
 R6Disp: Adding Grimme-D2 dispersion energy 1st derivatives to the gradient.
 Leave Link  701 at Wed Aug  6 21:38:55 2025, MaxMem=   104857600 cpu:               0.0 elap:               0.0
 (Enter /Applications/g16/l702.exe)
 L702 exits ... SP integral derivatives will be done elsewhere.
 Leave Link  702 at Wed Aug  6 21:38:55 2025, MaxMem=   104857600 cpu:               0.0 elap:               0.0
 (Enter /Applications/g16/l703.exe)
 Integral derivatives from FoFJK, PRISM(SPDF).
 Compute integral first derivatives, UseDBF=F ICtDFT=           0.
 Calling FoFJK, ICntrl=      2127 FMM=F ISym2X=0 I1Cent= 0 IOpClX= 0 NMat=1 NMatS=1 NMatT=0.
 FoFJK:  IHMeth= 1 ICntrl=    2127 DoSepK=T KAlg= 0 I1Cent=           0 FoldK=F
 IRaf=         1 NMat=       1 IRICut=       1 DoRegI=T DoRafI=F ISym2E= 0 IDoP0=0 IntGTp=1.
 FoFCou: FMM=F IPFlag=           0 FMFlag=      100000 FMFlg1=         800
         NFxFlg=           0 DoJE=F BraDBF=F KetDBF=F FulRan=T
         wScrn=  0.000000 ICntrl=      2527 IOpCl=  0 I1Cent=           0 NGrid=           0
         NMat0=    1 NMatS0=      1 NMatT0=    0 NMatD0=    1 NMtDS0=    0 NMtDT0=    0
 Symmetry not used in FoFCou.
 Leave Link  703 at Wed Aug  6 21:38:57 2025, MaxMem=   104857600 cpu:               2.4 elap:               2.4
 (Enter /Applications/g16/l716.exe)
 Dipole        = 8.40500472D+00 5.46762023D-01 8.25522775D-02
 ***** Axes restored to original set *****
 -------------------------------------------------------------------
 Center     Atomic                   Forces (Hartrees/Bohr)
 Number     Number              X              Y              Z
 -------------------------------------------------------------------
      1        7           0.000033583    0.000091656   -0.000039029
      2        6           0.000012910   -0.000277769    0.000070140
      3        6           0.000041545    0.000200020   -0.000027991
      4        6          -0.000239927   -0.000218192    0.000129617
      5        6          -0.000184409    0.000189297   -0.000002091
      6        7           0.016147774   -0.002197574   -0.000687178
      7        1           0.000139727   -0.000031478   -0.000014367
      8        1           0.000115806   -0.000031049    0.000020380
      9        1          -0.000060597   -0.000091950    0.000010197
     10        1          -0.000068688   -0.000079717   -0.000004635
     11        3          -0.015937723    0.002446756    0.000544957
 -------------------------------------------------------------------
 Cartesian Forces:  Max     0.016147774 RMS     0.003995199
 Leave Link  716 at Wed Aug  6 21:38:57 2025, MaxMem=   104857600 cpu:               0.0 elap:               0.0
 (Enter /Applications/g16/l103.exe)

 GradGradGradGradGradGradGradGradGradGradGradGradGradGradGradGradGradGrad
 Berny optimization.
 Using GEDIIS/GDIIS optimizer.
 FormGI is forming the generalized inverse of G from B-inverse, IUseBI=4.
 Internal  Forces:  Max     0.016128662 RMS     0.002677547
 Search for a local minimum.
 Step number   2 out of a maximum of   47
 All quantities printed in internal units (Hartrees-Bohrs-Radians)
 RMS Force = .37745D-03 SwitMx=.10000D-02 MixMth= 2
 Mixed Optimization -- En-DIIS/RFO-DIIS
 Swapping is turned off.
 Update second derivatives using D2CorX and points    1    2
 DE=  7.64D-05 DEPred=-2.37D-05 R=-3.22D+00
 Trust test=-3.22D+00 RLast= 1.04D-01 DXMaxT set to 1.50D-01
 ITU= -1  0
     Eigenvalues ---    0.00225   0.00230   0.01211   0.01261   0.01675
     Eigenvalues ---    0.04914   0.04968   0.05336   0.05593   0.05796
     Eigenvalues ---    0.06002   0.14430   0.16000   0.16000   0.16030
     Eigenvalues ---    0.20462   0.22293   0.27104   0.33513   0.34201
     Eigenvalues ---    0.34335   0.34337   0.34840   0.36658   1.30344
     Eigenvalues ---    1.308691000.000001000.000001000.000001000.00000
     Eigenvalues --- 1000.000001000.000001000.000001000.000001000.00000
     Eigenvalues --- 1000.000001000.00000
 En-DIIS/RFO-DIIS/Sim-DIIS IScMMF=       -3 using points:     2    1
 RFO step:  Lambda=-1.85129172D-04.
 NNeg= 0 NGDIIS= 2 SimSw=  2.50D-03 Rises=T DC=  7.64D-05 SmlDif=  1.00D-05
 NRisDI= 1 DoIntr=F SqrtH=F CThrHd= 10.0 CDAdj=  3.0
 RMS Error=  0.1598592060D-01 NUsed= 2 OKEnD=T EnDIS=T
 InvSVX:  RCond= 1.18D-02 Info=           0 Equed=N FErr=  1.09D-15 BErr=  1.07D-16
 IWarn =    0
 DidBck=T Rises=T En-DIIS coefs:    0.34453    0.65547
 Iteration  1 RMS(Cart)=  0.05455098 RMS(Int)=  0.00237447
 Iteration  2 RMS(Cart)=  0.00281471 RMS(Int)=  0.00000215
 Iteration  3 RMS(Cart)=  0.00000333 RMS(Int)=  0.00000136
 Iteration  4 RMS(Cart)=  0.00000000 RMS(Int)=  0.00000136
 Iteration  1 RMS(Cart)=  0.00000000 RMS(Int)=  0.00000000
 ITry= 1 IFail=0 DXMaxC= 2.08D-01 DCOld= 1.00D+10 DXMaxT= 1.50D-01 DXLimC= 3.00D+00 Rises=F
 Variable       Old X    -DE/DX   Delta X   Delta X   Delta X     New X
                                 (Linear)    (Quad)   (Total)
    R1        2.18464   0.00000  -0.00011   0.00021   0.00010   2.18473
    R2        2.76461  -0.00011  -0.00049   0.00086   0.00036   2.76497
    R3        2.92210   0.00015   0.00170  -0.00304  -0.00133   2.92077
    R4        2.06752   0.00004   0.00009  -0.00014  -0.00005   2.06747
    R5        2.06753   0.00003   0.00008  -0.00014  -0.00006   2.06747
    R6        2.76352  -0.00011  -0.00253   0.00460   0.00208   2.76560
    R7        2.06919  -0.00003   0.00048  -0.00090  -0.00042   2.06877
    R8        2.06919  -0.00002   0.00048  -0.00090  -0.00042   2.06877
    R9        2.18245   0.00012   0.00021  -0.00037  -0.00016   2.18229
   R10        4.72432  -0.01613  -0.00000   0.00000  -0.00000   4.72432
    A1        1.91368   0.00011  -0.00247   0.00465   0.00218   1.91586
    A2        1.90363  -0.00011   0.00009  -0.00027  -0.00019   1.90344
    A3        1.90370  -0.00011   0.00003  -0.00018  -0.00015   1.90355
    A4        1.92951   0.00010   0.00080  -0.00134  -0.00054   1.92897
    A5        1.92951   0.00010   0.00081  -0.00136  -0.00055   1.92896
    A6        1.88327  -0.00011   0.00078  -0.00159  -0.00080   1.88246
    A7        1.95281  -0.00002   0.00039  -0.00082  -0.00042   1.95239
    A8        1.92972   0.00011   0.00201  -0.00356  -0.00154   1.92818
    A9        1.92972   0.00008   0.00201  -0.00355  -0.00155   1.92818
   A10        1.88706  -0.00009  -0.00270   0.00475   0.00205   1.88911
   A11        1.88704  -0.00007  -0.00269   0.00480   0.00211   1.88915
   A12        1.87498  -0.00001   0.00079  -0.00131  -0.00051   1.87447
   A13        3.11746  -0.00016  -0.00196   0.00113  -0.00083   3.11664
   A14        3.14095  -0.00115  -0.00146  -0.00182  -0.00328   3.13768
   A15        3.27942  -0.00188  -0.06630  -0.03124  -0.09754   3.18187
   A16        3.15352   0.00013   0.00205  -0.00175   0.00031   3.15383
   A17        3.14061  -0.00013  -0.00040   0.00024  -0.00016   3.14045
   A18        3.19413  -0.00010  -0.01463   0.01780   0.00317   3.19730
    D1       -3.14157   0.00001  -0.00002   0.00024   0.00022  -3.14135
    D2       -1.03709  -0.00006  -0.00180   0.00328   0.00148  -1.03560
    D3        1.03714   0.00005   0.00175  -0.00285  -0.00111   1.03603
    D4       -1.04215   0.00001  -0.00100   0.00204   0.00105  -1.04110
    D5        1.06233  -0.00005  -0.00278   0.00508   0.00231   1.06464
    D6        3.13656   0.00006   0.00078  -0.00105  -0.00028   3.13628
    D7        1.04211   0.00000   0.00102  -0.00167  -0.00065   1.04146
    D8       -3.13659  -0.00006  -0.00076   0.00137   0.00061  -3.13597
    D9       -1.06236   0.00005   0.00279  -0.00476  -0.00198  -1.06434
         Item               Value     Threshold  Converged?
 Maximum Force            0.001882     0.000450     NO 
 RMS     Force            0.000377     0.000300     NO 
 Maximum Displacement     0.208046     0.001800     NO 
 RMS     Displacement     0.055812     0.001200     NO 
 Predicted change in Energy=-9.331396D-05
 GradGradGradGradGradGradGradGradGradGradGradGradGradGradGradGradGradGrad

 Leave Link  103 at Wed Aug  6 21:38:57 2025, MaxMem=   104857600 cpu:               0.0 elap:               0.0
 (Enter /Applications/g16/l202.exe)
                          Input orientation:                          
 ---------------------------------------------------------------------
 Center     Atomic      Atomic             Coordinates (Angstroms)
 Number     Number       Type             X           Y           Z
 ---------------------------------------------------------------------
      1          7           0       -2.975222    0.255059    0.007998
      2          6           0       -1.891818   -0.148432    0.003391
      3          6           0       -0.507465   -0.622120   -0.001023
      4          6           0        0.458077    0.584784   -0.002176
      5          6           0        1.859125    0.161875   -0.006899
      6          7           0        2.963348   -0.176194   -0.009737
      7          1           0        0.286453    1.211682   -0.883092
      8          1           0        0.291618    1.209238    0.881464
      9          1           0       -0.345409   -1.243785   -0.886593
     10          1           0       -0.340434   -1.246061    0.882020
     11          3           0        5.387579   -0.786491    0.015641
 ---------------------------------------------------------------------
                    Distance matrix (angstroms):
                    1          2          3          4          5
     1  N    0.000000
     2  C    1.156111   0.000000
     3  C    2.619036   1.463158   0.000000
     4  C    3.449111   2.461634   1.545604   0.000000
     5  C    4.835268   3.763771   2.493077   1.463492   0.000000
     6  N    5.954235   4.855263   3.499353   2.618307   1.154820
     7  H    3.513928   2.716730   2.184303   1.094746   2.084012
     8  H    3.513637   2.716923   2.184306   1.094747   2.084043
     9  H    3.156382   2.093621   1.094058   2.184365   2.758571
    10  H    3.155850   2.093698   1.094060   2.184357   2.758717
    11  Li   8.427415   7.307317   5.897359   5.116708   3.653751
                    6          7          8          9         10
     6  N    0.000000
     7  H    3.139223   0.000000
     8  H    3.138758   1.764565   0.000000
     9  H    3.585597   2.535464   3.090170   0.000000
    10  H    3.585362   3.090163   2.535347   1.768622   0.000000
    11  Li   2.500000   5.551748   5.540885   5.821537   5.811364
                   11
    11  Li   0.000000
 Stoichiometry    C4H4LiN2(1+)
 Framework group  C1[X(C4H4LiN2)]
 Deg. of freedom    27
 Full point group                 C1      NOp   1
 RotChk:  IX=3 Diff= 1.63D-02
 Largest Abelian subgroup         C1      NOp   1
 Largest concise Abelian subgroup C1      NOp   1
                         Standard orientation:                         
 ---------------------------------------------------------------------
 Center     Atomic      Atomic             Coordinates (Angstroms)
 Number     Number       Type             X           Y           Z
 ---------------------------------------------------------------------
      1          7           0       -3.330341   -0.126369   -0.005821
      2          6           0       -2.227361    0.220042   -0.000831
      3          6           0       -0.820180    0.620857    0.003911
      4          6           0        0.081092   -0.634763   -0.000635
      5          6           0        1.502296   -0.285530    0.004202
      6          7           0        2.622653   -0.005531    0.007147
      7          1           0       -0.122225   -1.255292    0.878043
      8          1           0       -0.118492   -1.246227   -0.886495
      9          1           0       -0.625137    1.229758    0.891695
     10          1           0       -0.621606    1.238681   -0.876901
     11          3           0        5.075396    0.477581   -0.018502
 ---------------------------------------------------------------------
 Rotational constants (GHZ):          22.7770678           0.9524520           0.9247593
 Leave Link  202 at Wed Aug  6 21:38:57 2025, MaxMem=   104857600 cpu:               0.0 elap:               0.0
 (Enter /Applications/g16/l301.exe)
 Standard basis: 6-31G(d) (6D, 7F)
 Ernie: Thresh=  0.10000D-02 Tol=  0.10000D-05 Strict=F.
 There are   113 symmetry adapted cartesian basis functions of A   symmetry.
 There are   113 symmetry adapted basis functions of A   symmetry.
   113 basis functions,   212 primitive gaussians,   113 cartesian basis functions
    22 alpha electrons       22 beta electrons
       nuclear repulsion energy       193.2219229535 Hartrees.
 IExCor= 4639 DFT=T Ex+Corr=wB97XD ExCW=0 ScaHFX=  1.000000
 ScaDFX=  1.000000  1.000000  1.000000  1.000000 ScalE2=  1.000000  1.000000
 IRadAn=      5 IRanWt=     -1 IRanGd=            0 ICorTp=0 IEmpDi=121
 HFx  wShort=  0.000000 wLong=  0.200000 cFull=  0.222036 cShort=  0.000000 cLong=  0.777964
 DFx  wShort=  0.000000 wLong=  0.200000 cFull=  0.000000 cShort=  0.000000 cLong=  1.000000
 NAtoms=   11 NActive=   11 NUniq=   11 SFac= 1.00D+00 NAtFMM=   60 NAOKFM=F Big=F
 Integral buffers will be    131072 words long.
 Raffenetti 2 integral format.
 Two-electron integral symmetry is turned on.
 R6Disp:  Grimme-D2 Dispersion energy=       -0.0048255769 Hartrees.
 Nuclear repulsion after empirical dispersion term =      193.2170973766 Hartrees.
 Leave Link  301 at Wed Aug  6 21:38:57 2025, MaxMem=   104857600 cpu:               0.0 elap:               0.0
 (Enter /Applications/g16/l302.exe)
 NPDir=0 NMtPBC=     1 NCelOv=     1 NCel=       1 NClECP=     1 NCelD=      1
         NCelK=      1 NCelE2=     1 NClLst=     1 CellRange=     0.0.
 One-electron integrals computed using PRISM.
 One-electron integral symmetry used in STVInt
 NBasis=   113 RedAO= T EigKep=  9.11D-04  NBF=   113
 NBsUse=   113 1.00D-06 EigRej= -1.00D+00 NBFU=   113
 Precomputing XC quadrature grid using
 IXCGrd= 4 IRadAn=           5 IRanWt=          -1 IRanGd=           0 AccXCQ= 0.00D+00.
 Generated NRdTot=       0 NPtTot=           0 NUsed=           0 NTot=          32
 NSgBfM=   113   113   113   113   113 MxSgAt=    11 MxSgA2=    11.
 Leave Link  302 at Wed Aug  6 21:38:58 2025, MaxMem=   104857600 cpu:               0.1 elap:               0.1
 (Enter /Applications/g16/l303.exe)
 DipDrv:  MaxL=1.
 Leave Link  303 at Wed Aug  6 21:38:58 2025, MaxMem=   104857600 cpu:               0.0 elap:               0.0
 (Enter /Applications/g16/l401.exe)
 Initial guess from the checkpoint file:  "/Users/srak/g16_scratch/Gau-95628.chk"
 B after Tr=     0.000000    0.000000   -0.000000
         Rot=    0.999997   -0.002385    0.000095    0.000531 Ang=  -0.28 deg.
 Guess basis will be translated and rotated to current coordinates.
 JPrj=2 DoOrth=T DoCkMO=T.
 Generating alternative initial guess.
 ExpMin= 3.60D-02 ExpMax= 4.17D+03 ExpMxC= 6.27D+02 IAcc=3 IRadAn=         5 AccDes= 0.00D+00
 Harris functional with IExCor= 4639 and IRadAn=       5 diagonalized for initial guess.
 HarFok:  IExCor= 4639 AccDes= 0.00D+00 IRadAn=         5 IDoV= 1 UseB2=F ITyADJ=14
 ICtDFT=  3500011 ScaDFX=  1.000000  1.000000  1.000000  1.000000
 FoFCou: FMM=F IPFlag=           0 FMFlag=      100000 FMFlg1=           0
         NFxFlg=           0 DoJE=T BraDBF=F KetDBF=T FulRan=T
         wScrn=  0.000000 ICntrl=       500 IOpCl=  0 I1Cent=   200000004 NGrid=           0
         NMat0=    1 NMatS0=      1 NMatT0=    0 NMatD0=    1 NMtDS0=    0 NMtDT0=    0
 Petite list used in FoFCou.
 Harris En= -259.803131912449    
 Leave Link  401 at Wed Aug  6 21:38:58 2025, MaxMem=   104857600 cpu:               0.6 elap:               0.6
 (Enter /Applications/g16/l502.exe)
 Keep R1 ints in memory in canonical form, NReq=43174005.
 FoFCou: FMM=F IPFlag=           0 FMFlag=           0 FMFlg1=           0
         NFxFlg=           0 DoJE=F BraDBF=F KetDBF=F FulRan=T
         wScrn=  0.000000 ICntrl=       600 IOpCl=  0 I1Cent=           0 NGrid=           0
         NMat0=    1 NMatS0=   6441 NMatT0=    0 NMatD0=    1 NMtDS0=    0 NMtDT0=    0
 Symmetry not used in FoFCou.
 Two-electron integral symmetry not used.
 Closed shell SCF:
 Using DIIS extrapolation, IDIIS=  1040.
 NGot=   104857600 LenX=    63336875 LenY=    63323665
 Requested convergence on RMS density matrix=1.00D-08 within 128 cycles.
 Requested convergence on MAX density matrix=1.00D-06.
 Requested convergence on             energy=1.00D-06.
 No special actions if energy rises.

 Cycle   1  Pass 1  IDiag  1:
 E= -271.546214560091    
 DIIS: error= 1.36D-03 at cycle   1 NSaved=   1.
 NSaved= 1 IEnMin= 1 EnMin= -271.546214560091     IErMin= 1 ErrMin= 1.36D-03
 ErrMax= 1.36D-03  0.00D+00 EMaxC= 1.00D-01 BMatC= 3.76D-04 BMatP= 3.76D-04
 IDIUse=3 WtCom= 9.86D-01 WtEn= 1.36D-02
 Coeff-Com:  0.100D+01
 Coeff-En:   0.100D+01
 Coeff:      0.100D+01
 Gap=     2.093 Goal=   None    Shift=    0.000
 GapD=    2.093 DampG=2.000 DampE=1.000 DampFc=2.0000 IDamp=-1.
 RMSDP=2.22D-04 MaxDP=3.76D-03              OVMax= 6.29D-03

 Cycle   2  Pass 1  IDiag  1:
 E= -271.546841557328     Delta-E=       -0.000626997237 Rises=F Damp=F
 DIIS: error= 2.75D-04 at cycle   2 NSaved=   2.
 NSaved= 2 IEnMin= 2 EnMin= -271.546841557328     IErMin= 2 ErrMin= 2.75D-04
 ErrMax= 2.75D-04  0.00D+00 EMaxC= 1.00D-01 BMatC= 1.57D-05 BMatP= 3.76D-04
 IDIUse=3 WtCom= 9.97D-01 WtEn= 2.75D-03
 Coeff-Com: -0.172D+00 0.117D+01
 Coeff-En:   0.000D+00 0.100D+01
 Coeff:     -0.172D+00 0.117D+01
 Gap=     0.366 Goal=   None    Shift=    0.000
 RMSDP=6.87D-05 MaxDP=9.61D-04 DE=-6.27D-04 OVMax= 2.29D-03

 Cycle   3  Pass 1  IDiag  1:
 E= -271.546878537563     Delta-E=       -0.000036980235 Rises=F Damp=F
 DIIS: error= 1.05D-04 at cycle   3 NSaved=   3.
 NSaved= 3 IEnMin= 3 EnMin= -271.546878537563     IErMin= 3 ErrMin= 1.05D-04
 ErrMax= 1.05D-04  0.00D+00 EMaxC= 1.00D-01 BMatC= 2.08D-06 BMatP= 1.57D-05
 IDIUse=3 WtCom= 9.99D-01 WtEn= 1.05D-03
 Coeff-Com: -0.625D-01 0.308D+00 0.755D+00
 Coeff-En:   0.000D+00 0.000D+00 0.100D+01
 Coeff:     -0.625D-01 0.308D+00 0.755D+00
 Gap=     0.366 Goal=   None    Shift=    0.000
 RMSDP=1.79D-05 MaxDP=3.06D-04 DE=-3.70D-05 OVMax= 5.10D-04

 Cycle   4  Pass 1  IDiag  1:
 E= -271.546880184544     Delta-E=       -0.000001646981 Rises=F Damp=F
 DIIS: error= 8.04D-05 at cycle   4 NSaved=   4.
 NSaved= 4 IEnMin= 4 EnMin= -271.546880184544     IErMin= 4 ErrMin= 8.04D-05
 ErrMax= 8.04D-05  0.00D+00 EMaxC= 1.00D-01 BMatC= 1.15D-06 BMatP= 2.08D-06
 IDIUse=1 WtCom= 1.00D+00 WtEn= 0.00D+00
 Coeff-Com: -0.103D-01 0.133D-02 0.428D+00 0.581D+00
 Coeff:     -0.103D-01 0.133D-02 0.428D+00 0.581D+00
 Gap=     0.366 Goal=   None    Shift=    0.000
 RMSDP=9.09D-06 MaxDP=1.89D-04 DE=-1.65D-06 OVMax= 2.64D-04

 Cycle   5  Pass 1  IDiag  1:
 E= -271.546881210651     Delta-E=       -0.000001026107 Rises=F Damp=F
 DIIS: error= 2.04D-05 at cycle   5 NSaved=   5.
 NSaved= 5 IEnMin= 5 EnMin= -271.546881210651     IErMin= 5 ErrMin= 2.04D-05
 ErrMax= 2.04D-05  0.00D+00 EMaxC= 1.00D-01 BMatC= 8.51D-08 BMatP= 1.15D-06
 IDIUse=1 WtCom= 1.00D+00 WtEn= 0.00D+00
 Coeff-Com:  0.761D-02-0.587D-01 0.309D-01 0.230D+00 0.790D+00
 Coeff:      0.761D-02-0.587D-01 0.309D-01 0.230D+00 0.790D+00
 Gap=     0.366 Goal=   None    Shift=    0.000
 RMSDP=3.16D-06 MaxDP=5.63D-05 DE=-1.03D-06 OVMax= 1.31D-04

 Cycle   6  Pass 1  IDiag  1:
 E= -271.546881310458     Delta-E=       -0.000000099807 Rises=F Damp=F
 DIIS: error= 4.74D-06 at cycle   6 NSaved=   6.
 NSaved= 6 IEnMin= 6 EnMin= -271.546881310458     IErMin= 6 ErrMin= 4.74D-06
 ErrMax= 4.74D-06  0.00D+00 EMaxC= 1.00D-01 BMatC= 4.97D-09 BMatP= 8.51D-08
 IDIUse=1 WtCom= 1.00D+00 WtEn= 0.00D+00
 Coeff-Com:  0.323D-02-0.187D-01-0.241D-01 0.251D-01 0.245D+00 0.770D+00
 Coeff:      0.323D-02-0.187D-01-0.241D-01 0.251D-01 0.245D+00 0.770D+00
 Gap=     0.366 Goal=   None    Shift=    0.000
 RMSDP=7.70D-07 MaxDP=1.44D-05 DE=-9.98D-08 OVMax= 3.62D-05

 Cycle   7  Pass 1  IDiag  1:
 E= -271.546881316868     Delta-E=       -0.000000006409 Rises=F Damp=F
 DIIS: error= 1.41D-06 at cycle   7 NSaved=   7.
 NSaved= 7 IEnMin= 7 EnMin= -271.546881316868     IErMin= 7 ErrMin= 1.41D-06
 ErrMax= 1.41D-06  0.00D+00 EMaxC= 1.00D-01 BMatC= 2.90D-10 BMatP= 4.97D-09
 IDIUse=1 WtCom= 1.00D+00 WtEn= 0.00D+00
 Coeff-Com: -0.241D-03 0.276D-02-0.628D-02-0.183D-01-0.399D-01 0.117D+00
 Coeff-Com:  0.945D+00
 Coeff:     -0.241D-03 0.276D-02-0.628D-02-0.183D-01-0.399D-01 0.117D+00
 Coeff:      0.945D+00
 Gap=     0.366 Goal=   None    Shift=    0.000
 RMSDP=3.09D-07 MaxDP=6.20D-06 DE=-6.41D-09 OVMax= 1.45D-05

 Cycle   8  Pass 1  IDiag  1:
 E= -271.546881317228     Delta-E=       -0.000000000360 Rises=F Damp=F
 DIIS: error= 1.09D-06 at cycle   8 NSaved=   8.
 NSaved= 8 IEnMin= 8 EnMin= -271.546881317228     IErMin= 8 ErrMin= 1.09D-06
 ErrMax= 1.09D-06  0.00D+00 EMaxC= 1.00D-01 BMatC= 1.77D-10 BMatP= 2.90D-10
 IDIUse=1 WtCom= 1.00D+00 WtEn= 0.00D+00
 Coeff-Com: -0.368D-03 0.294D-02-0.199D-02-0.125D-01-0.409D-01 0.126D-01
 Coeff-Com:  0.560D+00 0.480D+00
 Coeff:     -0.368D-03 0.294D-02-0.199D-02-0.125D-01-0.409D-01 0.126D-01
 Coeff:      0.560D+00 0.480D+00
 Gap=     0.366 Goal=   None    Shift=    0.000
 RMSDP=1.07D-07 MaxDP=2.20D-06 DE=-3.60D-10 OVMax= 3.55D-06

 Cycle   9  Pass 1  IDiag  1:
 E= -271.546881317384     Delta-E=       -0.000000000156 Rises=F Damp=F
 DIIS: error= 2.17D-07 at cycle   9 NSaved=   9.
 NSaved= 9 IEnMin= 9 EnMin= -271.546881317384     IErMin= 9 ErrMin= 2.17D-07
 ErrMax= 2.17D-07  0.00D+00 EMaxC= 1.00D-01 BMatC= 6.67D-12 BMatP= 1.77D-10
 IDIUse=1 WtCom= 1.00D+00 WtEn= 0.00D+00
 Coeff-Com: -0.635D-04 0.355D-03 0.633D-03-0.181D-03-0.462D-02-0.191D-01
 Coeff-Com: -0.163D-01 0.147D+00 0.892D+00
 Coeff:     -0.635D-04 0.355D-03 0.633D-03-0.181D-03-0.462D-02-0.191D-01
 Coeff:     -0.163D-01 0.147D+00 0.892D+00
 Gap=     0.366 Goal=   None    Shift=    0.000
 RMSDP=3.66D-08 MaxDP=4.97D-07 DE=-1.56D-10 OVMax= 1.26D-06

 Cycle  10  Pass 1  IDiag  1:
 E= -271.546881317392     Delta-E=       -0.000000000009 Rises=F Damp=F
 DIIS: error= 2.43D-08 at cycle  10 NSaved=  10.
 NSaved=10 IEnMin=10 EnMin= -271.546881317392     IErMin=10 ErrMin= 2.43D-08
 ErrMax= 2.43D-08  0.00D+00 EMaxC= 1.00D-01 BMatC= 1.52D-13 BMatP= 6.67D-12
 IDIUse=1 WtCom= 1.00D+00 WtEn= 0.00D+00
 Coeff-Com:  0.125D-04-0.125D-03 0.225D-03 0.725D-03 0.173D-02-0.364D-02
 Coeff-Com: -0.352D-01-0.644D-02 0.133D+00 0.910D+00
 Coeff:      0.125D-04-0.125D-03 0.225D-03 0.725D-03 0.173D-02-0.364D-02
 Coeff:     -0.352D-01-0.644D-02 0.133D+00 0.910D+00
 Gap=     0.366 Goal=   None    Shift=    0.000
 RMSDP=7.88D-09 MaxDP=7.97D-08 DE=-8.53D-12 OVMax= 2.25D-07

 SCF Done:  E(RwB97XD) =  -271.546881317     A.U. after   10 cycles
            NFock= 10  Conv=0.79D-08     -V/T= 2.0096
 KE= 2.689613164614D+02 PE=-1.010718809291D+03 EE= 2.769935141356D+02
 Leave Link  502 at Wed Aug  6 21:39:05 2025, MaxMem=   104857600 cpu:               6.4 elap:               6.4
 (Enter /Applications/g16/l701.exe)
 ... and contract with generalized density number  0.
 Compute integral first derivatives.
 R6Disp: Adding Grimme-D2 dispersion energy 1st derivatives to the gradient.
 Leave Link  701 at Wed Aug  6 21:39:05 2025, MaxMem=   104857600 cpu:               0.0 elap:               0.0
 (Enter /Applications/g16/l702.exe)
 L702 exits ... SP integral derivatives will be done elsewhere.
 Leave Link  702 at Wed Aug  6 21:39:05 2025, MaxMem=   104857600 cpu:               0.0 elap:               0.0
 (Enter /Applications/g16/l703.exe)
 Integral derivatives from FoFJK, PRISM(SPDF).
 Compute integral first derivatives, UseDBF=F ICtDFT=           0.
 Calling FoFJK, ICntrl=      2127 FMM=F ISym2X=0 I1Cent= 0 IOpClX= 0 NMat=1 NMatS=1 NMatT=0.
 FoFJK:  IHMeth= 1 ICntrl=    2127 DoSepK=T KAlg= 0 I1Cent=           0 FoldK=F
 IRaf=         1 NMat=       1 IRICut=       1 DoRegI=T DoRafI=F ISym2E= 0 IDoP0=0 IntGTp=1.
 FoFCou: FMM=F IPFlag=           0 FMFlag=      100000 FMFlg1=         800
         NFxFlg=           0 DoJE=F BraDBF=F KetDBF=F FulRan=T
         wScrn=  0.000000 ICntrl=      2527 IOpCl=  0 I1Cent=           0 NGrid=           0
         NMat0=    1 NMatS0=      1 NMatT0=    0 NMatD0=    1 NMtDS0=    0 NMtDT0=    0
 Symmetry not used in FoFCou.
 Leave Link  703 at Wed Aug  6 21:39:07 2025, MaxMem=   104857600 cpu:               2.4 elap:               2.4
 (Enter /Applications/g16/l716.exe)
 Dipole        = 8.36135351D+00 7.77460296D-01-3.11684888D-02
 ***** Axes restored to original set *****
 -------------------------------------------------------------------
 Center     Atomic                   Forces (Hartrees/Bohr)
 Number     Number              X              Y              Z
 -------------------------------------------------------------------
      1        7           0.000134420   -0.000015650   -0.000035454
      2        6           0.000177855   -0.000058861    0.000083933
      3        6           0.000014796   -0.000373290   -0.000051714
      4        6           0.000029723    0.000086874   -0.000083502
      5        6          -0.000928919    0.000435223    0.000060737
      6        7           0.015736502   -0.004012993    0.000249111
      7        1           0.000391871    0.000109271   -0.000140363
      8        1           0.000412815    0.000106780    0.000137695
      9        1          -0.000134889   -0.000118085   -0.000057119
     10        1          -0.000161546   -0.000116208    0.000056378
     11        3          -0.015672629    0.003956940   -0.000219703
 -------------------------------------------------------------------
 Cartesian Forces:  Max     0.015736502 RMS     0.003995756
 Leave Link  716 at Wed Aug  6 21:39:07 2025, MaxMem=   104857600 cpu:               0.0 elap:               0.0
 (Enter /Applications/g16/l103.exe)

 GradGradGradGradGradGradGradGradGradGradGradGradGradGradGradGradGradGrad
 Berny optimization.
 Using GEDIIS/GDIIS optimizer.
 FormGI is forming the generalized inverse of G from B-inverse, IUseBI=4.
 Internal  Forces:  Max     0.016165793 RMS     0.002669119
 Search for a local minimum.
 Step number   3 out of a maximum of   47
 All quantities printed in internal units (Hartrees-Bohrs-Radians)
 RMS Force = .25069D-03 SwitMx=.10000D-02 MixMth= 2
 Mixed Optimization -- En-DIIS/RFO-DIIS
 Swapping is turned off.
 Update second derivatives using D2CorX and points    1    2    3
 DE= -8.14D-05 DEPred=-9.33D-05 R= 8.72D-01
 TightC=F SS=  1.41D+00  RLast= 9.79D-02 DXNew= 2.5227D-01 2.9360D-01
 Trust test= 8.72D-01 RLast= 9.79D-02 DXMaxT set to 2.52D-01
 ITU=  1 -1  0
     Eigenvalues ---    0.00230   0.00253   0.01249   0.01266   0.01779
     Eigenvalues ---    0.04902   0.05340   0.05578   0.05795   0.05851
     Eigenvalues ---    0.06269   0.15445   0.16000   0.16001   0.17467
     Eigenvalues ---    0.19963   0.22332   0.28207   0.34018   0.34201
     Eigenvalues ---    0.34337   0.34370   0.36431   0.37980   1.30388
     Eigenvalues ---    1.307791000.000001000.000001000.000001000.00000
     Eigenvalues --- 1000.000001000.000001000.000001000.000001000.00000
     Eigenvalues --- 1000.000001000.00000
 En-DIIS/RFO-DIIS/Sim-DIIS IScMMF=       -3 using points:     3    2    1
 RFO step:  Lambda=-1.41164166D-05.
 NNeg= 0 NGDIIS= 3 SimSw=  2.50D-03 Rises=F DC= -8.14D-05 SmlDif=  1.00D-05
 NRisDI= 0 DoIntr=F SqrtH=F CThrHd= 10.0 CDAdj=  3.0
 RMS Error=  0.5244275319D-02 NUsed= 3 OKEnD=T EnDIS=F
 InvSVX:  RCond= 3.14D-04 Info=           0 Equed=N FErr=  1.82D-15 BErr=  4.34D-17
 DidBck=T Rises=F RFO-DIIS coefs:    0.00094    0.11610    0.88297
 Iteration  1 RMS(Cart)=  0.01113185 RMS(Int)=  0.00011139
 Iteration  2 RMS(Cart)=  0.00019739 RMS(Int)=  0.00000520
 Iteration  3 RMS(Cart)=  0.00000003 RMS(Int)=  0.00000520
 Iteration  1 RMS(Cart)=  0.00000000 RMS(Int)=  0.00000000
 ITry= 1 IFail=0 DXMaxC= 4.49D-02 DCOld= 1.00D+10 DXMaxT= 2.52D-01 DXLimC= 3.00D+00 Rises=F
 Variable       Old X    -DE/DX   Delta X   Delta X   Delta X     New X
                                 (Linear)    (Quad)   (Total)
    R1        2.18473  -0.00013  -0.00025   0.00017  -0.00008   2.18466
    R2        2.76497  -0.00032  -0.00103   0.00046  -0.00057   2.76440
    R3        2.92077   0.00051   0.00363  -0.00229   0.00133   2.92210
    R4        2.06747   0.00009   0.00017  -0.00001   0.00016   2.06763
    R5        2.06747   0.00009   0.00017  -0.00001   0.00015   2.06763
    R6        2.76560  -0.00094  -0.00548   0.00361  -0.00187   2.76373
    R7        2.06877   0.00011   0.00106  -0.00079   0.00027   2.06904
    R8        2.06877   0.00011   0.00106  -0.00080   0.00027   2.06904
    R9        2.18229   0.00008   0.00045  -0.00037   0.00008   2.18237
   R10        4.72432  -0.01617   0.00000   0.00000  -0.00000   4.72432
    A1        1.91586  -0.00022  -0.00550   0.00433  -0.00117   1.91470
    A2        1.90344  -0.00004   0.00030  -0.00071  -0.00040   1.90304
    A3        1.90355  -0.00007   0.00019  -0.00081  -0.00062   1.90292
    A4        1.92897   0.00022   0.00162  -0.00061   0.00102   1.92999
    A5        1.92896   0.00024   0.00164  -0.00061   0.00103   1.92998
    A6        1.88246  -0.00014   0.00186  -0.00172   0.00014   1.88260
    A7        1.95239  -0.00004   0.00095  -0.00139  -0.00044   1.95196
    A8        1.92818   0.00039   0.00425  -0.00226   0.00200   1.93018
    A9        1.92818   0.00041   0.00425  -0.00225   0.00201   1.93019
   A10        1.88911  -0.00030  -0.00569   0.00353  -0.00215   1.88695
   A11        1.88915  -0.00032  -0.00573   0.00343  -0.00230   1.88685
   A12        1.87447  -0.00017   0.00157  -0.00083   0.00076   1.87523
   A13        3.11664  -0.00003  -0.00181  -0.00026  -0.00208   3.11456
   A14        3.13768   0.00006   0.00131  -0.00135  -0.00004   3.13764
   A15        3.18187   0.00016   0.00814   0.00048   0.00862   3.19050
   A16        3.15383   0.00008   0.00246   0.00153   0.00399   3.15782
   A17        3.14045  -0.00014  -0.00038  -0.00128  -0.00166   3.13880
   A18        3.19730  -0.00012  -0.02287  -0.00843  -0.03130   3.16599
    D1       -3.14135  -0.00002  -0.00025  -0.00025  -0.00050   3.14133
    D2       -1.03560  -0.00015  -0.00391   0.00174  -0.00216  -1.03776
    D3        1.03603   0.00014   0.00346  -0.00213   0.00133   1.03736
    D4       -1.04110  -0.00007  -0.00239   0.00128  -0.00111  -1.04222
    D5        1.06464  -0.00021  -0.00605   0.00327  -0.00277   1.06188
    D6        3.13628   0.00009   0.00133  -0.00060   0.00072   3.13700
    D7        1.04146   0.00006   0.00202  -0.00165   0.00037   1.04183
    D8       -3.13597  -0.00008  -0.00164   0.00035  -0.00128  -3.13726
    D9       -1.06434   0.00022   0.00573  -0.00353   0.00220  -1.06214
         Item               Value     Threshold  Converged?
 Maximum Force            0.000937     0.000450     NO 
 RMS     Force            0.000251     0.000300     YES
 Maximum Displacement     0.044904     0.001800     NO 
 RMS     Displacement     0.011190     0.001200     NO 
 Predicted change in Energy=-6.925488D-06
 Lowest energy point so far.  Saving SCF results.
 GradGradGradGradGradGradGradGradGradGradGradGradGradGradGradGradGradGrad

 Leave Link  103 at Wed Aug  6 21:39:07 2025, MaxMem=   104857600 cpu:               0.0 elap:               0.0
 (Enter /Applications/g16/l202.exe)
                          Input orientation:                          
 ---------------------------------------------------------------------
 Center     Atomic      Atomic             Coordinates (Angstroms)
 Number     Number       Type             X           Y           Z
 ---------------------------------------------------------------------
      1          7           0       -2.973308    0.257486   -0.005199
      2          6           0       -1.891322   -0.149689   -0.001699
      3          6           0       -0.507349   -0.623569    0.000920
      4          6           0        0.457478    0.584811    0.001131
      5          6           0        1.857803    0.162917    0.004080
      6          7           0        2.962051   -0.175215    0.005939
      7          1           0        0.292092    1.209768   -0.882532
      8          1           0        0.289116    1.211851    0.882752
      9          1           0       -0.342111   -1.247519   -0.882559
     10          1           0       -0.344921   -1.245577    0.886284
     11          3           0        5.386324   -0.785710   -0.008121
 ---------------------------------------------------------------------
                    Distance matrix (angstroms):
                    1          2          3          4          5
     1  N    0.000000
     2  C    1.156070   0.000000
     3  C    2.618635   1.462857   0.000000
     4  C    3.446371   2.460967   1.546310   0.000000
     5  C    4.832045   3.762139   2.492492   1.462503   0.000000
     6  N    5.951122   4.853447   3.498255   2.617356   1.154860
     7  H    3.512747   2.718692   2.186486   1.094891   2.081689
     8  H    3.513215   2.718521   2.186493   1.094888   2.081612
     9  H    3.155630   2.093132   1.094145   2.185791   2.759543
    10  H    3.156320   2.093046   1.094141   2.185786   2.759372
    11  Li   8.424471   7.305388   5.895910   5.115852   3.653834
                    6          7          8          9         10
     6  N    0.000000
     7  H    3.136278   0.000000
     8  H    3.136453   1.765288   0.000000
     9  H    3.585631   2.537809   3.092454   0.000000
    10  H    3.585631   3.092445   2.537906   1.768846   0.000000
    11  Li   2.500000   5.540553   5.546660   5.813164   5.818815
                   11
    11  Li   0.000000
 Stoichiometry    C4H4LiN2(1+)
 Framework group  C1[X(C4H4LiN2)]
 Deg. of freedom    27
 Full point group                 C1      NOp   1
 RotChk:  IX=2 Diff= 8.26D-03
 Largest Abelian subgroup         C1      NOp   1
 Largest concise Abelian subgroup C1      NOp   1
                         Standard orientation:                         
 ---------------------------------------------------------------------
 Center     Atomic      Atomic             Coordinates (Angstroms)
 Number     Number       Type             X           Y           Z
 ---------------------------------------------------------------------
      1          7           0       -3.328415   -0.128683    0.003603
      2          6           0       -2.226668    0.221517    0.000181
      3          6           0       -0.819868    0.622587   -0.002258
      4          6           0        0.080640   -0.634455    0.000271
      5          6           0        1.501060   -0.286153   -0.002397
      6          7           0        2.621438   -0.006061   -0.004044
      7          1           0       -0.117657   -1.248405    0.884878
      8          1           0       -0.119639   -1.253391   -0.880402
      9          1           0       -0.622870    1.238603    0.880278
     10          1           0       -0.624678    1.233744   -0.888561
     11          3           0        5.074236    0.477226    0.010704
 ---------------------------------------------------------------------
 Rotational constants (GHZ):          22.7273877           0.9532427           0.9254192
 Leave Link  202 at Wed Aug  6 21:39:07 2025, MaxMem=   104857600 cpu:               0.0 elap:               0.0
 (Enter /Applications/g16/l301.exe)
 Standard basis: 6-31G(d) (6D, 7F)
 Ernie: Thresh=  0.10000D-02 Tol=  0.10000D-05 Strict=F.
 There are   113 symmetry adapted cartesian basis functions of A   symmetry.
 There are   113 symmetry adapted basis functions of A   symmetry.
   113 basis functions,   212 primitive gaussians,   113 cartesian basis functions
    22 alpha electrons       22 beta electrons
       nuclear repulsion energy       193.2519566895 Hartrees.
 IExCor= 4639 DFT=T Ex+Corr=wB97XD ExCW=0 ScaHFX=  1.000000
 ScaDFX=  1.000000  1.000000  1.000000  1.000000 ScalE2=  1.000000  1.000000
 IRadAn=      5 IRanWt=     -1 IRanGd=            0 ICorTp=0 IEmpDi=121
 HFx  wShort=  0.000000 wLong=  0.200000 cFull=  0.222036 cShort=  0.000000 cLong=  0.777964
 DFx  wShort=  0.000000 wLong=  0.200000 cFull=  0.000000 cShort=  0.000000 cLong=  1.000000
 NAtoms=   11 NActive=   11 NUniq=   11 SFac= 1.00D+00 NAtFMM=   60 NAOKFM=F Big=F
 Integral buffers will be    131072 words long.
 Raffenetti 2 integral format.
 Two-electron integral symmetry is turned on.
 R6Disp:  Grimme-D2 Dispersion energy=       -0.0048268981 Hartrees.
 Nuclear repulsion after empirical dispersion term =      193.2471297914 Hartrees.
 Leave Link  301 at Wed Aug  6 21:39:07 2025, MaxMem=   104857600 cpu:               0.0 elap:               0.0
 (Enter /Applications/g16/l302.exe)
 NPDir=0 NMtPBC=     1 NCelOv=     1 NCel=       1 NClECP=     1 NCelD=      1
         NCelK=      1 NCelE2=     1 NClLst=     1 CellRange=     0.0.
 One-electron integrals computed using PRISM.
 One-electron integral symmetry used in STVInt
 NBasis=   113 RedAO= T EigKep=  9.11D-04  NBF=   113
 NBsUse=   113 1.00D-06 EigRej= -1.00D+00 NBFU=   113
 Precomputing XC quadrature grid using
 IXCGrd= 4 IRadAn=           5 IRanWt=          -1 IRanGd=           0 AccXCQ= 0.00D+00.
 Generated NRdTot=       0 NPtTot=           0 NUsed=           0 NTot=          32
 NSgBfM=   113   113   113   113   113 MxSgAt=    11 MxSgA2=    11.
 Leave Link  302 at Wed Aug  6 21:39:07 2025, MaxMem=   104857600 cpu:               0.1 elap:               0.1
 (Enter /Applications/g16/l303.exe)
 DipDrv:  MaxL=1.
 Leave Link  303 at Wed Aug  6 21:39:07 2025, MaxMem=   104857600 cpu:               0.0 elap:               0.0
 (Enter /Applications/g16/l401.exe)
 Initial guess from the checkpoint file:  "/Users/srak/g16_scratch/Gau-95628.chk"
 B after Tr=    -0.000000   -0.000000   -0.000000
         Rot=    0.999999    0.001576   -0.000038   -0.000010 Ang=   0.18 deg.
 Guess basis will be translated and rotated to current coordinates.
 JPrj=2 DoOrth=T DoCkMO=T.
 Generating alternative initial guess.
 ExpMin= 3.60D-02 ExpMax= 4.17D+03 ExpMxC= 6.27D+02 IAcc=3 IRadAn=         5 AccDes= 0.00D+00
 Harris functional with IExCor= 4639 and IRadAn=       5 diagonalized for initial guess.
 HarFok:  IExCor= 4639 AccDes= 0.00D+00 IRadAn=         5 IDoV= 1 UseB2=F ITyADJ=14
 ICtDFT=  3500011 ScaDFX=  1.000000  1.000000  1.000000  1.000000
 FoFCou: FMM=F IPFlag=           0 FMFlag=      100000 FMFlg1=           0
         NFxFlg=           0 DoJE=T BraDBF=F KetDBF=T FulRan=T
         wScrn=  0.000000 ICntrl=       500 IOpCl=  0 I1Cent=   200000004 NGrid=           0
         NMat0=    1 NMatS0=      1 NMatT0=    0 NMatD0=    1 NMtDS0=    0 NMtDT0=    0
 Petite list used in FoFCou.
 Harris En= -259.803053299286    
 Leave Link  401 at Wed Aug  6 21:39:08 2025, MaxMem=   104857600 cpu:               0.6 elap:               0.6
 (Enter /Applications/g16/l502.exe)
 Keep R1 ints in memory in canonical form, NReq=43174005.
 FoFCou: FMM=F IPFlag=           0 FMFlag=           0 FMFlg1=           0
         NFxFlg=           0 DoJE=F BraDBF=F KetDBF=F FulRan=T
         wScrn=  0.000000 ICntrl=       600 IOpCl=  0 I1Cent=           0 NGrid=           0
         NMat0=    1 NMatS0=   6441 NMatT0=    0 NMatD0=    1 NMtDS0=    0 NMtDT0=    0
 Symmetry not used in FoFCou.
 Two-electron integral symmetry not used.
 Closed shell SCF:
 Using DIIS extrapolation, IDIIS=  1040.
 NGot=   104857600 LenX=    63336875 LenY=    63323665
 Requested convergence on RMS density matrix=1.00D-08 within 128 cycles.
 Requested convergence on MAX density matrix=1.00D-06.
 Requested convergence on             energy=1.00D-06.
 No special actions if energy rises.

 Cycle   1  Pass 1  IDiag  1:
 E= -271.546823522390    
 DIIS: error= 5.72D-04 at cycle   1 NSaved=   1.
 NSaved= 1 IEnMin= 1 EnMin= -271.546823522390     IErMin= 1 ErrMin= 5.72D-04
 ErrMax= 5.72D-04  0.00D+00 EMaxC= 1.00D-01 BMatC= 3.63D-05 BMatP= 3.63D-05
 IDIUse=3 WtCom= 9.94D-01 WtEn= 5.72D-03
 Coeff-Com:  0.100D+01
 Coeff-En:   0.100D+01
 Coeff:      0.100D+01
 Gap=     2.095 Goal=   None    Shift=    0.000
 RMSDP=6.78D-05 MaxDP=1.75D-03              OVMax= 2.40D-03

 Cycle   2  Pass 1  IDiag  1:
 E= -271.546883049686     Delta-E=       -0.000059527296 Rises=F Damp=F
 DIIS: error= 1.24D-04 at cycle   2 NSaved=   2.
 NSaved= 2 IEnMin= 2 EnMin= -271.546883049686     IErMin= 2 ErrMin= 1.24D-04
 ErrMax= 1.24D-04  0.00D+00 EMaxC= 1.00D-01 BMatC= 1.55D-06 BMatP= 3.63D-05
 IDIUse=3 WtCom= 9.99D-01 WtEn= 1.24D-03
 Coeff-Com: -0.178D+00 0.118D+01
 Coeff-En:   0.000D+00 0.100D+01
 Coeff:     -0.178D+00 0.118D+01
 Gap=     0.366 Goal=   None    Shift=    0.000
 RMSDP=2.14D-05 MaxDP=4.62D-04 DE=-5.95D-05 OVMax= 9.10D-04

 Cycle   3  Pass 1  IDiag  1:
 E= -271.546886623037     Delta-E=       -0.000003573352 Rises=F Damp=F
 DIIS: error= 4.51D-05 at cycle   3 NSaved=   3.
 NSaved= 3 IEnMin= 3 EnMin= -271.546886623037     IErMin= 3 ErrMin= 4.51D-05
 ErrMax= 4.51D-05  0.00D+00 EMaxC= 1.00D-01 BMatC= 2.94D-07 BMatP= 1.55D-06
 IDIUse=1 WtCom= 1.00D+00 WtEn= 0.00D+00
 Coeff-Com: -0.741D-01 0.386D+00 0.688D+00
 Coeff:     -0.741D-01 0.386D+00 0.688D+00
 Gap=     0.366 Goal=   None    Shift=    0.000
 RMSDP=5.94D-06 MaxDP=1.57D-04 DE=-3.57D-06 OVMax= 2.32D-04

 Cycle   4  Pass 1  IDiag  1:
 E= -271.546886822518     Delta-E=       -0.000000199480 Rises=F Damp=F
 DIIS: error= 3.40D-05 at cycle   4 NSaved=   4.
 NSaved= 4 IEnMin= 4 EnMin= -271.546886822518     IErMin= 4 ErrMin= 3.40D-05
 ErrMax= 3.40D-05  0.00D+00 EMaxC= 1.00D-01 BMatC= 1.56D-07 BMatP= 2.94D-07
 IDIUse=1 WtCom= 1.00D+00 WtEn= 0.00D+00
 Coeff-Com: -0.190D-02-0.486D-01 0.425D+00 0.625D+00
 Coeff:     -0.190D-02-0.486D-01 0.425D+00 0.625D+00
 Gap=     0.366 Goal=   None    Shift=    0.000
 RMSDP=3.12D-06 MaxDP=8.22D-05 DE=-1.99D-07 OVMax= 1.19D-04

 Cycle   5  Pass 1  IDiag  1:
 E= -271.546886969928     Delta-E=       -0.000000147410 Rises=F Damp=F
 DIIS: error= 4.05D-06 at cycle   5 NSaved=   5.
 NSaved= 5 IEnMin= 5 EnMin= -271.546886969928     IErMin= 5 ErrMin= 4.05D-06
 ErrMax= 4.05D-06  0.00D+00 EMaxC= 1.00D-01 BMatC= 4.84D-09 BMatP= 1.56D-07
 IDIUse=1 WtCom= 1.00D+00 WtEn= 0.00D+00
 Coeff-Com:  0.910D-02-0.648D-01 0.263D-01 0.165D+00 0.864D+00
 Coeff:      0.910D-02-0.648D-01 0.263D-01 0.165D+00 0.864D+00
 Gap=     0.366 Goal=   None    Shift=    0.000
 RMSDP=9.06D-07 MaxDP=1.25D-05 DE=-1.47D-07 OVMax= 4.74D-05

 Cycle   6  Pass 1  IDiag  1:
 E= -271.546886977060     Delta-E=       -0.000000007132 Rises=F Damp=F
 DIIS: error= 1.61D-06 at cycle   6 NSaved=   6.
 NSaved= 6 IEnMin= 6 EnMin= -271.546886977060     IErMin= 6 ErrMin= 1.61D-06
 ErrMax= 1.61D-06  0.00D+00 EMaxC= 1.00D-01 BMatC= 5.00D-10 BMatP= 4.84D-09
 IDIUse=1 WtCom= 1.00D+00 WtEn= 0.00D+00
 Coeff-Com:  0.338D-02-0.199D-01-0.183D-01 0.163D-01 0.291D+00 0.728D+00
 Coeff:      0.338D-02-0.199D-01-0.183D-01 0.163D-01 0.291D+00 0.728D+00
 Gap=     0.366 Goal=   None    Shift=    0.000
 RMSDP=2.80D-07 MaxDP=5.70D-06 DE=-7.13D-09 OVMax= 1.12D-05

 Cycle   7  Pass 1  IDiag  1:
 E= -271.546886977527     Delta-E=       -0.000000000467 Rises=F Damp=F
 DIIS: error= 1.27D-06 at cycle   7 NSaved=   7.
 NSaved= 7 IEnMin= 7 EnMin= -271.546886977527     IErMin= 7 ErrMin= 1.27D-06
 ErrMax= 1.27D-06  0.00D+00 EMaxC= 1.00D-01 BMatC= 1.86D-10 BMatP= 5.00D-10
 IDIUse=1 WtCom= 1.00D+00 WtEn= 0.00D+00
 Coeff-Com:  0.542D-03-0.160D-02-0.136D-01-0.145D-01 0.328D-01 0.403D+00
 Coeff-Com:  0.593D+00
 Coeff:      0.542D-03-0.160D-02-0.136D-01-0.145D-01 0.328D-01 0.403D+00
 Coeff:      0.593D+00
 Gap=     0.366 Goal=   None    Shift=    0.000
 RMSDP=1.30D-07 MaxDP=3.14D-06 DE=-4.67D-10 OVMax= 5.16D-06

 Cycle   8  Pass 1  IDiag  1:
 E= -271.546886977691     Delta-E=       -0.000000000163 Rises=F Damp=F
 DIIS: error= 3.64D-07 at cycle   8 NSaved=   8.
 NSaved= 8 IEnMin= 8 EnMin= -271.546886977691     IErMin= 8 ErrMin= 3.64D-07
 ErrMax= 3.64D-07  0.00D+00 EMaxC= 1.00D-01 BMatC= 1.93D-11 BMatP= 1.86D-10
 IDIUse=1 WtCom= 1.00D+00 WtEn= 0.00D+00
 Coeff-Com: -0.329D-03 0.273D-02-0.302D-02-0.937D-02-0.364D-01 0.659D-01
 Coeff-Com:  0.284D+00 0.697D+00
 Coeff:     -0.329D-03 0.273D-02-0.302D-02-0.937D-02-0.364D-01 0.659D-01
 Coeff:      0.284D+00 0.697D+00
 Gap=     0.366 Goal=   None    Shift=    0.000
 RMSDP=4.33D-08 MaxDP=8.75D-07 DE=-1.63D-10 OVMax= 1.50D-06

 Cycle   9  Pass 1  IDiag  1:
 E= -271.546886977709     Delta-E=       -0.000000000019 Rises=F Damp=F
 DIIS: error= 4.02D-08 at cycle   9 NSaved=   9.
 NSaved= 9 IEnMin= 9 EnMin= -271.546886977709     IErMin= 9 ErrMin= 4.02D-08
 ErrMax= 4.02D-08  0.00D+00 EMaxC= 1.00D-01 BMatC= 3.81D-13 BMatP= 1.93D-11
 IDIUse=1 WtCom= 1.00D+00 WtEn= 0.00D+00
 Coeff-Com: -0.945D-04 0.573D-03 0.608D-03-0.468D-03-0.881D-02-0.208D-01
 Coeff-Com:  0.467D-02 0.118D+00 0.906D+00
 Coeff:     -0.945D-04 0.573D-03 0.608D-03-0.468D-03-0.881D-02-0.208D-01
 Coeff:      0.467D-02 0.118D+00 0.906D+00
 Gap=     0.366 Goal=   None    Shift=    0.000
 RMSDP=1.16D-08 MaxDP=1.54D-07 DE=-1.85D-11 OVMax= 3.39D-07

 Cycle  10  Pass 1  IDiag  1:
 E= -271.546886977712     Delta-E=       -0.000000000003 Rises=F Damp=F
 DIIS: error= 7.34D-09 at cycle  10 NSaved=  10.
 NSaved=10 IEnMin=10 EnMin= -271.546886977712     IErMin=10 ErrMin= 7.34D-09
 ErrMax= 7.34D-09  0.00D+00 EMaxC= 1.00D-01 BMatC= 1.43D-14 BMatP= 3.81D-13
 IDIUse=1 WtCom= 1.00D+00 WtEn= 0.00D+00
 Coeff-Com:  0.116D-04-0.114D-03 0.230D-03 0.500D-03 0.134D-02-0.560D-02
 Coeff-Com: -0.159D-01-0.314D-01 0.640D-01 0.987D+00
 Coeff:      0.116D-04-0.114D-03 0.230D-03 0.500D-03 0.134D-02-0.560D-02
 Coeff:     -0.159D-01-0.314D-01 0.640D-01 0.987D+00
 Gap=     0.366 Goal=   None    Shift=    0.000
 RMSDP=3.21D-09 MaxDP=5.65D-08 DE=-2.96D-12 OVMax= 6.94D-08

 SCF Done:  E(RwB97XD) =  -271.546886978     A.U. after   10 cycles
            NFock= 10  Conv=0.32D-08     -V/T= 2.0096
 KE= 2.689623599647D+02 PE=-1.010780275568D+03 EE= 2.770238988339D+02
 Leave Link  502 at Wed Aug  6 21:39:14 2025, MaxMem=   104857600 cpu:               6.2 elap:               6.2
 (Enter /Applications/g16/l701.exe)
 ... and contract with generalized density number  0.
 Compute integral first derivatives.
 R6Disp: Adding Grimme-D2 dispersion energy 1st derivatives to the gradient.
 Leave Link  701 at Wed Aug  6 21:39:14 2025, MaxMem=   104857600 cpu:               0.0 elap:               0.0
 (Enter /Applications/g16/l702.exe)
 L702 exits ... SP integral derivatives will be done elsewhere.
 Leave Link  702 at Wed Aug  6 21:39:14 2025, MaxMem=   104857600 cpu:               0.0 elap:               0.0
 (Enter /Applications/g16/l703.exe)
 Integral derivatives from FoFJK, PRISM(SPDF).
 Compute integral first derivatives, UseDBF=F ICtDFT=           0.
 Calling FoFJK, ICntrl=      2127 FMM=F ISym2X=0 I1Cent= 0 IOpClX= 0 NMat=1 NMatS=1 NMatT=0.
 FoFJK:  IHMeth= 1 ICntrl=    2127 DoSepK=T KAlg= 0 I1Cent=           0 FoldK=F
 IRaf=         1 NMat=       1 IRICut=       1 DoRegI=T DoRafI=F ISym2E= 0 IDoP0=0 IntGTp=1.
 FoFCou: FMM=F IPFlag=           0 FMFlag=      100000 FMFlg1=         800
         NFxFlg=           0 DoJE=F BraDBF=F KetDBF=F FulRan=T
         wScrn=  0.000000 ICntrl=      2527 IOpCl=  0 I1Cent=           0 NGrid=           0
         NMat0=    1 NMatS0=      1 NMatT0=    0 NMatD0=    1 NMtDS0=    0 NMtDT0=    0
 Symmetry not used in FoFCou.
 Leave Link  703 at Wed Aug  6 21:39:16 2025, MaxMem=   104857600 cpu:               2.4 elap:               2.4
 (Enter /Applications/g16/l716.exe)
 Dipole        = 8.35852423D+00 7.79336189D-01 1.77852572D-02
 ***** Axes restored to original set *****
 -------------------------------------------------------------------
 Center     Atomic                   Forces (Hartrees/Bohr)
 Number     Number              X              Y              Z
 -------------------------------------------------------------------
      1        7          -0.000010439   -0.000077628    0.000046180
      2        6           0.000078405    0.000159561   -0.000105392
      3        6           0.000001880   -0.000108567    0.000061011
      4        6          -0.000033006    0.000022039    0.000049378
      5        6          -0.000178960    0.000015329   -0.000036030
      6        7           0.015705014   -0.003966363   -0.000140214
      7        1           0.000066525    0.000018627   -0.000026090
      8        1           0.000049736    0.000021746    0.000027565
      9        1          -0.000013015   -0.000020462   -0.000012451
     10        1           0.000016641   -0.000026595    0.000013347
     11        3          -0.015682782    0.003962313    0.000122695
 -------------------------------------------------------------------
 Cartesian Forces:  Max     0.015705014 RMS     0.003985500
 Leave Link  716 at Wed Aug  6 21:39:16 2025, MaxMem=   104857600 cpu:               0.0 elap:               0.0
 (Enter /Applications/g16/l103.exe)

 GradGradGradGradGradGradGradGradGradGradGradGradGradGradGradGradGradGrad
 Berny optimization.
 Using GEDIIS/GDIIS optimizer.
 FormGI is forming the generalized inverse of G from B-inverse, IUseBI=4.
 Internal  Forces:  Max     0.016176000 RMS     0.002659858
 Search for a local minimum.
 Step number   4 out of a maximum of   47
 All quantities printed in internal units (Hartrees-Bohrs-Radians)
 RMS Force = .54354D-04 SwitMx=.10000D-02 MixMth= 2
 Mixed Optimization -- En-DIIS/RFO-DIIS
 Swapping is turned off.
 Update second derivatives using D2CorX and points    1    2    3    4
 DE= -5.66D-06 DEPred=-6.93D-06 R= 8.17D-01
 TightC=F SS=  1.41D+00  RLast= 3.36D-02 DXNew= 4.2426D-01 1.0078D-01
 Trust test= 8.17D-01 RLast= 3.36D-02 DXMaxT set to 2.52D-01
 ITU=  1  1 -1  0
     Eigenvalues ---    0.00230   0.00372   0.01255   0.01742   0.01756
     Eigenvalues ---    0.05172   0.05347   0.05582   0.05735   0.05816
     Eigenvalues ---    0.06012   0.15507   0.15948   0.16000   0.16147
     Eigenvalues ---    0.20091   0.22327   0.28042   0.34037   0.34201
     Eigenvalues ---    0.34304   0.34338   0.36307   0.36700   1.30405
     Eigenvalues ---    1.307671000.000001000.000001000.000001000.00000
     Eigenvalues --- 1000.000001000.000001000.000001000.000001000.00000
     Eigenvalues --- 1000.000001000.00000
 En-DIIS/RFO-DIIS/Sim-DIIS IScMMF=       -3 using points:     4    3    2    1
 RFO step:  Lambda=-3.39807950D-06.
 NNeg= 0 NGDIIS= 4 SimSw=  2.50D-03 Rises=F DC= -5.66D-06 SmlDif=  1.00D-05
 NRisDI= 0 DoIntr=F SqrtH=F CThrHd= 10.0 CDAdj=  3.0
 RMS Error=  0.2742052337D-02 NUsed= 4 OKEnD=F EnDIS=F
 InvSVX:  RCond= 6.21D-04 Info=           0 Equed=N FErr=  3.19D-15 BErr=  4.54D-17
 DidBck=T Rises=F RFO-DIIS coefs:    0.32623    0.26907    0.06580    0.33889
 Iteration  1 RMS(Cart)=  0.00387685 RMS(Int)=  0.00001298
 Iteration  2 RMS(Cart)=  0.00002123 RMS(Int)=  0.00000114
 Iteration  3 RMS(Cart)=  0.00000000 RMS(Int)=  0.00000114
 Iteration  1 RMS(Cart)=  0.00000000 RMS(Int)=  0.00000000
 ITry= 1 IFail=0 DXMaxC= 1.45D-02 DCOld= 1.00D+10 DXMaxT= 2.52D-01 DXLimC= 3.00D+00 Rises=F
 Variable       Old X    -DE/DX   Delta X   Delta X   Delta X     New X
                                 (Linear)    (Quad)   (Total)
    R1        2.18466  -0.00002  -0.00005   0.00003  -0.00001   2.18464
    R2        2.76440  -0.00004  -0.00002  -0.00006  -0.00008   2.76432
    R3        2.92210   0.00001   0.00052  -0.00036   0.00016   2.92226
    R4        2.06763   0.00002  -0.00004   0.00007   0.00003   2.06766
    R5        2.06763   0.00003  -0.00004   0.00007   0.00004   2.06766
    R6        2.76373  -0.00015  -0.00089   0.00053  -0.00036   2.76337
    R7        2.06904   0.00002   0.00023  -0.00017   0.00006   2.06911
    R8        2.06904   0.00003   0.00024  -0.00017   0.00007   2.06911
    R9        2.18237   0.00002   0.00012  -0.00010   0.00002   2.18239
   R10        4.72432  -0.01618   0.00000   0.00000   0.00000   4.72432
    A1        1.91470  -0.00008  -0.00137   0.00104  -0.00033   1.91436
    A2        1.90304   0.00001   0.00039  -0.00043  -0.00004   1.90300
    A3        1.90292   0.00004   0.00050  -0.00041   0.00009   1.90301
    A4        1.92999   0.00003  -0.00005   0.00017   0.00012   1.93011
    A5        1.92998   0.00002  -0.00005   0.00017   0.00012   1.93011
    A6        1.88260  -0.00002   0.00064  -0.00059   0.00005   1.88265
    A7        1.95196  -0.00006   0.00067  -0.00078  -0.00011   1.95185
    A8        1.93018   0.00007   0.00032   0.00003   0.00035   1.93052
    A9        1.93019   0.00006   0.00031   0.00003   0.00034   1.93053
   A10        1.88695  -0.00004  -0.00077   0.00037  -0.00040   1.88655
   A11        1.88685  -0.00002  -0.00069   0.00037  -0.00033   1.88652
   A12        1.87523  -0.00003   0.00010   0.00003   0.00013   1.87536
   A13        3.11456   0.00011   0.00072   0.00216   0.00288   3.11744
   A14        3.13764   0.00001   0.00060  -0.00047   0.00013   3.13777
   A15        3.19050  -0.00001  -0.00061  -0.00008  -0.00069   3.18981
   A16        3.15782  -0.00013  -0.00175  -0.00150  -0.00326   3.15456
   A17        3.13880   0.00010   0.00097  -0.00038   0.00060   3.13939
   A18        3.16599   0.00009   0.01224  -0.00046   0.01178   3.17777
    D1        3.14133   0.00002   0.00024   0.00003   0.00027  -3.14159
    D2       -1.03776  -0.00002  -0.00008  -0.00000  -0.00008  -1.03784
    D3        1.03736   0.00004   0.00046   0.00006   0.00052   1.03788
    D4       -1.04222  -0.00000  -0.00019   0.00027   0.00008  -1.04214
    D5        1.06188  -0.00004  -0.00051   0.00024  -0.00027   1.06161
    D6        3.13700   0.00002   0.00003   0.00030   0.00033   3.13733
    D7        1.04183   0.00001   0.00054  -0.00025   0.00029   1.04213
    D8       -3.13726  -0.00003   0.00022  -0.00028  -0.00005  -3.13731
    D9       -1.06214   0.00003   0.00076  -0.00021   0.00055  -1.06159
         Item               Value     Threshold  Converged?
 Maximum Force            0.000154     0.000450     YES
 RMS     Force            0.000054     0.000300     YES
 Maximum Displacement     0.014484     0.001800     NO 
 RMS     Displacement     0.003877     0.001200     NO 
 Predicted change in Energy=-1.359294D-06
 Lowest energy point so far.  Saving SCF results.
 GradGradGradGradGradGradGradGradGradGradGradGradGradGradGradGradGradGrad

 Leave Link  103 at Wed Aug  6 21:39:16 2025, MaxMem=   104857600 cpu:               0.0 elap:               0.0
 (Enter /Applications/g16/l202.exe)
                          Input orientation:                          
 ---------------------------------------------------------------------
 Center     Atomic      Atomic             Coordinates (Angstroms)
 Number     Number       Type             X           Y           Z
 ---------------------------------------------------------------------
      1          7           0       -2.974343    0.256259   -0.000641
      2          6           0       -1.891266   -0.148000   -0.000295
      3          6           0       -0.507808   -0.623258    0.000245
      4          6           0        0.457884    0.584540    0.000044
      5          6           0        1.857700    0.161605    0.000566
      6          7           0        2.961802   -0.177053    0.000945
      7          1           0        0.292121    1.210414   -0.882941
      8          1           0        0.291691    1.211062    0.882489
      9          1           0       -0.344337   -1.246709   -0.883933
     10          1           0       -0.344785   -1.246051    0.884970
     11          3           0        5.387192   -0.783255   -0.000456
 ---------------------------------------------------------------------
                    Distance matrix (angstroms):
                    1          2          3          4          5
     1  N    0.000000
     2  C    1.156062   0.000000
     3  C    2.618653   1.462815   0.000000
     4  C    3.447891   2.460716   1.546395   0.000000
     5  C    4.832970   3.761729   2.492316   1.462313   0.000000
     6  N    5.951938   4.853155   3.498184   2.617179   1.154872
     7  H    3.515487   2.718737   2.186837   1.094924   2.081255
     8  H    3.515471   2.718760   2.186842   1.094924   2.081234
     9  H    3.155321   2.093077   1.094160   2.185966   2.759466
    10  H    3.155284   2.093088   1.094160   2.185964   2.759458
    11  Li   8.425903   7.306127   5.897171   5.115558   3.653775
                    6          7          8          9         10
     6  N    0.000000
     7  H    3.135843   0.000000
     8  H    3.135837   1.765429   0.000000
     9  H    3.585767   2.538214   3.092800   0.000000
    10  H    3.585773   3.092795   2.538211   1.768904   0.000000
    11  Li   2.500000   5.541952   5.542655   5.817709   5.818394
                   11
    11  Li   0.000000
 Stoichiometry    C4H4LiN2(1+)
 Framework group  C1[X(C4H4LiN2)]
 Deg. of freedom    27
 Full point group                 C1      NOp   1
 RotChk:  IX=1 Diff= 2.61D-03
 Largest Abelian subgroup         C1      NOp   1
 Largest concise Abelian subgroup C1      NOp   1
                         Standard orientation:                         
 ---------------------------------------------------------------------
 Center     Atomic      Atomic             Coordinates (Angstroms)
 Number     Number       Type             X           Y           Z
 ---------------------------------------------------------------------
      1          7           0       -3.329249   -0.127741    0.000745
      2          6           0       -2.226574    0.219519    0.000399
      3          6           0       -0.820226    0.622025   -0.000141
      4          6           0        0.081203   -0.634463    0.000060
      5          6           0        1.501160   -0.285061   -0.000461
      6          7           0        2.621412   -0.004410   -0.000840
      7          1           0       -0.116955   -1.250847    0.883045
      8          1           0       -0.117419   -1.251471   -0.882384
      9          1           0       -0.624483    1.236108    0.884038
     10          1           0       -0.624964    1.235475   -0.884865
     11          3           0        5.075100    0.474557    0.000561
 ---------------------------------------------------------------------
 Rotational constants (GHZ):          22.7778004           0.9529826           0.9252541
 Leave Link  202 at Wed Aug  6 21:39:16 2025, MaxMem=   104857600 cpu:               0.0 elap:               0.0
 (Enter /Applications/g16/l301.exe)
 Standard basis: 6-31G(d) (6D, 7F)
 Ernie: Thresh=  0.10000D-02 Tol=  0.10000D-05 Strict=F.
 There are   113 symmetry adapted cartesian basis functions of A   symmetry.
 There are   113 symmetry adapted basis functions of A   symmetry.
   113 basis functions,   212 primitive gaussians,   113 cartesian basis functions
    22 alpha electrons       22 beta electrons
       nuclear repulsion energy       193.2498335623 Hartrees.
 IExCor= 4639 DFT=T Ex+Corr=wB97XD ExCW=0 ScaHFX=  1.000000
 ScaDFX=  1.000000  1.000000  1.000000  1.000000 ScalE2=  1.000000  1.000000
 IRadAn=      5 IRanWt=     -1 IRanGd=            0 ICorTp=0 IEmpDi=121
 HFx  wShort=  0.000000 wLong=  0.200000 cFull=  0.222036 cShort=  0.000000 cLong=  0.777964
 DFx  wShort=  0.000000 wLong=  0.200000 cFull=  0.000000 cShort=  0.000000 cLong=  1.000000
 NAtoms=   11 NActive=   11 NUniq=   11 SFac= 1.00D+00 NAtFMM=   60 NAOKFM=F Big=F
 Integral buffers will be    131072 words long.
 Raffenetti 2 integral format.
 Two-electron integral symmetry is turned on.
 R6Disp:  Grimme-D2 Dispersion energy=       -0.0048264019 Hartrees.
 Nuclear repulsion after empirical dispersion term =      193.2450071604 Hartrees.
 Leave Link  301 at Wed Aug  6 21:39:16 2025, MaxMem=   104857600 cpu:               0.0 elap:               0.0
 (Enter /Applications/g16/l302.exe)
 NPDir=0 NMtPBC=     1 NCelOv=     1 NCel=       1 NClECP=     1 NCelD=      1
         NCelK=      1 NCelE2=     1 NClLst=     1 CellRange=     0.0.
 One-electron integrals computed using PRISM.
 One-electron integral symmetry used in STVInt
 NBasis=   113 RedAO= T EigKep=  9.09D-04  NBF=   113
 NBsUse=   113 1.00D-06 EigRej= -1.00D+00 NBFU=   113
 Precomputing XC quadrature grid using
 IXCGrd= 4 IRadAn=           5 IRanWt=          -1 IRanGd=           0 AccXCQ= 0.00D+00.
 Generated NRdTot=       0 NPtTot=           0 NUsed=           0 NTot=          32
 NSgBfM=   113   113   113   113   113 MxSgAt=    11 MxSgA2=    11.
 Leave Link  302 at Wed Aug  6 21:39:17 2025, MaxMem=   104857600 cpu:               0.1 elap:               0.1
 (Enter /Applications/g16/l303.exe)
 DipDrv:  MaxL=1.
 Leave Link  303 at Wed Aug  6 21:39:17 2025, MaxMem=   104857600 cpu:               0.0 elap:               0.0
 (Enter /Applications/g16/l401.exe)
 Initial guess from the checkpoint file:  "/Users/srak/g16_scratch/Gau-95628.chk"
 B after Tr=     0.000000    0.000000    0.000000
         Rot=    1.000000   -0.000489   -0.000053   -0.000029 Ang=  -0.06 deg.
 Guess basis will be translated and rotated to current coordinates.
 JPrj=2 DoOrth=T DoCkMO=T.
 Leave Link  401 at Wed Aug  6 21:39:17 2025, MaxMem=   104857600 cpu:               0.0 elap:               0.0
 (Enter /Applications/g16/l502.exe)
 Keep R1 ints in memory in canonical form, NReq=43174005.
 FoFCou: FMM=F IPFlag=           0 FMFlag=           0 FMFlg1=           0
         NFxFlg=           0 DoJE=F BraDBF=F KetDBF=F FulRan=T
         wScrn=  0.000000 ICntrl=       600 IOpCl=  0 I1Cent=           0 NGrid=           0
         NMat0=    1 NMatS0=   6441 NMatT0=    0 NMatD0=    1 NMtDS0=    0 NMtDT0=    0
 Symmetry not used in FoFCou.
 Two-electron integral symmetry not used.
 Closed shell SCF:
 Using DIIS extrapolation, IDIIS=  1040.
 NGot=   104857600 LenX=    63336875 LenY=    63323665
 Requested convergence on RMS density matrix=1.00D-08 within 128 cycles.
 Requested convergence on MAX density matrix=1.00D-06.
 Requested convergence on             energy=1.00D-06.
 No special actions if energy rises.

 Cycle   1  Pass 1  IDiag  1:
 E= -271.546875957937    
 DIIS: error= 2.01D-04 at cycle   1 NSaved=   1.
 NSaved= 1 IEnMin= 1 EnMin= -271.546875957937     IErMin= 1 ErrMin= 2.01D-04
 ErrMax= 2.01D-04  0.00D+00 EMaxC= 1.00D-01 BMatC= 6.84D-06 BMatP= 6.84D-06
 IDIUse=3 WtCom= 9.98D-01 WtEn= 2.01D-03
 Coeff-Com:  0.100D+01
 Coeff-En:   0.100D+01
 Coeff:      0.100D+01
 Gap=     2.095 Goal=   None    Shift=    0.000
 RMSDP=3.23D-05 MaxDP=6.78D-04              OVMax= 1.17D-03

 Cycle   2  Pass 1  IDiag  1:
 E= -271.546887092146     Delta-E=       -0.000011134209 Rises=F Damp=F
 DIIS: error= 4.35D-05 at cycle   2 NSaved=   2.
 NSaved= 2 IEnMin= 2 EnMin= -271.546887092146     IErMin= 2 ErrMin= 4.35D-05
 ErrMax= 4.35D-05  0.00D+00 EMaxC= 1.00D-01 BMatC= 2.91D-07 BMatP= 6.84D-06
 IDIUse=1 WtCom= 1.00D+00 WtEn= 0.00D+00
 Coeff-Com: -0.185D+00 0.119D+01
 Coeff:     -0.185D+00 0.119D+01
 Gap=     0.366 Goal=   None    Shift=    0.000
 RMSDP=1.02D-05 MaxDP=1.81D-04 DE=-1.11D-05 OVMax= 4.62D-04

 Cycle   3  Pass 1  IDiag  1:
 E= -271.546887818128     Delta-E=       -0.000000725982 Rises=F Damp=F
 DIIS: error= 1.25D-05 at cycle   3 NSaved=   3.
 NSaved= 3 IEnMin= 3 EnMin= -271.546887818128     IErMin= 3 ErrMin= 1.25D-05
 ErrMax= 1.25D-05  0.00D+00 EMaxC= 1.00D-01 BMatC= 3.07D-08 BMatP= 2.91D-07
 IDIUse=1 WtCom= 1.00D+00 WtEn= 0.00D+00
 Coeff-Com: -0.518D-01 0.239D+00 0.813D+00
 Coeff:     -0.518D-01 0.239D+00 0.813D+00
 Gap=     0.366 Goal=   None    Shift=    0.000
 RMSDP=2.46D-06 MaxDP=5.36D-05 DE=-7.26D-07 OVMax= 9.81D-05

 Cycle   4  Pass 1  IDiag  1:
 E= -271.546887841749     Delta-E=       -0.000000023621 Rises=F Damp=F
 DIIS: error= 1.39D-05 at cycle   4 NSaved=   4.
 NSaved= 4 IEnMin= 4 EnMin= -271.546887841749     IErMin= 3 ErrMin= 1.25D-05
 ErrMax= 1.39D-05  0.00D+00 EMaxC= 1.00D-01 BMatC= 2.68D-08 BMatP= 3.07D-08
 IDIUse=1 WtCom= 1.00D+00 WtEn= 0.00D+00
 Coeff-Com:  0.382D-02-0.822D-01 0.508D+00 0.570D+00
 Coeff:      0.382D-02-0.822D-01 0.508D+00 0.570D+00
 Gap=     0.366 Goal=   None    Shift=    0.000
 RMSDP=1.29D-06 MaxDP=3.37D-05 DE=-2.36D-08 OVMax= 4.97D-05

 Cycle   5  Pass 1  IDiag  1:
 E= -271.546887866577     Delta-E=       -0.000000024827 Rises=F Damp=F
 DIIS: error= 2.01D-06 at cycle   5 NSaved=   5.
 NSaved= 5 IEnMin= 5 EnMin= -271.546887866577     IErMin= 5 ErrMin= 2.01D-06
 ErrMax= 2.01D-06  0.00D+00 EMaxC= 1.00D-01 BMatC= 1.15D-09 BMatP= 2.68D-08
 IDIUse=1 WtCom= 1.00D+00 WtEn= 0.00D+00
 Coeff-Com:  0.104D-01-0.729D-01 0.480D-01 0.193D+00 0.821D+00
 Coeff:      0.104D-01-0.729D-01 0.480D-01 0.193D+00 0.821D+00
 Gap=     0.366 Goal=   None    Shift=    0.000
 RMSDP=4.24D-07 MaxDP=5.29D-06 DE=-2.48D-08 OVMax= 2.15D-05

 Cycle   6  Pass 1  IDiag  1:
 E= -271.546887868080     Delta-E=       -0.000000001503 Rises=F Damp=F
 DIIS: error= 5.26D-07 at cycle   6 NSaved=   6.
 NSaved= 6 IEnMin= 6 EnMin= -271.546887868080     IErMin= 6 ErrMin= 5.26D-07
 ErrMax= 5.26D-07  0.00D+00 EMaxC= 1.00D-01 BMatC= 7.26D-11 BMatP= 1.15D-09
 IDIUse=1 WtCom= 1.00D+00 WtEn= 0.00D+00
 Coeff-Com:  0.306D-02-0.176D-01-0.164D-01 0.212D-01 0.239D+00 0.770D+00
 Coeff:      0.306D-02-0.176D-01-0.164D-01 0.212D-01 0.239D+00 0.770D+00
 Gap=     0.366 Goal=   None    Shift=    0.000
 RMSDP=1.09D-07 MaxDP=1.93D-06 DE=-1.50D-09 OVMax= 4.74D-06

 Cycle   7  Pass 1  IDiag  1:
 E= -271.546887868150     Delta-E=       -0.000000000070 Rises=F Damp=F
 DIIS: error= 4.64D-07 at cycle   7 NSaved=   7.
 NSaved= 7 IEnMin= 7 EnMin= -271.546887868150     IErMin= 7 ErrMin= 4.64D-07
 ErrMax= 4.64D-07  0.00D+00 EMaxC= 1.00D-01 BMatC= 2.65D-11 BMatP= 7.26D-11
 IDIUse=1 WtCom= 1.00D+00 WtEn= 0.00D+00
 Coeff-Com:  0.193D-03 0.611D-03-0.136D-01-0.141D-01 0.101D-01 0.398D+00
 Coeff-Com:  0.618D+00
 Coeff:      0.193D-03 0.611D-03-0.136D-01-0.141D-01 0.101D-01 0.398D+00
 Coeff:      0.618D+00
 Gap=     0.366 Goal=   None    Shift=    0.000
 RMSDP=5.36D-08 MaxDP=1.33D-06 DE=-6.97D-11 OVMax= 2.07D-06

 Cycle   8  Pass 1  IDiag  1:
 E= -271.546887868174     Delta-E=       -0.000000000024 Rises=F Damp=F
 DIIS: error= 1.71D-07 at cycle   8 NSaved=   8.
 NSaved= 8 IEnMin= 8 EnMin= -271.546887868174     IErMin= 8 ErrMin= 1.71D-07
 ErrMax= 1.71D-07  0.00D+00 EMaxC= 1.00D-01 BMatC= 4.34D-12 BMatP= 2.65D-11
 IDIUse=1 WtCom= 1.00D+00 WtEn= 0.00D+00
 Coeff-Com: -0.386D-03 0.314D-02-0.416D-02-0.107D-01-0.346D-01 0.895D-01
 Coeff-Com:  0.338D+00 0.619D+00
 Coeff:     -0.386D-03 0.314D-02-0.416D-02-0.107D-01-0.346D-01 0.895D-01
 Coeff:      0.338D+00 0.619D+00
 Gap=     0.366 Goal=   None    Shift=    0.000
 RMSDP=1.81D-08 MaxDP=3.80D-07 DE=-2.39D-11 OVMax= 6.65D-07

 Cycle   9  Pass 1  IDiag  1:
 E= -271.546887868179     Delta-E=       -0.000000000005 Rises=F Damp=F
 DIIS: error= 1.43D-08 at cycle   9 NSaved=   9.
 NSaved= 9 IEnMin= 9 EnMin= -271.546887868179     IErMin= 9 ErrMin= 1.43D-08
 ErrMax= 1.43D-08  0.00D+00 EMaxC= 1.00D-01 BMatC= 5.00D-14 BMatP= 4.34D-12
 IDIUse=1 WtCom= 1.00D+00 WtEn= 0.00D+00
 Coeff-Com: -0.513D-04 0.258D-03 0.680D-03-0.964D-04-0.512D-02-0.221D-01
 Coeff-Com: -0.613D-02 0.671D-01 0.965D+00
 Coeff:     -0.513D-04 0.258D-03 0.680D-03-0.964D-04-0.512D-02-0.221D-01
 Coeff:     -0.613D-02 0.671D-01 0.965D+00
 Gap=     0.366 Goal=   None    Shift=    0.000
 RMSDP=5.46D-09 MaxDP=1.12D-07 DE=-5.12D-12 OVMax= 1.31D-07

 SCF Done:  E(RwB97XD) =  -271.546887868     A.U. after    9 cycles
            NFock=  9  Conv=0.55D-08     -V/T= 2.0096
 KE= 2.689627004845D+02 PE=-1.010776627214D+03 EE= 2.770220317012D+02
 Leave Link  502 at Wed Aug  6 21:39:22 2025, MaxMem=   104857600 cpu:               5.6 elap:               5.7
 (Enter /Applications/g16/l701.exe)
 ... and contract with generalized density number  0.
 Compute integral first derivatives.
 R6Disp: Adding Grimme-D2 dispersion energy 1st derivatives to the gradient.
 Leave Link  701 at Wed Aug  6 21:39:22 2025, MaxMem=   104857600 cpu:               0.0 elap:               0.0
 (Enter /Applications/g16/l702.exe)
 L702 exits ... SP integral derivatives will be done elsewhere.
 Leave Link  702 at Wed Aug  6 21:39:22 2025, MaxMem=   104857600 cpu:               0.0 elap:               0.0
 (Enter /Applications/g16/l703.exe)
 Integral derivatives from FoFJK, PRISM(SPDF).
 Compute integral first derivatives, UseDBF=F ICtDFT=           0.
 Calling FoFJK, ICntrl=      2127 FMM=F ISym2X=0 I1Cent= 0 IOpClX= 0 NMat=1 NMatS=1 NMatT=0.
 FoFJK:  IHMeth= 1 ICntrl=    2127 DoSepK=T KAlg= 0 I1Cent=           0 FoldK=F
 IRaf=         1 NMat=       1 IRICut=       1 DoRegI=T DoRafI=F ISym2E= 0 IDoP0=0 IntGTp=1.
 FoFCou: FMM=F IPFlag=           0 FMFlag=      100000 FMFlg1=         800
         NFxFlg=           0 DoJE=F BraDBF=F KetDBF=F FulRan=T
         wScrn=  0.000000 ICntrl=      2527 IOpCl=  0 I1Cent=           0 NGrid=           0
         NMat0=    1 NMatS0=      1 NMatT0=    0 NMatD0=    1 NMtDS0=    0 NMtDT0=    0
 Symmetry not used in FoFCou.
 Leave Link  703 at Wed Aug  6 21:39:25 2025, MaxMem=   104857600 cpu:               2.4 elap:               2.4
 (Enter /Applications/g16/l716.exe)
 Dipole        = 8.36054203D+00 7.73039598D-01 1.05238302D-03
 ***** Axes restored to original set *****
 -------------------------------------------------------------------
 Center     Atomic                   Forces (Hartrees/Bohr)
 Number     Number              X              Y              Z
 -------------------------------------------------------------------
      1        7           0.000030837    0.000048334   -0.000003246
      2        6          -0.000059699   -0.000118198    0.000007044
      3        6           0.000040994    0.000096658   -0.000003058
      4        6          -0.000016030   -0.000011843    0.000005399
      5        6          -0.000011042   -0.000015085   -0.000003492
      6        7           0.015698569   -0.003924149   -0.000015701
      7        1           0.000008979    0.000001003   -0.000005023
      8        1           0.000005226    0.000001108    0.000004976
      9        1          -0.000000736   -0.000001330   -0.000008668
     10        1          -0.000003163   -0.000000869    0.000008884
     11        3          -0.015693935    0.003924371    0.000012886
 -------------------------------------------------------------------
 Cartesian Forces:  Max     0.015698569 RMS     0.003983214
 Leave Link  716 at Wed Aug  6 21:39:25 2025, MaxMem=   104857600 cpu:               0.0 elap:               0.0
 (Enter /Applications/g16/l103.exe)

 GradGradGradGradGradGradGradGradGradGradGradGradGradGradGradGradGradGrad
 Berny optimization.
 Using GEDIIS/GDIIS optimizer.
 FormGI is forming the generalized inverse of G from B-inverse, IUseBI=4.
 Internal  Forces:  Max     0.016177137 RMS     0.002659616
 Search for a local minimum.
 Step number   5 out of a maximum of   47
 All quantities printed in internal units (Hartrees-Bohrs-Radians)
 RMS Force = .24636D-04 SwitMx=.10000D-02 MixMth= 2
 Mixed Optimization -- En-DIIS/RFO-DIIS
 Swapping is turned off.
 Update second derivatives using D2CorX and points    1    2    3    4    5
 DE= -8.90D-07 DEPred=-1.36D-06 R= 6.55D-01
 TightC=F SS=  1.41D+00  RLast= 1.27D-02 DXNew= 4.2426D-01 3.7981D-02
 Trust test= 6.55D-01 RLast= 1.27D-02 DXMaxT set to 2.52D-01
 ITU=  1  1  1 -1  0
     Eigenvalues ---    0.00230   0.00306   0.01248   0.01751   0.03495
     Eigenvalues ---    0.05313   0.05422   0.05683   0.05744   0.05924
     Eigenvalues ---    0.06045   0.14842   0.15996   0.16023   0.16346
     Eigenvalues ---    0.19923   0.22936   0.28284   0.33948   0.34201
     Eigenvalues ---    0.34309   0.34338   0.36331   0.37571   1.30296
     Eigenvalues ---    1.306591000.000001000.000001000.000001000.00000
     Eigenvalues --- 1000.000001000.000001000.000001000.000001000.00000
     Eigenvalues --- 1000.000001000.00000
 En-DIIS/RFO-DIIS/Sim-DIIS IScMMF=       -3 using points:     5    4    3    2    1
 RFO step:  Lambda=-1.01731375D-06.
 NNeg= 0 NGDIIS= 5 SimSw=  2.50D-01 Rises=F DC= -8.90D-07 SmlDif=  1.00D-05
 NRisDI= 0 DoIntr=F SqrtH=F CThrHd= 10.0 CDAdj=  3.0
 RMS Error=  0.1832353825D-02 NUsed= 5 OKEnD=F EnDIS=F
 InvSVX:  RCond= 5.93D-05 Info=           0 Equed=N FErr=  6.08D-14 BErr=  9.01D-17
 DidBck=T Rises=F RFO-DIIS coefs:    0.29805    0.17760    0.24035    0.05065    0.23335
 Iteration  1 RMS(Cart)=  0.00084287 RMS(Int)=  0.00000113
 Iteration  2 RMS(Cart)=  0.00000086 RMS(Int)=  0.00000089
 Iteration  1 RMS(Cart)=  0.00000000 RMS(Int)=  0.00000000
 ITry= 1 IFail=0 DXMaxC= 2.56D-03 DCOld= 1.00D+10 DXMaxT= 2.52D-01 DXLimC= 3.00D+00 Rises=F
 Variable       Old X    -DE/DX   Delta X   Delta X   Delta X     New X
                                 (Linear)    (Quad)   (Total)
    R1        2.18464  -0.00001  -0.00002   0.00002  -0.00000   2.18464
    R2        2.76432   0.00000   0.00008  -0.00009  -0.00001   2.76431
    R3        2.92226  -0.00002   0.00017  -0.00020  -0.00003   2.92223
    R4        2.06766   0.00001  -0.00006   0.00008   0.00002   2.06768
    R5        2.06766   0.00001  -0.00006   0.00008   0.00002   2.06768
    R6        2.76337  -0.00000  -0.00026   0.00026   0.00000   2.76337
    R7        2.06911   0.00000   0.00010  -0.00011  -0.00001   2.06910
    R8        2.06911   0.00000   0.00010  -0.00011  -0.00000   2.06910
    R9        2.18239   0.00000   0.00007  -0.00007  -0.00001   2.18239
   R10        4.72432  -0.01618  -0.00000   0.00000   0.00000   4.72432
    A1        1.91436   0.00006  -0.00065   0.00078   0.00013   1.91449
    A2        1.90300  -0.00002   0.00032  -0.00039  -0.00006   1.90293
    A3        1.90301  -0.00002   0.00032  -0.00038  -0.00006   1.90295
    A4        1.93011  -0.00001  -0.00018   0.00020   0.00002   1.93013
    A5        1.93011  -0.00001  -0.00018   0.00020   0.00002   1.93013
    A6        1.88265   0.00000   0.00040  -0.00045  -0.00005   1.88260
    A7        1.95185  -0.00003   0.00057  -0.00069  -0.00013   1.95172
    A8        1.93052   0.00001  -0.00014   0.00020   0.00007   1.93059
    A9        1.93053   0.00001  -0.00014   0.00020   0.00007   1.93059
   A10        1.88655   0.00000  -0.00013   0.00010  -0.00003   1.88652
   A11        1.88652   0.00001  -0.00012   0.00011  -0.00001   1.88651
   A12        1.87536  -0.00000  -0.00007   0.00010   0.00004   1.87540
   A13        3.11744  -0.00011  -0.00139  -0.00042  -0.00181   3.11562
   A14        3.13777   0.00000   0.00034  -0.00035  -0.00000   3.13776
   A15        3.18981  -0.00000   0.00006  -0.00000   0.00006   3.18987
   A16        3.15456   0.00005   0.00084  -0.00031   0.00052   3.15508
   A17        3.13939   0.00001   0.00035  -0.00028   0.00007   3.13946
   A18        3.17777   0.00001   0.00204   0.00003   0.00207   3.17984
    D1       -3.14159   0.00000   0.00001   0.00002   0.00003  -3.14156
    D2       -1.03784  -0.00001   0.00013  -0.00018  -0.00005  -1.03789
    D3        1.03788   0.00001  -0.00012   0.00021   0.00008   1.03796
    D4       -1.04214   0.00001  -0.00012   0.00016   0.00004  -1.04210
    D5        1.06161  -0.00000  -0.00000  -0.00003  -0.00004   1.06157
    D6        3.13733   0.00001  -0.00025   0.00035   0.00010   3.13743
    D7        1.04213  -0.00000   0.00015  -0.00014   0.00000   1.04213
    D8       -3.13731  -0.00001   0.00027  -0.00034  -0.00007  -3.13739
    D9       -1.06159   0.00000   0.00002   0.00005   0.00006  -1.06153
         Item               Value     Threshold  Converged?
 Maximum Force            0.000110     0.000450     YES
 RMS     Force            0.000025     0.000300     YES
 Maximum Displacement     0.002561     0.001800     NO 
 RMS     Displacement     0.000843     0.001200     YES
 Predicted change in Energy=-2.063341D-07
 Lowest energy point so far.  Saving SCF results.
 GradGradGradGradGradGradGradGradGradGradGradGradGradGradGradGradGradGrad

 Leave Link  103 at Wed Aug  6 21:39:25 2025, MaxMem=   104857600 cpu:               0.0 elap:               0.0
 (Enter /Applications/g16/l202.exe)
                          Input orientation:                          
 ---------------------------------------------------------------------
 Center     Atomic      Atomic             Coordinates (Angstroms)
 Number     Number       Type             X           Y           Z
 ---------------------------------------------------------------------
      1          7           0       -2.973790    0.257615    0.000214
      2          6           0       -1.891386   -0.148441   -0.000091
      3          6           0       -0.507852   -0.623457    0.000110
      4          6           0        0.457776    0.584371   -0.000150
      5          6           0        1.857559    0.161323   -0.000000
      6          7           0        2.961636   -0.177403    0.000144
      7          1           0        0.291892    1.210356   -0.883031
      8          1           0        0.291845    1.210781    0.882420
      9          1           0       -0.344538   -1.246824   -0.884167
     10          1           0       -0.344618   -1.246376    0.884719
     11          3           0        5.387329   -0.782391    0.000827
 ---------------------------------------------------------------------
                    Distance matrix (angstroms):
                    1          2          3          4          5
     1  N    0.000000
     2  C    1.156062   0.000000
     3  C    2.618613   1.462808   0.000000
     4  C    3.447087   2.460808   1.546378   0.000000
     5  C    4.832308   3.761720   2.492197   1.462314   0.000000
     6  N    5.951346   4.853108   3.498044   2.617177   1.154869
     7  H    3.514614   2.718936   2.186869   1.094921   2.081231
     8  H    3.514425   2.718972   2.186873   1.094921   2.081222
     9  H    3.155698   2.093030   1.094168   2.185971   2.759322
    10  H    3.155452   2.093046   1.094169   2.185970   2.759334
    11  Li   8.425552   7.306271   5.897324   5.115519   3.653748
                    6          7          8          9         10
     6  N    0.000000
     7  H    3.135826   0.000000
     8  H    3.135801   1.765451   0.000000
     9  H    3.585589   2.538262   3.092836   0.000000
    10  H    3.585595   3.092832   2.538249   1.768886   0.000000
    11  Li   2.500000   5.542177   5.542012   5.818351   5.818227
                   11
    11  Li   0.000000
 Stoichiometry    C4H4LiN2(1+)
 Framework group  C1[X(C4H4LiN2)]
 Deg. of freedom    27
 Full point group                 C1      NOp   1
 RotChk:  IX=0 Diff= 4.05D-04
 Largest Abelian subgroup         C1      NOp   1
 Largest concise Abelian subgroup C1      NOp   1
                         Standard orientation:                         
 ---------------------------------------------------------------------
 Center     Atomic      Atomic             Coordinates (Angstroms)
 Number     Number       Type             X           Y           Z
 ---------------------------------------------------------------------
      1          7           0       -3.328787   -0.128778   -0.000296
      2          6           0       -2.226661    0.220214    0.000149
      3          6           0       -0.820214    0.622350    0.000115
      4          6           0        0.081039   -0.634244    0.000075
      5          6           0        1.500999   -0.284853    0.000079
      6          7           0        2.621255   -0.004231    0.000057
      7          1           0       -0.117337   -1.250952    0.882781
      8          1           0       -0.117332   -1.250899   -0.882670
      9          1           0       -0.624615    1.236102    0.884566
     10          1           0       -0.624644    1.236136   -0.884320
     11          3           0        5.075226    0.473291   -0.000394
 ---------------------------------------------------------------------
 Rotational constants (GHZ):          22.7781995           0.9530682           0.9253355
 Leave Link  202 at Wed Aug  6 21:39:25 2025, MaxMem=   104857600 cpu:               0.0 elap:               0.0
 (Enter /Applications/g16/l301.exe)
 Standard basis: 6-31G(d) (6D, 7F)
 Ernie: Thresh=  0.10000D-02 Tol=  0.10000D-05 Strict=F.
 There are   113 symmetry adapted cartesian basis functions of A   symmetry.
 There are   113 symmetry adapted basis functions of A   symmetry.
   113 basis functions,   212 primitive gaussians,   113 cartesian basis functions
    22 alpha electrons       22 beta electrons
       nuclear repulsion energy       193.2536211886 Hartrees.
 IExCor= 4639 DFT=T Ex+Corr=wB97XD ExCW=0 ScaHFX=  1.000000
 ScaDFX=  1.000000  1.000000  1.000000  1.000000 ScalE2=  1.000000  1.000000
 IRadAn=      5 IRanWt=     -1 IRanGd=            0 ICorTp=0 IEmpDi=121
 HFx  wShort=  0.000000 wLong=  0.200000 cFull=  0.222036 cShort=  0.000000 cLong=  0.777964
 DFx  wShort=  0.000000 wLong=  0.200000 cFull=  0.000000 cShort=  0.000000 cLong=  1.000000
 NAtoms=   11 NActive=   11 NUniq=   11 SFac= 1.00D+00 NAtFMM=   60 NAOKFM=F Big=F
 Integral buffers will be    131072 words long.
 Raffenetti 2 integral format.
 Two-electron integral symmetry is turned on.
 R6Disp:  Grimme-D2 Dispersion energy=       -0.0048267150 Hartrees.
 Nuclear repulsion after empirical dispersion term =      193.2487944736 Hartrees.
 Leave Link  301 at Wed Aug  6 21:39:25 2025, MaxMem=   104857600 cpu:               0.0 elap:               0.0
 (Enter /Applications/g16/l302.exe)
 NPDir=0 NMtPBC=     1 NCelOv=     1 NCel=       1 NClECP=     1 NCelD=      1
         NCelK=      1 NCelE2=     1 NClLst=     1 CellRange=     0.0.
 One-electron integrals computed using PRISM.
 One-electron integral symmetry used in STVInt
 NBasis=   113 RedAO= T EigKep=  9.10D-04  NBF=   113
 NBsUse=   113 1.00D-06 EigRej= -1.00D+00 NBFU=   113
 Precomputing XC quadrature grid using
 IXCGrd= 4 IRadAn=           5 IRanWt=          -1 IRanGd=           0 AccXCQ= 0.00D+00.
 Generated NRdTot=       0 NPtTot=           0 NUsed=           0 NTot=          32
 NSgBfM=   113   113   113   113   113 MxSgAt=    11 MxSgA2=    11.
 Leave Link  302 at Wed Aug  6 21:39:25 2025, MaxMem=   104857600 cpu:               0.1 elap:               0.1
 (Enter /Applications/g16/l303.exe)
 DipDrv:  MaxL=1.
 Leave Link  303 at Wed Aug  6 21:39:25 2025, MaxMem=   104857600 cpu:               0.0 elap:               0.0
 (Enter /Applications/g16/l401.exe)
 Initial guess from the checkpoint file:  "/Users/srak/g16_scratch/Gau-95628.chk"
 B after Tr=     0.000000   -0.000000    0.000000
         Rot=    1.000000   -0.000077    0.000066    0.000005 Ang=  -0.01 deg.
 Guess basis will be translated and rotated to current coordinates.
 JPrj=2 DoOrth=T DoCkMO=T.
 Leave Link  401 at Wed Aug  6 21:39:25 2025, MaxMem=   104857600 cpu:               0.0 elap:               0.0
 (Enter /Applications/g16/l502.exe)
 Keep R1 ints in memory in canonical form, NReq=43174005.
 FoFCou: FMM=F IPFlag=           0 FMFlag=           0 FMFlg1=           0
         NFxFlg=           0 DoJE=F BraDBF=F KetDBF=F FulRan=T
         wScrn=  0.000000 ICntrl=       600 IOpCl=  0 I1Cent=           0 NGrid=           0
         NMat0=    1 NMatS0=   6441 NMatT0=    0 NMatD0=    1 NMtDS0=    0 NMtDT0=    0
 Symmetry not used in FoFCou.
 Two-electron integral symmetry not used.
 Closed shell SCF:
 Using DIIS extrapolation, IDIIS=  1040.
 NGot=   104857600 LenX=    63336875 LenY=    63323665
 Requested convergence on RMS density matrix=1.00D-08 within 128 cycles.
 Requested convergence on MAX density matrix=1.00D-06.
 Requested convergence on             energy=1.00D-06.
 No special actions if energy rises.

 Cycle   1  Pass 1  IDiag  1:
 E= -271.546886197852    
 DIIS: error= 1.13D-04 at cycle   1 NSaved=   1.
 NSaved= 1 IEnMin= 1 EnMin= -271.546886197852     IErMin= 1 ErrMin= 1.13D-04
 ErrMax= 1.13D-04  0.00D+00 EMaxC= 1.00D-01 BMatC= 1.03D-06 BMatP= 1.03D-06
 IDIUse=3 WtCom= 9.99D-01 WtEn= 1.13D-03
 Coeff-Com:  0.100D+01
 Coeff-En:   0.100D+01
 Coeff:      0.100D+01
 Gap=     2.095 Goal=   None    Shift=    0.000
 RMSDP=1.34D-05 MaxDP=3.61D-04              OVMax= 5.16D-04

 Cycle   2  Pass 1  IDiag  1:
 E= -271.546887852663     Delta-E=       -0.000001654811 Rises=F Damp=F
 DIIS: error= 1.58D-05 at cycle   2 NSaved=   2.
 NSaved= 2 IEnMin= 2 EnMin= -271.546887852663     IErMin= 2 ErrMin= 1.58D-05
 ErrMax= 1.58D-05  0.00D+00 EMaxC= 1.00D-01 BMatC= 4.41D-08 BMatP= 1.03D-06
 IDIUse=1 WtCom= 1.00D+00 WtEn= 0.00D+00
 Coeff-Com: -0.192D+00 0.119D+01
 Coeff:     -0.192D+00 0.119D+01
 Gap=     0.366 Goal=   None    Shift=    0.000
 RMSDP=4.24D-06 MaxDP=1.01D-04 DE=-1.65D-06 OVMax= 2.10D-04

 Cycle   3  Pass 1  IDiag  1:
 E= -271.546887969513     Delta-E=       -0.000000116850 Rises=F Damp=F
 DIIS: error= 4.58D-06 at cycle   3 NSaved=   3.
 NSaved= 3 IEnMin= 3 EnMin= -271.546887969513     IErMin= 3 ErrMin= 4.58D-06
 ErrMax= 4.58D-06  0.00D+00 EMaxC= 1.00D-01 BMatC= 2.13D-09 BMatP= 4.41D-08
 IDIUse=1 WtCom= 1.00D+00 WtEn= 0.00D+00
 Coeff-Com: -0.112D-01-0.171D-01 0.103D+01
 Coeff:     -0.112D-01-0.171D-01 0.103D+01
 Gap=     0.366 Goal=   None    Shift=    0.000
 RMSDP=9.91D-07 MaxDP=2.01D-05 DE=-1.17D-07 OVMax= 5.52D-05

 Cycle   4  Pass 1  IDiag  1:
 E= -271.546887973248     Delta-E=       -0.000000003736 Rises=F Damp=F
 DIIS: error= 4.68D-06 at cycle   4 NSaved=   4.
 NSaved= 4 IEnMin= 4 EnMin= -271.546887973248     IErMin= 3 ErrMin= 4.58D-06
 ErrMax= 4.68D-06  0.00D+00 EMaxC= 1.00D-01 BMatC= 2.47D-09 BMatP= 2.13D-09
 IDIUse=1 WtCom= 1.00D+00 WtEn= 0.00D+00
 Coeff-Com:  0.141D-01-0.140D+00 0.611D+00 0.516D+00
 Coeff:      0.141D-01-0.140D+00 0.611D+00 0.516D+00
 Gap=     0.366 Goal=   None    Shift=    0.000
 RMSDP=4.35D-07 MaxDP=1.02D-05 DE=-3.74D-09 OVMax= 1.74D-05

 Cycle   5  Pass 1  IDiag  1:
 E= -271.546887975479     Delta-E=       -0.000000002231 Rises=F Damp=F
 DIIS: error= 9.81D-07 at cycle   5 NSaved=   5.
 NSaved= 5 IEnMin= 5 EnMin= -271.546887975479     IErMin= 5 ErrMin= 9.81D-07
 ErrMax= 9.81D-07  0.00D+00 EMaxC= 1.00D-01 BMatC= 1.65D-10 BMatP= 2.13D-09
 IDIUse=1 WtCom= 1.00D+00 WtEn= 0.00D+00
 Coeff-Com:  0.102D-01-0.683D-01 0.425D-01 0.216D+00 0.800D+00
 Coeff:      0.102D-01-0.683D-01 0.425D-01 0.216D+00 0.800D+00
 Gap=     0.366 Goal=   None    Shift=    0.000
 RMSDP=1.59D-07 MaxDP=3.31D-06 DE=-2.23D-09 OVMax= 7.91D-06

 Cycle   6  Pass 1  IDiag  1:
 E= -271.546887975679     Delta-E=       -0.000000000200 Rises=F Damp=F
 DIIS: error= 1.22D-07 at cycle   6 NSaved=   6.
 NSaved= 6 IEnMin= 6 EnMin= -271.546887975679     IErMin= 6 ErrMin= 1.22D-07
 ErrMax= 1.22D-07  0.00D+00 EMaxC= 1.00D-01 BMatC= 2.51D-12 BMatP= 1.65D-10
 IDIUse=1 WtCom= 1.00D+00 WtEn= 0.00D+00
 Coeff-Com:  0.410D-03 0.199D-03-0.236D-01-0.734D-02 0.642D-01 0.966D+00
 Coeff:      0.410D-03 0.199D-03-0.236D-01-0.734D-02 0.642D-01 0.966D+00
 Gap=     0.366 Goal=   None    Shift=    0.000
 RMSDP=3.00D-08 MaxDP=4.70D-07 DE=-2.00D-10 OVMax= 1.43D-06

 Cycle   7  Pass 1  IDiag  1:
 E= -271.546887975689     Delta-E=       -0.000000000010 Rises=F Damp=F
 DIIS: error= 8.33D-08 at cycle   7 NSaved=   7.
 NSaved= 7 IEnMin= 7 EnMin= -271.546887975689     IErMin= 7 ErrMin= 8.33D-08
 ErrMax= 8.33D-08  0.00D+00 EMaxC= 1.00D-01 BMatC= 1.01D-12 BMatP= 2.51D-12
 IDIUse=1 WtCom= 1.00D+00 WtEn= 0.00D+00
 Coeff-Com: -0.401D-03 0.395D-02-0.113D-01-0.161D-01-0.224D-01 0.429D+00
 Coeff-Com:  0.617D+00
 Coeff:     -0.401D-03 0.395D-02-0.113D-01-0.161D-01-0.224D-01 0.429D+00
 Coeff:      0.617D+00
 Gap=     0.366 Goal=   None    Shift=    0.000
 RMSDP=9.94D-09 MaxDP=2.23D-07 DE=-9.55D-12 OVMax= 3.19D-07

 SCF Done:  E(RwB97XD) =  -271.546887976     A.U. after    7 cycles
            NFock=  7  Conv=0.99D-08     -V/T= 2.0096
 KE= 2.689627084128D+02 PE=-1.010784208027D+03 EE= 2.770258171647D+02
 Leave Link  502 at Wed Aug  6 21:39:29 2025, MaxMem=   104857600 cpu:               4.5 elap:               4.5
 (Enter /Applications/g16/l701.exe)
 ... and contract with generalized density number  0.
 Compute integral first derivatives.
 R6Disp: Adding Grimme-D2 dispersion energy 1st derivatives to the gradient.
 Leave Link  701 at Wed Aug  6 21:39:29 2025, MaxMem=   104857600 cpu:               0.0 elap:               0.0
 (Enter /Applications/g16/l702.exe)
 L702 exits ... SP integral derivatives will be done elsewhere.
 Leave Link  702 at Wed Aug  6 21:39:29 2025, MaxMem=   104857600 cpu:               0.0 elap:               0.0
 (Enter /Applications/g16/l703.exe)
 Integral derivatives from FoFJK, PRISM(SPDF).
 Compute integral first derivatives, UseDBF=F ICtDFT=           0.
 Calling FoFJK, ICntrl=      2127 FMM=F ISym2X=0 I1Cent= 0 IOpClX= 0 NMat=1 NMatS=1 NMatT=0.
 FoFJK:  IHMeth= 1 ICntrl=    2127 DoSepK=T KAlg= 0 I1Cent=           0 FoldK=F
 IRaf=         1 NMat=       1 IRICut=       1 DoRegI=T DoRafI=F ISym2E= 0 IDoP0=0 IntGTp=1.
 FoFCou: FMM=F IPFlag=           0 FMFlag=      100000 FMFlg1=         800
         NFxFlg=           0 DoJE=F BraDBF=F KetDBF=F FulRan=T
         wScrn=  0.000000 ICntrl=      2527 IOpCl=  0 I1Cent=           0 NGrid=           0
         NMat0=    1 NMatS0=      1 NMatT0=    0 NMatD0=    1 NMtDS0=    0 NMtDT0=    0
 Symmetry not used in FoFCou.
 Leave Link  703 at Wed Aug  6 21:39:32 2025, MaxMem=   104857600 cpu:               2.3 elap:               2.3
 (Enter /Applications/g16/l716.exe)
 Dipole        = 8.36058044D+00 7.71636695D-01-4.37063560D-04
 ***** Axes restored to original set *****
 -------------------------------------------------------------------
 Center     Atomic                   Forces (Hartrees/Bohr)
 Number     Number              X              Y              Z
 -------------------------------------------------------------------
      1        7           0.000000196   -0.000009973   -0.000015687
      2        6          -0.000006275    0.000021479    0.000033696
      3        6           0.000006056    0.000009586   -0.000017830
      4        6          -0.000018738   -0.000014192   -0.000001419
      5        6          -0.000012921   -0.000010041    0.000000967
      6        7           0.015708758   -0.003914146    0.000005155
      7        1           0.000000249    0.000001385   -0.000004750
      8        1          -0.000001266    0.000000978    0.000004529
      9        1           0.000014283   -0.000000333   -0.000003478
     10        1           0.000005954    0.000001164    0.000003942
     11        3          -0.015696297    0.003914094   -0.000005124
 -------------------------------------------------------------------
 Cartesian Forces:  Max     0.015708758 RMS     0.003983995
 Leave Link  716 at Wed Aug  6 21:39:32 2025, MaxMem=   104857600 cpu:               0.0 elap:               0.0
 (Enter /Applications/g16/l103.exe)

 GradGradGradGradGradGradGradGradGradGradGradGradGradGradGradGradGradGrad
 Berny optimization.
 Using GEDIIS/GDIIS optimizer.
 FormGI is forming the generalized inverse of G from B-inverse, IUseBI=4.
 Internal  Forces:  Max     0.016176938 RMS     0.002659490
 Search for a local minimum.
 Step number   6 out of a maximum of   47
 All quantities printed in internal units (Hartrees-Bohrs-Radians)
 RMS Force = .10004D-04 SwitMx=.10000D-02 MixMth= 2
 Mixed Optimization -- En-DIIS/RFO-DIIS
 Swapping is turned off.
 Update second derivatives using D2CorX and points    1    2    3    4    5
                                                      6
 DE= -1.08D-07 DEPred=-2.06D-07 R= 5.21D-01
 Trust test= 5.21D-01 RLast= 2.82D-03 DXMaxT set to 2.52D-01
 ITU=  0  1  1  1 -1  0
     Eigenvalues ---    0.00230   0.00420   0.01749   0.01896   0.05288
     Eigenvalues ---    0.05382   0.05590   0.05724   0.05843   0.06038
     Eigenvalues ---    0.06942   0.15051   0.15989   0.16039   0.16558
     Eigenvalues ---    0.19283   0.23210   0.28484   0.34009   0.34202
     Eigenvalues ---    0.34287   0.34339   0.36434   0.38311   1.30364
     Eigenvalues ---    1.307081000.000001000.000001000.000001000.00000
     Eigenvalues --- 1000.000001000.000001000.000001000.000001000.00000
     Eigenvalues --- 1000.000001000.00000
 En-DIIS/RFO-DIIS/Sim-DIIS IScMMF=       -3 using points:     6    5    4    3    2    1
 RFO step:  Lambda=-3.24588331D-07.
 NNeg= 0 NGDIIS= 6 SimSw=  2.50D-01 Rises=F DC= -1.08D-07 SmlDif=  1.00D-05
 NRisDI= 0 DoIntr=F SqrtH=F CThrHd= 10.0 CDAdj=  3.0
 RMS Error=  0.3309479794D-03 NUsed= 6 OKEnD=F EnDIS=F
 InvSVX:  RCond= 4.54D-06 Info=           0 Equed=N FErr=  5.32D-14 BErr=  6.14D-17
 DidBck=F Rises=F RFO-DIIS coefs:    0.48359    0.10317    0.10377    0.14771    0.02864
                  RFO-DIIS coefs:    0.13312
 Iteration  1 RMS(Cart)=  0.00027521 RMS(Int)=  0.00000056
 Iteration  2 RMS(Cart)=  0.00000017 RMS(Int)=  0.00000054
 Iteration  1 RMS(Cart)=  0.00000000 RMS(Int)=  0.00000000
 ITry= 1 IFail=0 DXMaxC= 1.05D-03 DCOld= 1.00D+10 DXMaxT= 2.52D-01 DXLimC= 3.00D+00 Rises=F
 Variable       Old X    -DE/DX   Delta X   Delta X   Delta X     New X
                                 (Linear)    (Quad)   (Total)
    R1        2.18464  -0.00000  -0.00001   0.00001  -0.00000   2.18464
    R2        2.76431   0.00001   0.00006  -0.00005   0.00001   2.76432
    R3        2.92223  -0.00003   0.00010  -0.00017  -0.00007   2.92216
    R4        2.06768   0.00001  -0.00004   0.00006   0.00001   2.06769
    R5        2.06768   0.00000  -0.00004   0.00006   0.00001   2.06769
    R6        2.76337   0.00000  -0.00012   0.00013   0.00001   2.76338
    R7        2.06910   0.00000   0.00006  -0.00005   0.00001   2.06911
    R8        2.06910   0.00000   0.00006  -0.00005   0.00001   2.06911
    R9        2.18239   0.00001   0.00004  -0.00004   0.00000   2.18239
   R10        4.72432  -0.01618   0.00000   0.00000  -0.00000   4.72432
    A1        1.91449   0.00000  -0.00042   0.00048   0.00006   1.91455
    A2        1.90293   0.00001   0.00022  -0.00018   0.00004   1.90297
    A3        1.90295   0.00000   0.00022  -0.00023  -0.00001   1.90294
    A4        1.93013  -0.00001  -0.00012   0.00009  -0.00004   1.93009
    A5        1.93013  -0.00001  -0.00013   0.00009  -0.00003   1.93009
    A6        1.88260   0.00001   0.00025  -0.00027  -0.00001   1.88259
    A7        1.95172  -0.00002   0.00039  -0.00048  -0.00009   1.95164
    A8        1.93059   0.00000  -0.00014   0.00017   0.00003   1.93062
    A9        1.93059   0.00000  -0.00014   0.00016   0.00002   1.93062
   A10        1.88652   0.00001  -0.00003   0.00003  -0.00000   1.88652
   A11        1.88651   0.00001  -0.00003   0.00004   0.00001   1.88652
   A12        1.87540   0.00000  -0.00007   0.00010   0.00003   1.87543
   A13        3.11562   0.00003   0.00013   0.00046   0.00059   3.11621
   A14        3.13776   0.00000   0.00019  -0.00014   0.00006   3.13782
   A15        3.18987  -0.00000  -0.00010   0.00000  -0.00010   3.18977
   A16        3.15508   0.00002   0.00021   0.00073   0.00094   3.15602
   A17        3.13946  -0.00000   0.00017  -0.00015   0.00003   3.13949
   A18        3.17984  -0.00000   0.00027   0.00010   0.00037   3.18021
    D1       -3.14156  -0.00000  -0.00001  -0.00004  -0.00005   3.14157
    D2       -1.03789  -0.00000   0.00012  -0.00021  -0.00009  -1.03798
    D3        1.03796  -0.00000  -0.00014   0.00012  -0.00002   1.03795
    D4       -1.04210   0.00000  -0.00008   0.00009   0.00001  -1.04208
    D5        1.06157   0.00000   0.00005  -0.00008  -0.00003   1.06155
    D6        3.13743   0.00001  -0.00021   0.00025   0.00004   3.13747
    D7        1.04213  -0.00000   0.00007  -0.00013  -0.00005   1.04208
    D8       -3.13739  -0.00000   0.00020  -0.00030  -0.00009  -3.13748
    D9       -1.06153   0.00000  -0.00005   0.00003  -0.00002  -1.06155
         Item               Value     Threshold  Converged?
 Maximum Force            0.000032     0.000450     YES
 RMS     Force            0.000010     0.000300     YES
 Maximum Displacement     0.001052     0.001800     YES
 RMS     Displacement     0.000275     0.001200     YES
 Predicted change in Energy=-2.768065D-08
 Optimization completed.
    -- Stationary point found.
                           ----------------------------
                           !   Optimized Parameters   !
                           ! (Angstroms and Degrees)  !
 --------------------------                            --------------------------
 ! Name  Definition              Value          Derivative Info.                !
 --------------------------------------------------------------------------------
 ! R1    R(1,2)                  1.1561         -DE/DX =    0.0                 !
 ! R2    R(2,3)                  1.4628         -DE/DX =    0.0                 !
 ! R3    R(3,4)                  1.5464         -DE/DX =    0.0                 !
 ! R4    R(3,9)                  1.0942         -DE/DX =    0.0                 !
 ! R5    R(3,10)                 1.0942         -DE/DX =    0.0                 !
 ! R6    R(4,5)                  1.4623         -DE/DX =    0.0                 !
 ! R7    R(4,7)                  1.0949         -DE/DX =    0.0                 !
 ! R8    R(4,8)                  1.0949         -DE/DX =    0.0                 !
 ! R9    R(5,6)                  1.1549         -DE/DX =    0.0                 !
 ! R10   R(6,11)                 2.5            -DE/DX =   -0.0162              !
 ! A1    A(2,3,4)              109.6923         -DE/DX =    0.0                 !
 ! A2    A(2,3,9)              109.03           -DE/DX =    0.0                 !
 ! A3    A(2,3,10)             109.0312         -DE/DX =    0.0                 !
 ! A4    A(4,3,9)              110.5882         -DE/DX =    0.0                 !
 ! A5    A(4,3,10)             110.5881         -DE/DX =    0.0                 !
 ! A6    A(9,3,10)             107.865          -DE/DX =    0.0                 !
 ! A7    A(3,4,5)              111.8253         -DE/DX =    0.0                 !
 ! A8    A(3,4,7)              110.6147         -DE/DX =    0.0                 !
 ! A9    A(3,4,8)              110.6149         -DE/DX =    0.0                 !
 ! A10   A(5,4,7)              108.0897         -DE/DX =    0.0                 !
 ! A11   A(5,4,8)              108.0889         -DE/DX =    0.0                 !
 ! A12   A(7,4,8)              107.4526         -DE/DX =    0.0                 !
 ! A13   L(1,2,3,8,-1)         178.5121         -DE/DX =    0.0                 !
 ! A14   L(4,5,6,10,-1)        179.7805         -DE/DX =    0.0                 !
 ! A15   L(5,6,11,10,-1)       182.7659         -DE/DX =    0.0                 !
 ! A16   L(1,2,3,8,-2)         180.773          -DE/DX =    0.0                 !
 ! A17   L(4,5,6,10,-2)        179.8779         -DE/DX =    0.0                 !
 ! A18   L(5,6,11,10,-2)       182.1914         -DE/DX =    0.0                 !
 ! D1    D(2,3,4,5)            180.0016         -DE/DX =    0.0                 !
 ! D2    D(2,3,4,7)            -59.4669         -DE/DX =    0.0                 !
 ! D3    D(2,3,4,8)             59.4709         -DE/DX =    0.0                 !
 ! D4    D(9,3,4,5)            -59.7078         -DE/DX =    0.0                 !
 ! D5    D(9,3,4,7)             60.8237         -DE/DX =    0.0                 !
 ! D6    D(9,3,4,8)            179.7615         -DE/DX =    0.0                 !
 ! D7    D(10,3,4,5)            59.7096         -DE/DX =    0.0                 !
 ! D8    D(10,3,4,7)          -179.7589         -DE/DX =    0.0                 !
 ! D9    D(10,3,4,8)           -60.8211         -DE/DX =    0.0                 !
 --------------------------------------------------------------------------------
 Lowest energy point so far.  Saving SCF results.
 Largest change from initial coordinates is atom   11       0.011 Angstoms.
 GradGradGradGradGradGradGradGradGradGradGradGradGradGradGradGradGradGrad

 Leave Link  103 at Wed Aug  6 21:39:32 2025, MaxMem=   104857600 cpu:               0.0 elap:               0.0
 (Enter /Applications/g16/l202.exe)
                          Input orientation:                          
 ---------------------------------------------------------------------
 Center     Atomic      Atomic             Coordinates (Angstroms)
 Number     Number       Type             X           Y           Z
 ---------------------------------------------------------------------
      1          7           0       -2.973790    0.257615    0.000214
      2          6           0       -1.891386   -0.148441   -0.000091
      3          6           0       -0.507852   -0.623457    0.000110
      4          6           0        0.457776    0.584371   -0.000150
      5          6           0        1.857559    0.161323   -0.000000
      6          7           0        2.961636   -0.177403    0.000144
      7          1           0        0.291892    1.210356   -0.883031
      8          1           0        0.291845    1.210781    0.882420
      9          1           0       -0.344538   -1.246824   -0.884167
     10          1           0       -0.344618   -1.246376    0.884719
     11          3           0        5.387329   -0.782391    0.000827
 ---------------------------------------------------------------------
                    Distance matrix (angstroms):
                    1          2          3          4          5
     1  N    0.000000
     2  C    1.156062   0.000000
     3  C    2.618613   1.462808   0.000000
     4  C    3.447087   2.460808   1.546378   0.000000
     5  C    4.832308   3.761720   2.492197   1.462314   0.000000
     6  N    5.951346   4.853108   3.498044   2.617177   1.154869
     7  H    3.514614   2.718936   2.186869   1.094921   2.081231
     8  H    3.514425   2.718972   2.186873   1.094921   2.081222
     9  H    3.155698   2.093030   1.094168   2.185971   2.759322
    10  H    3.155452   2.093046   1.094169   2.185970   2.759334
    11  Li   8.425552   7.306271   5.897324   5.115519   3.653748
                    6          7          8          9         10
     6  N    0.000000
     7  H    3.135826   0.000000
     8  H    3.135801   1.765451   0.000000
     9  H    3.585589   2.538262   3.092836   0.000000
    10  H    3.585595   3.092832   2.538249   1.768886   0.000000
    11  Li   2.500000   5.542177   5.542012   5.818351   5.818227
                   11
    11  Li   0.000000
 Stoichiometry    C4H4LiN2(1+)
 Framework group  C1[X(C4H4LiN2)]
 Deg. of freedom    27
 Full point group                 C1      NOp   1
 RotChk:  IX=0 Diff= 8.59D-16
 Largest Abelian subgroup         C1      NOp   1
 Largest concise Abelian subgroup C1      NOp   1
                         Standard orientation:                         
 ---------------------------------------------------------------------
 Center     Atomic      Atomic             Coordinates (Angstroms)
 Number     Number       Type             X           Y           Z
 ---------------------------------------------------------------------
      1          7           0       -3.328787   -0.128778   -0.000296
      2          6           0       -2.226661    0.220214    0.000149
      3          6           0       -0.820214    0.622350    0.000115
      4          6           0        0.081039   -0.634244    0.000075
      5          6           0        1.500999   -0.284853    0.000079
      6          7           0        2.621255   -0.004231    0.000057
      7          1           0       -0.117337   -1.250952    0.882781
      8          1           0       -0.117332   -1.250899   -0.882670
      9          1           0       -0.624615    1.236102    0.884566
     10          1           0       -0.624644    1.236136   -0.884320
     11          3           0        5.075226    0.473291   -0.000394
 ---------------------------------------------------------------------
 Rotational constants (GHZ):          22.7781995           0.9530682           0.9253355
 Leave Link  202 at Wed Aug  6 21:39:32 2025, MaxMem=   104857600 cpu:               0.0 elap:               0.0
 (Enter /Applications/g16/l601.exe)
 Copying SCF densities to generalized density rwf, IOpCl= 0 IROHF=0.

 **********************************************************************

            Population analysis using the SCF Density.

 **********************************************************************

 Orbital symmetries:
       Occupied  (A) (A) (A) (A) (A) (A) (A) (A) (A) (A) (A) (A)
                 (A) (A) (A) (A) (A) (A) (A) (A) (A) (A)
       Virtual   (A) (A) (A) (A) (A) (A) (A) (A) (A) (A) (A) (A)
                 (A) (A) (A) (A) (A) (A) (A) (A) (A) (A) (A) (A)
                 (A) (A) (A) (A) (A) (A) (A) (A) (A) (A) (A) (A)
                 (A) (A) (A) (A) (A) (A) (A) (A) (A) (A) (A) (A)
                 (A) (A) (A) (A) (A) (A) (A) (A) (A) (A) (A) (A)
                 (A) (A) (A) (A) (A) (A) (A) (A) (A) (A) (A) (A)
                 (A) (A) (A) (A) (A) (A) (A) (A) (A) (A) (A) (A)
                 (A) (A) (A) (A) (A) (A) (A)
 The electronic state is 1-A.
 Alpha  occ. eigenvalues --  -14.64267 -14.56162 -10.53410 -10.50466 -10.48949
 Alpha  occ. eigenvalues --  -10.44801  -2.37857  -1.19222  -1.11597  -1.06738
 Alpha  occ. eigenvalues --   -0.95047  -0.77512  -0.73299  -0.71928  -0.67062
 Alpha  occ. eigenvalues --   -0.65675  -0.64573  -0.59528  -0.58627  -0.54863
 Alpha  occ. eigenvalues --   -0.52022  -0.51715
 Alpha virt. eigenvalues --   -0.15153  -0.09997  -0.09830  -0.06127  -0.05940
 Alpha virt. eigenvalues --   -0.05430  -0.00229   0.01180   0.03863   0.03923
 Alpha virt. eigenvalues --    0.04175   0.04690   0.08169   0.08609   0.08914
 Alpha virt. eigenvalues --    0.12950   0.15169   0.16361   0.16611   0.29335
 Alpha virt. eigenvalues --    0.34595   0.35329   0.36142   0.36142   0.36679
 Alpha virt. eigenvalues --    0.43901   0.47161   0.48433   0.50949   0.51114
 Alpha virt. eigenvalues --    0.54585   0.57123   0.61145   0.62422   0.65975
 Alpha virt. eigenvalues --    0.67327   0.72363   0.75727   0.78389   0.79627
 Alpha virt. eigenvalues --    0.81363   0.82667   0.85188   0.86012   0.88838
 Alpha virt. eigenvalues --    0.92766   0.97440   0.99378   1.04110   1.09189
 Alpha virt. eigenvalues --    1.11989   1.28004   1.30503   1.32470   1.40737
 Alpha virt. eigenvalues --    1.41581   1.43461   1.47958   1.49430   1.52648
 Alpha virt. eigenvalues --    1.64832   1.65288   1.71688   1.79824   1.80733
 Alpha virt. eigenvalues --    1.85207   1.87140   1.91197   1.91677   1.93204
 Alpha virt. eigenvalues --    1.96015   1.99162   2.16172   2.16273   2.19529
 Alpha virt. eigenvalues --    2.28390   2.39192   2.65289   2.70713   2.74682
 Alpha virt. eigenvalues --    2.77836   2.80201   2.88456   3.13742   3.25377
 Alpha virt. eigenvalues --    3.98673   4.04329   4.08815   4.19993   4.50819
 Alpha virt. eigenvalues --    4.71692
          Condensed to atoms (all electrons):
               1          2          3          4          5          6
     1  N    6.627260   0.864672  -0.081692  -0.000795  -0.000074  -0.000000
     2  C    0.864672   4.602934   0.277745  -0.039269   0.003632  -0.000056
     3  C   -0.081692   0.277745   5.218093   0.314642  -0.035595  -0.001284
     4  C   -0.000795  -0.039269   0.314642   5.220690   0.280739  -0.062209
     5  C   -0.000074   0.003632  -0.035595   0.280739   4.511280   0.844735
     6  N   -0.000000  -0.000056  -0.001284  -0.062209   0.844735   6.668461
     7  H    0.000298  -0.001957  -0.027305   0.377567  -0.032191  -0.001171
     8  H    0.000298  -0.001957  -0.027305   0.377567  -0.032193  -0.001172
     9  H   -0.000547  -0.027899   0.378409  -0.031701  -0.003382   0.000120
    10  H   -0.000552  -0.027906   0.378430  -0.031703  -0.003380   0.000120
    11  Li  -0.000001  -0.000006   0.000082   0.000527  -0.001692   0.104158
               7          8          9         10         11
     1  N    0.000298   0.000298  -0.000547  -0.000552  -0.000001
     2  C   -0.001957  -0.001957  -0.027899  -0.027906  -0.000006
     3  C   -0.027305  -0.027305   0.378409   0.378430   0.000082
     4  C    0.377567   0.377567  -0.031701  -0.031703   0.000527
     5  C   -0.032191  -0.032193  -0.003382  -0.003380  -0.001692
     6  N   -0.001171  -0.001172   0.000120   0.000120   0.104158
     7  H    0.421177  -0.017872  -0.002333   0.002841   0.000016
     8  H   -0.017872   0.421176   0.002841  -0.002333   0.000016
     9  H   -0.002333   0.002841   0.449231  -0.021093   0.000132
    10  H    0.002841  -0.002333  -0.021093   0.449206   0.000132
    11  Li   0.000016   0.000016   0.000132   0.000132   2.028307
 Mulliken charges:
               1
     1  N   -0.408868
     2  C    0.350066
     3  C   -0.394220
     4  C   -0.406055
     5  C    0.468122
     6  N   -0.551702
     7  H    0.280932
     8  H    0.280934
     9  H    0.256222
    10  H    0.256238
    11  Li   0.868329
 Sum of Mulliken charges =   1.00000
 Mulliken charges with hydrogens summed into heavy atoms:
               1
     1  N   -0.408868
     2  C    0.350066
     3  C    0.118241
     4  C    0.155812
     5  C    0.468122
     6  N   -0.551702
    11  Li   0.868329
 Electronic spatial extent (au):  <R**2>=            957.6316
 Charge=              1.0000 electrons
 Dipole moment (field-independent basis, Debye):
    X=             21.2505    Y=              1.9613    Z=             -0.0011  Tot=             21.3408
 Quadrupole moment (field-independent basis, Debye-Ang):
   XX=             55.9366   YY=            -30.3815   ZZ=            -32.5960
   XY=              8.3988   XZ=             -0.0111   YZ=             -0.0010
 Traceless Quadrupole moment (field-independent basis, Debye-Ang):
   XX=             58.2836   YY=            -28.0346   ZZ=            -30.2490
   XY=              8.3988   XZ=             -0.0111   YZ=             -0.0010
 Octapole moment (field-independent basis, Debye-Ang**2):
  XXX=            638.4133  YYY=              2.3432  ZZZ=             -0.0019  XYY=             12.8468
  XXY=             61.1990  XXZ=             -0.0429  XZZ=              7.7352  YZZ=              0.5140
  YYZ=             -0.0010  XYZ=             -0.0043
 Hexadecapole moment (field-independent basis, Debye-Ang**3):
 XXXX=           1792.9692 YYYY=            -80.5983 ZZZZ=            -41.7239 XXXY=            286.4185
 XXXZ=             -0.2775 YYYX=             14.4313 YYYZ=             -0.0018 ZZZX=             -0.0110
 ZZZY=             -0.0010 XXYY=           -150.6226 XXZZ=           -171.4002 YYZZ=            -17.0575
 XXYZ=             -0.0248 YYXZ=             -0.0060 ZZXY=              3.7642
 N-N= 1.932487944736D+02 E-N=-1.010784209217D+03  KE= 2.689627084128D+02
 No NMR shielding tensors so no spin-rotation constants.
 Leave Link  601 at Wed Aug  6 21:39:32 2025, MaxMem=   104857600 cpu:               0.0 elap:               0.0
 (Enter /Applications/g16/l9999.exe)
 Unable to Open any file for archive entry.
 1\1\GINC-MBPSRAK\FOpt\RwB97XD\6-31G(d)\C4H4Li1N2(1+)\ROOT\06-Aug-2025\
 0\\#P wb97xd/6-31g(d) opt(modredundant)\\Gaussian input prepared by AS
 E\\1,1\N,-2.9737897184,0.257614895,0.0002136341\C,-1.8913861227,-0.148
 4407346,-0.0000912127\C,-0.5078522358,-0.6234568306,0.0001103714\C,0.4
 577755593,0.5843713314,-0.0001504299\C,1.8575585085,0.1613226979,-0.00
 00002401\N,2.9616357652,-0.1774027249,0.0001439322\H,0.2918920401,1.21
 03557111,-0.8830305705\H,0.2918449131,1.2107807274,0.8824200166\H,-0.3
 445378189,-1.2468237777,-0.8841669767\H,-0.3446181046,-1.2463755337,0.
 8847187819\Li,5.3873292289,-0.7823909509,0.0008271935\\Version=Apple M
 1-G16RevC.02\State=1-A\HF=-271.546888\RMSD=9.941e-09\RMSF=3.984e-03\Di
 pole=8.3088927,-1.2070747,0.0009967\Quadrupole=42.5063573,-20.0169634,
 -22.4893939,-9.5561704,0.012631,-0.002128\PG=C01 [X(C4H4Li1N2)]\\@
 The archive entry for this job was punched.


 THERE'S A SUCKER BORN EVERY MINUTE

              -- PHINEAS TAYLOR (P.T.) BARNUM
 Job cpu time:       0 days  0 hours  0 minutes 54.6 seconds.
 Elapsed time:       0 days  0 hours  0 minutes 54.6 seconds.
 File lengths (MBytes):  RWF=     10 Int=      0 D2E=      0 Chk=      2 Scr=      1
 Normal termination of Gaussian 16 at Wed Aug  6 21:39:32 2025.
