 Entering Gaussian System, Link 0=g16
 Input=/Users/srak/Desktop/imolcraft/vsite_positiondiff/SNLi.gjf
 Output=/Users/srak/Desktop/imolcraft/vsite_positiondiff/SNLi.log
 Initial command:
 /Applications/g16/l1.exe "/Users/srak/g16_scratch/Gau-83438.inp" -scrdir="/Users/srak/g16_scratch/"
 Entering Link 1 = /Applications/g16/l1.exe PID=     83439.
  
 Copyright (c) 1988-2021, Gaussian, Inc.  All Rights Reserved.
  
 This is part of the Gaussian(R) 16 program.  It is based on
 the Gaussian(R) 09 system (copyright 2009, Gaussian, Inc.),
 the Gaussian(R) 03 system (copyright 2003, Gaussian, Inc.),
 the Gaussian(R) 98 system (copyright 1998, Gaussian, Inc.),
 the Gaussian(R) 94 system (copyright 1995, Gaussian, Inc.),
 the Gaussian 92(TM) system (copyright 1992, Gaussian, Inc.),
 the Gaussian 90(TM) system (copyright 1990, Gaussian, Inc.),
 the Gaussian 88(TM) system (copyright 1988, Gaussian, Inc.),
 the Gaussian 86(TM) system (copyright 1986, Carnegie Mellon
 University), and the Gaussian 82(TM) system (copyright 1983,
 Carnegie Mellon University). Gaussian is a federally registered
 trademark of Gaussian, Inc.
  
 This software contains proprietary and confidential information,
 including trade secrets, belonging to Gaussian, Inc.
  
 This software is provided under written license and may be
 used, copied, transmitted, or stored only in accord with that
 written license.
  
 The following legend is applicable only to US Government
 contracts under FAR:
  
                    RESTRICTED RIGHTS LEGEND
  
 Use, reproduction and disclosure by the US Government is
 subject to restrictions as set forth in subparagraphs (a)
 and (c) of the Commercial Computer Software - Restricted
 Rights clause in FAR 52.227-19.
  
 Gaussian, Inc.
 340 Quinnipiac St., Bldg. 40, Wallingford CT 06492
  
  
 ---------------------------------------------------------------
 Warning -- This program may not be used in any manner that
 competes with the business of Gaussian, Inc. or will provide
 assistance to any competitor of Gaussian, Inc.  The licensee
 of this program is prohibited from giving any competitor of
 Gaussian, Inc. access to this program.  By using this program,
 the user acknowledges that Gaussian, Inc. is engaged in the
 business of creating and licensing software in the field of
 computational chemistry and represents and warrants to the
 licensee that it is not a competitor of Gaussian, Inc. and that
 it will not use this program in any manner prohibited above.
 ---------------------------------------------------------------
  

 Cite this work as:
 Gaussian 16, Revision C.02,
 M. J. Frisch, G. W. Trucks, H. B. Schlegel, G. E. Scuseria, 
 M. A. Robb, J. R. Cheeseman, G. Scalmani, V. Barone, 
 G. A. Petersson, H. Nakatsuji, X. Li, M. Caricato, A. V. Marenich, 
 J. Bloino, B. G. Janesko, R. Gomperts, B. Mennucci, H. P. Hratchian, 
 J. V. Ortiz, A. F. Izmaylov, J. L. Sonnenberg, D. Williams-Young, 
 F. Ding, F. Lipparini, F. Egidi, J. Goings, B. Peng, A. Petrone, 
 T. Henderson, D. Ranasinghe, V. G. Zakrzewski, J. Gao, N. Rega, 
 G. Zheng, W. Liang, M. Hada, M. Ehara, K. Toyota, R. Fukuda, 
 J. Hasegawa, M. Ishida, T. Nakajima, Y. Honda, O. Kitao, H. Nakai, 
 T. Vreven, K. Throssell, J. A. Montgomery, Jr., J. E. Peralta, 
 F. Ogliaro, M. J. Bearpark, J. J. Heyd, E. N. Brothers, K. N. Kudin, 
 V. N. Staroverov, T. A. Keith, R. Kobayashi, J. Normand, 
 K. Raghavachari, A. P. Rendell, J. C. Burant, S. S. Iyengar, 
 J. Tomasi, M. Cossi, J. M. Millam, M. Klene, C. Adamo, R. Cammi, 
 J. W. Ochterski, R. L. Martin, K. Morokuma, O. Farkas, 
 J. B. Foresman, and D. J. Fox, Gaussian, Inc., Wallingford CT, 2019.
 
 *********************************************
 Gaussian 16:  Apple M1-G16RevC.02  7-Dec-2021
                   6-Aug-2025 
 *********************************************
 ----------------------
 #p opt wb97xd/6-31g(d)
 ----------------------
 1/18=20,19=15,26=3,38=1/1,3;
 2/9=110,12=2,17=6,18=5,40=1/2;
 3/5=1,6=6,7=1,11=2,25=1,30=1,71=1,74=-58/1,2,3;
 4//1;
 5/5=2,38=5/2;
 6/7=2,8=2,9=2,10=2,28=1/1;
 7//1,2,3,16;
 1/18=20,19=15,26=3/3(2);
 2/9=110/2;
 99//99;
 2/9=110/2;
 3/5=1,6=6,7=1,11=2,25=1,30=1,71=1,74=-58/1,2,3;
 4/5=5,16=3,69=1/1;
 5/5=2,38=5/2;
 7//1,2,3,16;
 1/18=20,19=15,26=3/3(-5);
 2/9=110/2;
 6/7=2,8=2,9=2,10=2,19=2,28=1/1;
 99/9=1/99;
 Leave Link    1 at Wed Aug  6 20:05:10 2025, MaxMem=           0 cpu:               0.0 elap:               0.0
 (Enter /Applications/g16/l101.exe)
 ------------------------------
 Gaussian input prepared by ASE
 ------------------------------
 Symbolic Z-matrix:
 Charge =  1 Multiplicity = 1
 N                    -2.96816   0.19967  -0.00009 
 C                    -1.86837  -0.15868  -0.00002 
 C                    -0.46635  -0.58749   0.00009 
 C                     0.46628   0.58734   0.00009 
 C                     1.86837   0.15865  -0.00004 
 N                     2.96823  -0.19948  -0.00009 
 H                     0.29733   1.21795  -0.87913 
 H                     0.29746   1.21782   0.87943 
 H                    -0.2974   -1.21807  -0.87915 
 H                    -0.29748  -1.21799   0.8794 
 Li                    4.66903  -0.667     0. 
 
 ITRead=  0  0  0  0  0  0  0  0  0  0  0
 MicOpt= -1 -1 -1 -1 -1 -1 -1 -1 -1 -1 -1
 NAtoms=     11 NQM=       11 NQMF=       0 NMMI=      0 NMMIF=      0
                NMic=       0 NMicF=      0.
                    Isotopes and Nuclear Properties:
 (Nuclear quadrupole moments (NQMom) in fm**2, nuclear magnetic moments (NMagM)
  in nuclear magnetons)

  Atom         1           2           3           4           5           6           7           8           9          10
 IAtWgt=          14          12          12          12          12          14           1           1           1           1
 AtmWgt=  14.0030740  12.0000000  12.0000000  12.0000000  12.0000000  14.0030740   1.0078250   1.0078250   1.0078250   1.0078250
 NucSpn=           2           0           0           0           0           2           1           1           1           1
 AtZEff=  -0.0000000  -0.0000000  -0.0000000  -0.0000000  -0.0000000  -0.0000000  -0.0000000  -0.0000000  -0.0000000  -0.0000000
 NQMom=    2.0440000   0.0000000   0.0000000   0.0000000   0.0000000   2.0440000   0.0000000   0.0000000   0.0000000   0.0000000
 NMagM=    0.4037610   0.0000000   0.0000000   0.0000000   0.0000000   0.4037610   2.7928460   2.7928460   2.7928460   2.7928460
 AtZNuc=   7.0000000   6.0000000   6.0000000   6.0000000   6.0000000   7.0000000   1.0000000   1.0000000   1.0000000   1.0000000

  Atom        11
 IAtWgt=           7
 AtmWgt=   7.0160045
 NucSpn=           3
 AtZEff=  -0.0000000
 NQMom=   -4.0100000
 NMagM=    3.2564240
 AtZNuc=   3.0000000
 Leave Link  101 at Wed Aug  6 20:05:11 2025, MaxMem=   104857600 cpu:               0.0 elap:               0.0
 (Enter /Applications/g16/l103.exe)

 GradGradGradGradGradGradGradGradGradGradGradGradGradGradGradGradGradGrad
 Berny optimization.
 Initialization pass.
                           ----------------------------
                           !    Initial Parameters    !
                           ! (Angstroms and Degrees)  !
 --------------------------                            --------------------------
 ! Name  Definition              Value          Derivative Info.                !
 --------------------------------------------------------------------------------
 ! R1    R(1,2)                  1.1567         estimate D2E/DX2                !
 ! R2    R(2,3)                  1.4661         estimate D2E/DX2                !
 ! R3    R(3,4)                  1.5            estimate D2E/DX2                !
 ! R4    R(3,9)                  1.0951         estimate D2E/DX2                !
 ! R5    R(3,10)                 1.0951         estimate D2E/DX2                !
 ! R6    R(4,5)                  1.4662         estimate D2E/DX2                !
 ! R7    R(4,7)                  1.0951         estimate D2E/DX2                !
 ! R8    R(4,8)                  1.0951         estimate D2E/DX2                !
 ! R9    R(5,6)                  1.1567         estimate D2E/DX2                !
 ! R10   R(6,11)                 1.7639         estimate D2E/DX2                !
 ! A1    A(2,3,4)              111.4378         estimate D2E/DX2                !
 ! A2    A(2,3,9)              108.4147         estimate D2E/DX2                !
 ! A3    A(2,3,10)             108.4157         estimate D2E/DX2                !
 ! A4    A(4,3,9)              110.7979         estimate D2E/DX2                !
 ! A5    A(4,3,10)             110.7974         estimate D2E/DX2                !
 ! A6    A(9,3,10)             106.8191         estimate D2E/DX2                !
 ! A7    A(3,4,5)              111.4431         estimate D2E/DX2                !
 ! A8    A(3,4,7)              110.7989         estimate D2E/DX2                !
 ! A9    A(3,4,8)              110.7982         estimate D2E/DX2                !
 ! A10   A(5,4,7)              108.4114         estimate D2E/DX2                !
 ! A11   A(5,4,8)              108.4107         estimate D2E/DX2                !
 ! A12   A(7,4,8)              106.8199         estimate D2E/DX2                !
 ! A13   L(1,2,3,7,-1)         179.05           estimate D2E/DX2                !
 ! A14   L(4,5,6,9,-1)         179.0565         estimate D2E/DX2                !
 ! A15   L(5,6,11,10,-1)       182.4198         estimate D2E/DX2                !
 ! A16   L(1,2,3,7,-2)         179.4638         estimate D2E/DX2                !
 ! A17   L(4,5,6,9,-2)         180.5358         estimate D2E/DX2                !
 ! A18   L(5,6,11,10,-2)       181.8756         estimate D2E/DX2                !
 ! D1    D(2,3,4,5)           -179.9902         estimate D2E/DX2                !
 ! D2    D(2,3,4,7)            -59.1818         estimate D2E/DX2                !
 ! D3    D(2,3,4,8)             59.2028         estimate D2E/DX2                !
 ! D4    D(9,3,4,5)            -59.1819         estimate D2E/DX2                !
 ! D5    D(9,3,4,7)             61.6265         estimate D2E/DX2                !
 ! D6    D(9,3,4,8)           -179.9889         estimate D2E/DX2                !
 ! D7    D(10,3,4,5)            59.2005         estimate D2E/DX2                !
 ! D8    D(10,3,4,7)          -179.9911         estimate D2E/DX2                !
 ! D9    D(10,3,4,8)           -61.6065         estimate D2E/DX2                !
 --------------------------------------------------------------------------------
 Trust Radius=3.00D-01 FncErr=1.00D-07 GrdErr=1.00D-06 EigMax=2.50D+02 EigMin=1.00D-04
 Number of steps in this run=     47 maximum allowed number of steps=    100.
 GradGradGradGradGradGradGradGradGradGradGradGradGradGradGradGradGradGrad

 Leave Link  103 at Wed Aug  6 20:05:11 2025, MaxMem=   104857600 cpu:               0.0 elap:               0.0
 (Enter /Applications/g16/l202.exe)
                          Input orientation:                          
 ---------------------------------------------------------------------
 Center     Atomic      Atomic             Coordinates (Angstroms)
 Number     Number       Type             X           Y           Z
 ---------------------------------------------------------------------
      1          7           0       -2.968158    0.199670   -0.000094
      2          6           0       -1.868366   -0.158677   -0.000018
      3          6           0       -0.466349   -0.587485    0.000087
      4          6           0        0.466277    0.587338    0.000090
      5          6           0        1.868366    0.158650   -0.000039
      6          7           0        2.968234   -0.199479   -0.000086
      7          1           0        0.297325    1.217951   -0.879131
      8          1           0        0.297462    1.217822    0.879428
      9          1           0       -0.297396   -1.218072   -0.879152
     10          1           0       -0.297485   -1.217994    0.879396
     11          3           0        4.669032   -0.667005    0.000000
 ---------------------------------------------------------------------
                    Distance matrix (angstroms):
                    1          2          3          4          5
     1  N    0.000000
     2  C    1.156700   0.000000
     3  C    2.622720   1.466127   0.000000
     4  C    3.456245   2.450938   1.500000   0.000000
     5  C    4.836698   3.750182   2.451043   1.466161   0.000000
     6  N    5.949796   4.836772   3.456430   2.622760   1.156705
     7  H    3.531711   2.712593   2.148446   1.095101   2.088801
     8  H    3.531921   2.712745   2.148437   1.095100   2.088791
     9  H    3.148921   2.088813   1.095101   2.148434   2.712698
    10  H    3.148931   2.088825   1.095099   2.148426   2.712833
    11  Li   7.686208   6.557131   5.135996   4.385946   2.919835
                    6          7          8          9         10
     6  N    0.000000
     7  H    3.148902   0.000000
     8  H    3.148859   1.758559   0.000000
     9  H    3.531944   2.507569   3.062685   0.000000
    10  H    3.532107   3.062686   2.507421   1.758548   0.000000
    11  Li   1.763886   4.841255   4.841135   5.073656   5.073777
                   11
    11  Li   0.000000
 Stoichiometry    C4H4LiN2(1+)
 Framework group  C1[X(C4H4LiN2)]
 Deg. of freedom    27
 Full point group                 C1      NOp   1
 Largest Abelian subgroup         C1      NOp   1
 Largest concise Abelian subgroup C1      NOp   1
                         Standard orientation:                         
 ---------------------------------------------------------------------
 Center     Atomic      Atomic             Coordinates (Angstroms)
 Number     Number       Type             X           Y           Z
 ---------------------------------------------------------------------
      1          7           0       -3.286576    0.112511   -0.000094
      2          6           0       -2.173307   -0.201471   -0.000018
      3          6           0       -0.755231   -0.573746    0.000087
      4          6           0        0.129563    0.637510    0.000090
      5          6           0        1.547706    0.265357   -0.000039
      6          7           0        2.661043   -0.048404   -0.000086
      7          1           0       -0.064527    1.260845   -0.879131
      8          1           0       -0.064385    1.260722    0.879428
      9          1           0       -0.561141   -1.197056   -0.879152
     10          1           0       -0.561233   -1.196981    0.879396
     11          3           0        4.379211   -0.447392    0.000000
 ---------------------------------------------------------------------
 Rotational constants (GHZ):          24.1145444           1.0510298           1.0198021
 Leave Link  202 at Wed Aug  6 20:05:11 2025, MaxMem=   104857600 cpu:               0.0 elap:               0.0
 (Enter /Applications/g16/l301.exe)
 Standard basis: 6-31G(d) (6D, 7F)
 Ernie: Thresh=  0.10000D-02 Tol=  0.10000D-05 Strict=F.
 There are   113 symmetry adapted cartesian basis functions of A   symmetry.
 There are   113 symmetry adapted basis functions of A   symmetry.
   113 basis functions,   212 primitive gaussians,   113 cartesian basis functions
    22 alpha electrons       22 beta electrons
       nuclear repulsion energy       197.4079693022 Hartrees.
 IExCor= 4639 DFT=T Ex+Corr=wB97XD ExCW=0 ScaHFX=  1.000000
 ScaDFX=  1.000000  1.000000  1.000000  1.000000 ScalE2=  1.000000  1.000000
 IRadAn=      5 IRanWt=     -1 IRanGd=            0 ICorTp=0 IEmpDi=121
 HFx  wShort=  0.000000 wLong=  0.200000 cFull=  0.222036 cShort=  0.000000 cLong=  0.777964
 DFx  wShort=  0.000000 wLong=  0.200000 cFull=  0.000000 cShort=  0.000000 cLong=  1.000000
 NAtoms=   11 NActive=   11 NUniq=   11 SFac= 1.00D+00 NAtFMM=   60 NAOKFM=F Big=F
 Integral buffers will be    131072 words long.
 Raffenetti 2 integral format.
 Two-electron integral symmetry is turned on.
 R6Disp:  Grimme-D2 Dispersion energy=       -0.0047357337 Hartrees.
 Nuclear repulsion after empirical dispersion term =      197.4032335685 Hartrees.
 Leave Link  301 at Wed Aug  6 20:05:11 2025, MaxMem=   104857600 cpu:               0.0 elap:               0.0
 (Enter /Applications/g16/l302.exe)
 NPDir=0 NMtPBC=     1 NCelOv=     1 NCel=       1 NClECP=     1 NCelD=      1
         NCelK=      1 NCelE2=     1 NClLst=     1 CellRange=     0.0.
 One-electron integrals computed using PRISM.
 One-electron integral symmetry used in STVInt
 NBasis=   113 RedAO= T EigKep=  8.48D-04  NBF=   113
 NBsUse=   113 1.00D-06 EigRej= -1.00D+00 NBFU=   113
 Precomputing XC quadrature grid using
 IXCGrd= 4 IRadAn=           5 IRanWt=          -1 IRanGd=           0 AccXCQ= 0.00D+00.
 Generated NRdTot=       0 NPtTot=           0 NUsed=           0 NTot=          32
 NSgBfM=   113   113   113   113   113 MxSgAt=    11 MxSgA2=    11.
 Leave Link  302 at Wed Aug  6 20:05:11 2025, MaxMem=   104857600 cpu:               0.1 elap:               0.1
 (Enter /Applications/g16/l303.exe)
 DipDrv:  MaxL=1.
 Leave Link  303 at Wed Aug  6 20:05:11 2025, MaxMem=   104857600 cpu:               0.0 elap:               0.0
 (Enter /Applications/g16/l401.exe)
 ExpMin= 3.60D-02 ExpMax= 4.17D+03 ExpMxC= 6.27D+02 IAcc=3 IRadAn=         5 AccDes= 0.00D+00
 Harris functional with IExCor= 4639 and IRadAn=       5 diagonalized for initial guess.
 HarFok:  IExCor= 4639 AccDes= 0.00D+00 IRadAn=         5 IDoV= 1 UseB2=F ITyADJ=14
 ICtDFT=  3500011 ScaDFX=  1.000000  1.000000  1.000000  1.000000
 FoFCou: FMM=F IPFlag=           0 FMFlag=      100000 FMFlg1=           0
         NFxFlg=           0 DoJE=T BraDBF=F KetDBF=T FulRan=T
         wScrn=  0.000000 ICntrl=       500 IOpCl=  0 I1Cent=   200000004 NGrid=           0
         NMat0=    1 NMatS0=      1 NMatT0=    0 NMatD0=    1 NMtDS0=    0 NMtDT0=    0
 Petite list used in FoFCou.
 Harris En= -259.798290354180    
 JPrj=0 DoOrth=F DoCkMO=F.
 Leave Link  401 at Wed Aug  6 20:05:11 2025, MaxMem=   104857600 cpu:               0.6 elap:               0.6
 (Enter /Applications/g16/l502.exe)
 Keep R1 ints in memory in canonical form, NReq=43174005.
 FoFCou: FMM=F IPFlag=           0 FMFlag=           0 FMFlg1=           0
         NFxFlg=           0 DoJE=F BraDBF=F KetDBF=F FulRan=T
         wScrn=  0.000000 ICntrl=       600 IOpCl=  0 I1Cent=           0 NGrid=           0
         NMat0=    1 NMatS0=   6441 NMatT0=    0 NMatD0=    1 NMtDS0=    0 NMtDT0=    0
 Symmetry not used in FoFCou.
 Two-electron integral symmetry not used.
 Closed shell SCF:
 Using DIIS extrapolation, IDIIS=  1040.
 NGot=   104857600 LenX=    63336875 LenY=    63323665
 Requested convergence on RMS density matrix=1.00D-08 within 128 cycles.
 Requested convergence on MAX density matrix=1.00D-06.
 Requested convergence on             energy=1.00D-06.
 No special actions if energy rises.

 Cycle   1  Pass 1  IDiag  1:
 E= -271.483070694903    
 DIIS: error= 6.06D-02 at cycle   1 NSaved=   1.
 NSaved= 1 IEnMin= 1 EnMin= -271.483070694903     IErMin= 1 ErrMin= 6.06D-02
 ErrMax= 6.06D-02  0.00D+00 EMaxC= 1.00D-01 BMatC= 2.46D-01 BMatP= 2.46D-01
 IDIUse=3 WtCom= 3.94D-01 WtEn= 6.06D-01
 Coeff-Com:  0.100D+01
 Coeff-En:   0.100D+01
 Coeff:      0.100D+01
 Gap=     0.401 Goal=   None    Shift=    0.000
 GapD=    0.401 DampG=2.000 DampE=0.500 DampFc=1.0000 IDamp=-1.
 RMSDP=5.75D-03 MaxDP=1.26D-01              OVMax= 6.42D-02

 Cycle   2  Pass 1  IDiag  1:
 E= -271.527748353679     Delta-E=       -0.044677658776 Rises=F Damp=F
 DIIS: error= 1.50D-02 at cycle   2 NSaved=   2.
 NSaved= 2 IEnMin= 2 EnMin= -271.527748353679     IErMin= 2 ErrMin= 1.50D-02
 ErrMax= 1.50D-02  0.00D+00 EMaxC= 1.00D-01 BMatC= 2.91D-02 BMatP= 2.46D-01
 IDIUse=3 WtCom= 8.50D-01 WtEn= 1.50D-01
 Coeff-Com:  0.165D+00 0.835D+00
 Coeff-En:   0.000D+00 0.100D+01
 Coeff:      0.140D+00 0.860D+00
 Gap=     0.416 Goal=   None    Shift=    0.000
 RMSDP=2.33D-03 MaxDP=5.98D-02 DE=-4.47D-02 OVMax= 8.08D-02

 Cycle   3  Pass 1  IDiag  1:
 E= -271.519048371514     Delta-E=        0.008699982165 Rises=F Damp=F
 DIIS: error= 1.89D-02 at cycle   3 NSaved=   3.
 NSaved= 3 IEnMin= 2 EnMin= -271.527748353679     IErMin= 2 ErrMin= 1.50D-02
 ErrMax= 1.89D-02  0.00D+00 EMaxC= 1.00D-01 BMatC= 4.00D-02 BMatP= 2.91D-02
 IDIUse=2 WtCom= 0.00D+00 WtEn= 1.00D+00
 Coeff-En:   0.000D+00 0.564D+00 0.436D+00
 Coeff:      0.000D+00 0.564D+00 0.436D+00
 Gap=     0.390 Goal=   None    Shift=    0.000
 RMSDP=1.17D-03 MaxDP=3.24D-02 DE= 8.70D-03 OVMax= 4.74D-02

 Cycle   4  Pass 1  IDiag  1:
 E= -271.552146018678     Delta-E=       -0.033097647164 Rises=F Damp=F
 DIIS: error= 1.32D-03 at cycle   4 NSaved=   4.
 NSaved= 4 IEnMin= 4 EnMin= -271.552146018678     IErMin= 4 ErrMin= 1.32D-03
 ErrMax= 1.32D-03  0.00D+00 EMaxC= 1.00D-01 BMatC= 2.97D-04 BMatP= 2.91D-02
 IDIUse=3 WtCom= 9.87D-01 WtEn= 1.32D-02
 Coeff-Com:  0.118D-02 0.185D+00 0.135D+00 0.679D+00
 Coeff-En:   0.000D+00 0.000D+00 0.000D+00 0.100D+01
 Coeff:      0.116D-02 0.182D+00 0.134D+00 0.683D+00
 Gap=     0.394 Goal=   None    Shift=    0.000
 RMSDP=1.98D-04 MaxDP=5.42D-03 DE=-3.31D-02 OVMax= 3.92D-03

 Cycle   5  Pass 1  IDiag  1:
 E= -271.552420047716     Delta-E=       -0.000274029038 Rises=F Damp=F
 DIIS: error= 4.13D-04 at cycle   5 NSaved=   5.
 NSaved= 5 IEnMin= 5 EnMin= -271.552420047716     IErMin= 5 ErrMin= 4.13D-04
 ErrMax= 4.13D-04  0.00D+00 EMaxC= 1.00D-01 BMatC= 2.64D-05 BMatP= 2.97D-04
 IDIUse=3 WtCom= 9.96D-01 WtEn= 4.13D-03
 Coeff-Com: -0.564D-03 0.492D-01 0.343D-01 0.280D+00 0.637D+00
 Coeff-En:   0.000D+00 0.000D+00 0.000D+00 0.000D+00 0.100D+01
 Coeff:     -0.562D-03 0.490D-01 0.342D-01 0.279D+00 0.639D+00
 Gap=     0.393 Goal=   None    Shift=    0.000
 RMSDP=5.35D-05 MaxDP=1.18D-03 DE=-2.74D-04 OVMax= 2.13D-03

 Cycle   6  Pass 1  IDiag  1:
 E= -271.552438141487     Delta-E=       -0.000018093772 Rises=F Damp=F
 DIIS: error= 2.70D-04 at cycle   6 NSaved=   6.
 NSaved= 6 IEnMin= 6 EnMin= -271.552438141487     IErMin= 6 ErrMin= 2.70D-04
 ErrMax= 2.70D-04  0.00D+00 EMaxC= 1.00D-01 BMatC= 8.16D-06 BMatP= 2.64D-05
 IDIUse=3 WtCom= 9.97D-01 WtEn= 2.70D-03
 Coeff-Com: -0.582D-03-0.952D-02-0.755D-02 0.268D-01 0.375D+00 0.616D+00
 Coeff-En:   0.000D+00 0.000D+00 0.000D+00 0.000D+00 0.185D+00 0.815D+00
 Coeff:     -0.581D-03-0.949D-02-0.753D-02 0.267D-01 0.374D+00 0.616D+00
 Gap=     0.394 Goal=   None    Shift=    0.000
 RMSDP=3.98D-05 MaxDP=1.65D-03 DE=-1.81D-05 OVMax= 7.81D-04

 Cycle   7  Pass 1  IDiag  1:
 E= -271.552445085880     Delta-E=       -0.000006944393 Rises=F Damp=F
 DIIS: error= 4.67D-05 at cycle   7 NSaved=   7.
 NSaved= 7 IEnMin= 7 EnMin= -271.552445085880     IErMin= 7 ErrMin= 4.67D-05
 ErrMax= 4.67D-05  0.00D+00 EMaxC= 1.00D-01 BMatC= 2.41D-07 BMatP= 8.16D-06
 IDIUse=1 WtCom= 1.00D+00 WtEn= 0.00D+00
 Coeff-Com: -0.584D-04-0.822D-02-0.575D-02-0.196D-01 0.628D-01 0.197D+00
 Coeff-Com:  0.774D+00
 Coeff:     -0.584D-04-0.822D-02-0.575D-02-0.196D-01 0.628D-01 0.197D+00
 Coeff:      0.774D+00
 Gap=     0.394 Goal=   None    Shift=    0.000
 RMSDP=8.97D-06 MaxDP=3.41D-04 DE=-6.94D-06 OVMax= 1.33D-04

 Cycle   8  Pass 1  IDiag  1:
 E= -271.552445358051     Delta-E=       -0.000000272171 Rises=F Damp=F
 DIIS: error= 9.45D-06 at cycle   8 NSaved=   8.
 NSaved= 8 IEnMin= 8 EnMin= -271.552445358051     IErMin= 8 ErrMin= 9.45D-06
 ErrMax= 9.45D-06  0.00D+00 EMaxC= 1.00D-01 BMatC= 1.20D-08 BMatP= 2.41D-07
 IDIUse=1 WtCom= 1.00D+00 WtEn= 0.00D+00
 Coeff-Com:  0.769D-05-0.134D-02-0.854D-03-0.700D-02-0.140D-01 0.120D-02
 Coeff-Com:  0.190D+00 0.832D+00
 Coeff:      0.769D-05-0.134D-02-0.854D-03-0.700D-02-0.140D-01 0.120D-02
 Coeff:      0.190D+00 0.832D+00
 Gap=     0.394 Goal=   None    Shift=    0.000
 RMSDP=2.50D-06 MaxDP=9.85D-05 DE=-2.72D-07 OVMax= 4.19D-05

 Cycle   9  Pass 1  IDiag  1:
 E= -271.552445375074     Delta-E=       -0.000000017024 Rises=F Damp=F
 DIIS: error= 1.92D-06 at cycle   9 NSaved=   9.
 NSaved= 9 IEnMin= 9 EnMin= -271.552445375074     IErMin= 9 ErrMin= 1.92D-06
 ErrMax= 1.92D-06  0.00D+00 EMaxC= 1.00D-01 BMatC= 4.27D-10 BMatP= 1.20D-08
 IDIUse=1 WtCom= 1.00D+00 WtEn= 0.00D+00
 Coeff-Com:  0.366D-05 0.306D-03 0.234D-03 0.180D-03-0.524D-02-0.940D-02
 Coeff-Com: -0.224D-01 0.687D-01 0.968D+00
 Coeff:      0.366D-05 0.306D-03 0.234D-03 0.180D-03-0.524D-02-0.940D-02
 Coeff:     -0.224D-01 0.687D-01 0.968D+00
 Gap=     0.394 Goal=   None    Shift=    0.000
 RMSDP=5.02D-07 MaxDP=1.18D-05 DE=-1.70D-08 OVMax= 1.23D-05

 Cycle  10  Pass 1  IDiag  1:
 E= -271.552445376038     Delta-E=       -0.000000000964 Rises=F Damp=F
 DIIS: error= 8.14D-07 at cycle  10 NSaved=  10.
 NSaved=10 IEnMin=10 EnMin= -271.552445376038     IErMin=10 ErrMin= 8.14D-07
 ErrMax= 8.14D-07  0.00D+00 EMaxC= 1.00D-01 BMatC= 4.87D-11 BMatP= 4.27D-10
 IDIUse=1 WtCom= 1.00D+00 WtEn= 0.00D+00
 Coeff-Com:  0.140D-05 0.174D-03 0.122D-03 0.534D-03-0.319D-03-0.207D-02
 Coeff-Com: -0.180D-01-0.409D-01 0.203D+00 0.857D+00
 Coeff:      0.140D-05 0.174D-03 0.122D-03 0.534D-03-0.319D-03-0.207D-02
 Coeff:     -0.180D-01-0.409D-01 0.203D+00 0.857D+00
 Gap=     0.394 Goal=   None    Shift=    0.000
 RMSDP=1.38D-07 MaxDP=2.92D-06 DE=-9.64D-10 OVMax= 4.98D-06

 Cycle  11  Pass 1  IDiag  1:
 E= -271.552445376149     Delta-E=       -0.000000000111 Rises=F Damp=F
 DIIS: error= 2.13D-07 at cycle  11 NSaved=  11.
 NSaved=11 IEnMin=11 EnMin= -271.552445376149     IErMin=11 ErrMin= 2.13D-07
 ErrMax= 2.13D-07  0.00D+00 EMaxC= 1.00D-01 BMatC= 3.34D-12 BMatP= 4.87D-11
 IDIUse=1 WtCom= 1.00D+00 WtEn= 0.00D+00
 Coeff-Com: -0.390D-06-0.374D-04-0.266D-04-0.539D-04 0.380D-03 0.908D-03
 Coeff-Com:  0.331D-02 0.101D-03-0.102D+00-0.792D-01 0.118D+01
 Coeff:     -0.390D-06-0.374D-04-0.266D-04-0.539D-04 0.380D-03 0.908D-03
 Coeff:      0.331D-02 0.101D-03-0.102D+00-0.792D-01 0.118D+01
 Gap=     0.394 Goal=   None    Shift=    0.000
 RMSDP=5.39D-08 MaxDP=1.36D-06 DE=-1.11D-10 OVMax= 2.61D-06

 Cycle  12  Pass 1  IDiag  1:
 E= -271.552445376165     Delta-E=       -0.000000000016 Rises=F Damp=F
 DIIS: error= 6.73D-08 at cycle  12 NSaved=  12.
 NSaved=12 IEnMin=12 EnMin= -271.552445376165     IErMin=12 ErrMin= 6.73D-08
 ErrMax= 6.73D-08  0.00D+00 EMaxC= 1.00D-01 BMatC= 2.16D-13 BMatP= 3.34D-12
 IDIUse=1 WtCom= 1.00D+00 WtEn= 0.00D+00
 Coeff-Com: -0.113D-06-0.947D-05-0.660D-05-0.290D-04 0.224D-04 0.920D-04
 Coeff-Com:  0.819D-03 0.193D-02-0.666D-02-0.505D-01-0.892D-01 0.114D+01
 Coeff:     -0.113D-06-0.947D-05-0.660D-05-0.290D-04 0.224D-04 0.920D-04
 Coeff:      0.819D-03 0.193D-02-0.666D-02-0.505D-01-0.892D-01 0.114D+01
 Gap=     0.394 Goal=   None    Shift=    0.000
 RMSDP=1.26D-08 MaxDP=3.63D-07 DE=-1.60D-11 OVMax= 7.52D-07

 Cycle  13  Pass 1  IDiag  1:
 E= -271.552445376169     Delta-E=       -0.000000000004 Rises=F Damp=F
 DIIS: error= 1.60D-08 at cycle  13 NSaved=  13.
 NSaved=13 IEnMin=13 EnMin= -271.552445376169     IErMin=13 ErrMin= 1.60D-08
 ErrMax= 1.60D-08  0.00D+00 EMaxC= 1.00D-01 BMatC= 3.47D-14 BMatP= 2.16D-13
 IDIUse=1 WtCom= 1.00D+00 WtEn= 0.00D+00
 Coeff-Com: -0.125D-07-0.437D-06-0.392D-06-0.486D-05-0.123D-04-0.331D-04
 Coeff-Com:  0.205D-04 0.502D-03 0.507D-02-0.907D-02-0.107D+00 0.332D+00
 Coeff-Com:  0.778D+00
 Coeff:     -0.125D-07-0.437D-06-0.392D-06-0.486D-05-0.123D-04-0.331D-04
 Coeff:      0.205D-04 0.502D-03 0.507D-02-0.907D-02-0.107D+00 0.332D+00
 Coeff:      0.778D+00
 Gap=     0.394 Goal=   None    Shift=    0.000
 RMSDP=2.71D-09 MaxDP=5.54D-08 DE=-4.09D-12 OVMax= 1.26D-07

 SCF Done:  E(RwB97XD) =  -271.552445376     A.U. after   13 cycles
            NFock= 13  Conv=0.27D-08     -V/T= 2.0088
 KE= 2.691810556357D+02 PE=-1.018303266496D+03 EE= 2.801665319152D+02
 Leave Link  502 at Wed Aug  6 20:05:20 2025, MaxMem=   104857600 cpu:               8.6 elap:               8.7
 (Enter /Applications/g16/l601.exe)
 Copying SCF densities to generalized density rwf, IOpCl= 0 IROHF=0.

 **********************************************************************

            Population analysis using the SCF Density.

 **********************************************************************

 Orbital symmetries:
       Occupied  (A) (A) (A) (A) (A) (A) (A) (A) (A) (A) (A) (A)
                 (A) (A) (A) (A) (A) (A) (A) (A) (A) (A)
       Virtual   (A) (A) (A) (A) (A) (A) (A) (A) (A) (A) (A) (A)
                 (A) (A) (A) (A) (A) (A) (A) (A) (A) (A) (A) (A)
                 (A) (A) (A) (A) (A) (A) (A) (A) (A) (A) (A) (A)
                 (A) (A) (A) (A) (A) (A) (A) (A) (A) (A) (A) (A)
                 (A) (A) (A) (A) (A) (A) (A) (A) (A) (A) (A) (A)
                 (A) (A) (A) (A) (A) (A) (A) (A) (A) (A) (A) (A)
                 (A) (A) (A) (A) (A) (A) (A) (A) (A) (A) (A) (A)
                 (A) (A) (A) (A) (A) (A) (A)
 The electronic state is 1-A.
 Alpha  occ. eigenvalues --  -14.67469 -14.57555 -10.57990 -10.52705 -10.50482
 Alpha  occ. eigenvalues --  -10.46169  -2.32952  -1.23307  -1.13210  -1.09579
 Alpha  occ. eigenvalues --   -0.96999  -0.80602  -0.75888  -0.75300  -0.71916
 Alpha  occ. eigenvalues --   -0.68504  -0.66799  -0.63396  -0.61880  -0.56120
 Alpha  occ. eigenvalues --   -0.53489  -0.52992
 Alpha virt. eigenvalues --   -0.13634  -0.12529  -0.12163  -0.06640  -0.06465
 Alpha virt. eigenvalues --   -0.06370  -0.01094  -0.00222   0.04317   0.04681
 Alpha virt. eigenvalues --    0.05023   0.06074   0.07668   0.08292   0.10207
 Alpha virt. eigenvalues --    0.13648   0.14999   0.15177   0.18157   0.29285
 Alpha virt. eigenvalues --    0.34028   0.37033   0.37035   0.38318   0.40367
 Alpha virt. eigenvalues --    0.46438   0.47654   0.50244   0.50428   0.53479
 Alpha virt. eigenvalues --    0.55427   0.60294   0.61753   0.64237   0.65962
 Alpha virt. eigenvalues --    0.67001   0.69816   0.74611   0.76920   0.78062
 Alpha virt. eigenvalues --    0.80561   0.82275   0.84046   0.85818   0.90255
 Alpha virt. eigenvalues --    0.93251   0.97475   1.02694   1.03450   1.06088
 Alpha virt. eigenvalues --    1.10984   1.28040   1.30548   1.32888   1.38141
 Alpha virt. eigenvalues --    1.39303   1.42775   1.46508   1.48142   1.51274
 Alpha virt. eigenvalues --    1.63332   1.64403   1.68837   1.77988   1.80162
 Alpha virt. eigenvalues --    1.81661   1.86214   1.89704   1.89872   1.91832
 Alpha virt. eigenvalues --    1.93312   1.97931   2.14920   2.14981   2.17332
 Alpha virt. eigenvalues --    2.27802   2.38153   2.61007   2.68188   2.72987
 Alpha virt. eigenvalues --    2.76464   2.78283   2.84742   3.11663   3.23794
 Alpha virt. eigenvalues --    4.01237   4.03397   4.07630   4.17115   4.47165
 Alpha virt. eigenvalues --    4.69686
          Condensed to atoms (all electrons):
               1          2          3          4          5          6
     1  N    6.626815   0.857738  -0.082047  -0.000537  -0.000089  -0.000000
     2  C    0.857738   4.603704   0.278446  -0.037850   0.004086  -0.000037
     3  C   -0.082047   0.278446   5.231970   0.310426  -0.038081  -0.001756
     4  C   -0.000537  -0.037850   0.310426   5.211233   0.291116  -0.053917
     5  C   -0.000089   0.004086  -0.038081   0.291116   4.526381   0.749971
     6  N   -0.000000  -0.000037  -0.001756  -0.053917   0.749971   6.756740
     7  H    0.000314  -0.001925  -0.028935   0.377689  -0.032167  -0.001397
     8  H    0.000314  -0.001925  -0.028933   0.377688  -0.032166  -0.001397
     9  H   -0.000625  -0.027164   0.379296  -0.034157  -0.004394   0.000050
    10  H   -0.000625  -0.027158   0.379289  -0.034151  -0.004395   0.000050
    11  Li  -0.000005  -0.000170   0.000648  -0.000003  -0.020134   0.164127
               7          8          9         10         11
     1  N    0.000314   0.000314  -0.000625  -0.000625  -0.000005
     2  C   -0.001925  -0.001925  -0.027164  -0.027158  -0.000170
     3  C   -0.028935  -0.028933   0.379296   0.379289   0.000648
     4  C    0.377689   0.377688  -0.034157  -0.034151  -0.000003
     5  C   -0.032167  -0.032166  -0.004394  -0.004395  -0.020134
     6  N   -0.001397  -0.001397   0.000050   0.000050   0.164127
     7  H    0.408125  -0.017119  -0.002800   0.003133   0.000353
     8  H   -0.017119   0.408130   0.003133  -0.002802   0.000353
     9  H   -0.002800   0.003133   0.446001  -0.021470   0.000458
    10  H    0.003133  -0.002802  -0.021470   0.445995   0.000458
    11  Li   0.000353   0.000353   0.000458   0.000458   2.057299
 Mulliken charges:
               1
     1  N   -0.401252
     2  C    0.352257
     3  C   -0.400322
     4  C   -0.407536
     5  C    0.559873
     6  N   -0.612434
     7  H    0.294726
     8  H    0.294724
     9  H    0.261673
    10  H    0.261676
    11  Li   0.796616
 Sum of Mulliken charges =   1.00000
 Mulliken charges with hydrogens summed into heavy atoms:
               1
     1  N   -0.401252
     2  C    0.352257
     3  C    0.123027
     4  C    0.181914
     5  C    0.559873
     6  N   -0.612434
    11  Li   0.796616
 Electronic spatial extent (au):  <R**2>=            902.5643
 Charge=              1.0000 electrons
 Dipole moment (field-independent basis, Debye):
    X=             17.1436    Y=             -1.4446    Z=              0.0005  Tot=             17.2044
 Quadrupole moment (field-independent basis, Debye-Ang):
   XX=             23.2544   YY=            -30.3365   ZZ=            -32.4798
   XY=             -5.9710   XZ=             -0.0000   YZ=              0.0000
 Traceless Quadrupole moment (field-independent basis, Debye-Ang):
   XX=             36.4417   YY=            -17.1492   ZZ=            -19.2925
   XY=             -5.9710   XZ=             -0.0000   YZ=              0.0000
 Octapole moment (field-independent basis, Debye-Ang**2):
  XXX=            401.1955  YYY=             -1.4327  ZZZ=              0.0013  XYY=             10.0300
  XXY=            -41.7633  XXZ=              0.0036  XZZ=              6.2170  YZZ=             -0.2213
  YYZ=              0.0002  XYZ=              0.0000
 Hexadecapole moment (field-independent basis, Debye-Ang**3):
 XXXX=            409.6361 YYYY=            -77.2388 ZZZZ=            -41.4417 XXXY=           -166.2228
 XXXZ=             -0.0004 YYYX=            -10.7274 YYYZ=             -0.0002 ZZZX=              0.0001
 ZZZY=              0.0002 XXYY=           -155.1918 XXZZ=           -167.3519 YYZZ=            -16.4665
 XXYZ=             -0.0001 YYXZ=              0.0002 ZZXY=             -2.7709
 N-N= 1.974032335685D+02 E-N=-1.018303266343D+03  KE= 2.691810556357D+02
 No NMR shielding tensors so no spin-rotation constants.
 Leave Link  601 at Wed Aug  6 20:05:20 2025, MaxMem=   104857600 cpu:               0.0 elap:               0.0
 (Enter /Applications/g16/l701.exe)
 ... and contract with generalized density number  0.
 Compute integral first derivatives.
 R6Disp: Adding Grimme-D2 dispersion energy 1st derivatives to the gradient.
 Leave Link  701 at Wed Aug  6 20:05:20 2025, MaxMem=   104857600 cpu:               0.0 elap:               0.0
 (Enter /Applications/g16/l702.exe)
 L702 exits ... SP integral derivatives will be done elsewhere.
 Leave Link  702 at Wed Aug  6 20:05:20 2025, MaxMem=   104857600 cpu:               0.0 elap:               0.0
 (Enter /Applications/g16/l703.exe)
 Integral derivatives from FoFJK, PRISM(SPDF).
 Compute integral first derivatives, UseDBF=F ICtDFT=           0.
 Calling FoFJK, ICntrl=      2127 FMM=F ISym2X=0 I1Cent= 0 IOpClX= 0 NMat=1 NMatS=1 NMatT=0.
 FoFJK:  IHMeth= 1 ICntrl=    2127 DoSepK=T KAlg= 0 I1Cent=           0 FoldK=F
 IRaf=         1 NMat=       1 IRICut=       1 DoRegI=T DoRafI=F ISym2E= 0 IDoP0=0 IntGTp=1.
 FoFCou: FMM=F IPFlag=           0 FMFlag=      100000 FMFlg1=         800
         NFxFlg=           0 DoJE=F BraDBF=F KetDBF=F FulRan=T
         wScrn=  0.000000 ICntrl=      2527 IOpCl=  0 I1Cent=           0 NGrid=           0
         NMat0=    1 NMatS0=      1 NMatT0=    0 NMatD0=    1 NMtDS0=    0 NMtDT0=    0
 Symmetry not used in FoFCou.
 Leave Link  703 at Wed Aug  6 20:05:23 2025, MaxMem=   104857600 cpu:               2.6 elap:               2.6
 (Enter /Applications/g16/l716.exe)
 Dipole        = 6.74481623D+00-5.68332586D-01 2.12072600D-04
 ***** Axes restored to original set *****
 -------------------------------------------------------------------
 Center     Atomic                   Forces (Hartrees/Bohr)
 Number     Number              X              Y              Z
 -------------------------------------------------------------------
      1        7           0.002026681   -0.000522104   -0.000000335
      2        6           0.000381866    0.001677188    0.000002325
      3        6          -0.015435989   -0.023358852   -0.000003073
      4        6           0.013061365    0.018032739   -0.000002159
      5        6          -0.000788586    0.001627719    0.000004532
      6        7          -0.032186676    0.009483451   -0.000002075
      7        1           0.002261201    0.000744921   -0.000888352
      8        1           0.002260725    0.000746803    0.000887966
      9        1          -0.000752981   -0.000077887   -0.000373528
     10        1          -0.000753152   -0.000078978    0.000374022
     11        3           0.029925546   -0.008275001    0.000000675
 -------------------------------------------------------------------
 Cartesian Forces:  Max     0.032186676 RMS     0.010142271
 Leave Link  716 at Wed Aug  6 20:05:23 2025, MaxMem=   104857600 cpu:               0.0 elap:               0.0
 (Enter /Applications/g16/l103.exe)

 GradGradGradGradGradGradGradGradGradGradGradGradGradGradGradGradGradGrad
 Berny optimization.
 FormGI is forming the generalized inverse of G from B-inverse, IUseBI=4.
 Internal  Forces:  Max     0.031048553 RMS     0.006896774
 Search for a local minimum.
 Step number   1 out of a maximum of   47
 All quantities printed in internal units (Hartrees-Bohrs-Radians)
 RMS Force = .68968D-02 SwitMx=.10000D-02 MixMth= 1
 Mixed Optimization -- RFO/linear search
 Second derivative matrix not updated -- first step.
 ITU=  0
     Eigenvalues ---    0.00766   0.01214   0.01214   0.02568   0.02568
     Eigenvalues ---    0.04910   0.04910   0.05713   0.05714   0.06126
     Eigenvalues ---    0.06126   0.15258   0.16000   0.16000   0.16000
     Eigenvalues ---    0.16000   0.22256   0.22256   0.32377   0.34230
     Eigenvalues ---    0.34230   0.34230   0.34230   0.36204   0.36208
     Eigenvalues ---    1.29975   1.29978
 RFO step:  Lambda=-8.53629946D-03 EMin= 7.65946039D-03
 Linear search not attempted -- first point.
 Iteration  1 RMS(Cart)=  0.04886372 RMS(Int)=  0.00037453
 Iteration  2 RMS(Cart)=  0.00053897 RMS(Int)=  0.00005393
 Iteration  3 RMS(Cart)=  0.00000025 RMS(Int)=  0.00005393
 ITry= 1 IFail=0 DXMaxC= 2.04D-01 DCOld= 1.00D+10 DXMaxT= 3.00D-01 DXLimC= 3.00D+00 Rises=F
 Variable       Old X    -DE/DX   Delta X   Delta X   Delta X     New X
                                 (Linear)    (Quad)   (Total)
    R1        2.18585  -0.00209   0.00000  -0.00160  -0.00160   2.18425
    R2        2.77058  -0.00197   0.00000  -0.00530  -0.00530   2.76528
    R3        2.83459   0.02655   0.00000   0.07989   0.07989   2.91448
    R4        2.06944   0.00023   0.00000   0.00065   0.00065   2.07009
    R5        2.06944   0.00023   0.00000   0.00065   0.00065   2.07009
    R6        2.77064  -0.00375   0.00000  -0.01011  -0.01011   2.76054
    R7        2.06944   0.00079   0.00000   0.00226   0.00226   2.07170
    R8        2.06944   0.00079   0.00000   0.00226   0.00226   2.07170
    R9        2.18586  -0.00252   0.00000  -0.00193  -0.00193   2.18393
   R10        3.33326   0.03105   0.00000   0.19270   0.19270   3.52597
    A1        1.94496  -0.00428   0.00000  -0.02086  -0.02085   1.92411
    A2        1.89219   0.00096   0.00000  -0.00051  -0.00050   1.89170
    A3        1.89221   0.00095   0.00000  -0.00052  -0.00051   1.89170
    A4        1.93379   0.00139   0.00000   0.00851   0.00845   1.94224
    A5        1.93378   0.00139   0.00000   0.00851   0.00845   1.94223
    A6        1.86434  -0.00023   0.00000   0.00566   0.00554   1.86989
    A7        1.94505   0.00282   0.00000   0.00961   0.00959   1.95464
    A8        1.93381   0.00175   0.00000   0.01275   0.01264   1.94645
    A9        1.93379   0.00175   0.00000   0.01276   0.01265   1.94645
   A10        1.89214  -0.00286   0.00000  -0.01885  -0.01886   1.87327
   A11        1.89212  -0.00286   0.00000  -0.01885  -0.01886   1.87326
   A12        1.86436  -0.00095   0.00000   0.00093   0.00074   1.86510
   A13        3.12501  -0.00026   0.00000  -0.01273  -0.01273   3.11228
   A14        3.12513   0.00075   0.00000   0.01303   0.01303   3.13816
   A15        3.18383  -0.00014   0.00000  -0.00412  -0.00412   3.17971
   A16        3.13223  -0.00009   0.00000  -0.00447  -0.00447   3.12776
   A17        3.15094  -0.00027   0.00000  -0.00472  -0.00472   3.14622
   A18        3.17433  -0.00004   0.00000  -0.00119  -0.00119   3.17314
    D1       -3.14142  -0.00000   0.00000  -0.00004  -0.00004  -3.14146
    D2       -1.03292  -0.00052   0.00000  -0.00875  -0.00879  -1.04171
    D3        1.03328   0.00052   0.00000   0.00867   0.00872   1.04200
    D4       -1.03292  -0.00074   0.00000  -0.00897  -0.00901  -1.04192
    D5        1.07559  -0.00126   0.00000  -0.01768  -0.01777   1.05782
    D6       -3.14140  -0.00021   0.00000  -0.00026  -0.00025   3.14153
    D7        1.03324   0.00074   0.00000   0.00892   0.00896   1.04220
    D8       -3.14144   0.00021   0.00000   0.00021   0.00020  -3.14124
    D9       -1.07524   0.00126   0.00000   0.01763   0.01771  -1.05753
         Item               Value     Threshold  Converged?
 Maximum Force            0.031049     0.000450     NO 
 RMS     Force            0.006897     0.000300     NO 
 Maximum Displacement     0.204140     0.001800     NO 
 RMS     Displacement     0.048940     0.001200     NO 
 Predicted change in Energy=-4.468328D-03
 Lowest energy point so far.  Saving SCF results.
 GradGradGradGradGradGradGradGradGradGradGradGradGradGradGradGradGradGrad

 Leave Link  103 at Wed Aug  6 20:05:23 2025, MaxMem=   104857600 cpu:               0.0 elap:               0.0
 (Enter /Applications/g16/l202.exe)
                          Input orientation:                          
 ---------------------------------------------------------------------
 Center     Atomic      Atomic             Coordinates (Angstroms)
 Number     Number       Type             X           Y           Z
 ---------------------------------------------------------------------
      1          7           0       -2.970370    0.243068    0.000663
      2          6           0       -1.885929   -0.156918    0.001274
      3          6           0       -0.497833   -0.620053   -0.000083
      4          6           0        0.466348    0.583681   -0.000444
      5          6           0        1.865533    0.163857   -0.001978
      6          7           0        2.970918   -0.173380   -0.000936
      7          1           0        0.315279    1.219750   -0.880481
      8          1           0        0.316976    1.218918    0.880482
      9          1           0       -0.345272   -1.251944   -0.881808
     10          1           0       -0.343767   -1.252606    0.880905
     11          3           0        4.777058   -0.641652    0.002887
 ---------------------------------------------------------------------
                    Distance matrix (angstroms):
                    1          2          3          4          5
     1  N    0.000000
     2  C    1.155855   0.000000
     3  C    2.618858   1.463321   0.000000
     4  C    3.453556   2.466110   1.542278   0.000000
     5  C    4.836553   3.765153   2.489983   1.460813   0.000000
     6  N    5.955866   4.856876   3.497392   2.616488   1.155684
     7  H    3.539183   2.741902   2.195706   1.096298   2.071223
     8  H    3.540199   2.742029   2.195705   1.096298   2.071212
     9  H    3.147214   2.086274   1.095445   2.192041   2.768799
    10  H    3.148160   2.086276   1.095445   2.192034   2.768909
    11  Li   7.797780   6.680596   5.274936   4.481481   3.020901
                    6          7          8          9         10
     6  N    0.000000
     7  H    3.125192   0.000000
     8  H    3.123908   1.760964   0.000000
     9  H    3.596714   2.558437   3.106348   0.000000
    10  H    3.595763   3.106343   2.558322   1.762714   0.000000
    11  Li   1.865861   4.914532   4.911642   5.233871   5.231351
                   11
    11  Li   0.000000
 Stoichiometry    C4H4LiN2(1+)
 Framework group  C1[X(C4H4LiN2)]
 Deg. of freedom    27
 Full point group                 C1      NOp   1
 RotChk:  IX=2 Diff= 2.14D-03
 Largest Abelian subgroup         C1      NOp   1
 Largest concise Abelian subgroup C1      NOp   1
                         Standard orientation:                         
 ---------------------------------------------------------------------
 Center     Atomic      Atomic             Coordinates (Angstroms)
 Number     Number       Type             X           Y           Z
 ---------------------------------------------------------------------
      1          7           0       -3.289175    0.152470    0.000483
      2          6           0       -2.189986   -0.204999    0.000865
      3          6           0       -0.784913   -0.613747   -0.000736
      4          6           0        0.131679    0.626607    0.000217
      5          6           0        1.546147    0.261569   -0.001517
      6          7           0        2.663821   -0.032384   -0.000639
      7          1           0       -0.043938    1.257173   -0.879222
      8          1           0       -0.042405    1.254686    0.881739
      9          1           0       -0.607772   -1.238358   -0.883053
     10          1           0       -0.606438   -1.240685    0.879659
     11          3           0        4.486820   -0.429997    0.002997
 ---------------------------------------------------------------------
 Rotational constants (GHZ):          23.4260680           1.0325465           1.0012154
 Leave Link  202 at Wed Aug  6 20:05:23 2025, MaxMem=   104857600 cpu:               0.0 elap:               0.0
 (Enter /Applications/g16/l301.exe)
 Standard basis: 6-31G(d) (6D, 7F)
 Ernie: Thresh=  0.10000D-02 Tol=  0.10000D-05 Strict=F.
 There are   113 symmetry adapted cartesian basis functions of A   symmetry.
 There are   113 symmetry adapted basis functions of A   symmetry.
   113 basis functions,   212 primitive gaussians,   113 cartesian basis functions
    22 alpha electrons       22 beta electrons
       nuclear repulsion energy       196.0774518319 Hartrees.
 IExCor= 4639 DFT=T Ex+Corr=wB97XD ExCW=0 ScaHFX=  1.000000
 ScaDFX=  1.000000  1.000000  1.000000  1.000000 ScalE2=  1.000000  1.000000
 IRadAn=      5 IRanWt=     -1 IRanGd=            0 ICorTp=0 IEmpDi=121
 HFx  wShort=  0.000000 wLong=  0.200000 cFull=  0.222036 cShort=  0.000000 cLong=  0.777964
 DFx  wShort=  0.000000 wLong=  0.200000 cFull=  0.000000 cShort=  0.000000 cLong=  1.000000
 NAtoms=   11 NActive=   11 NUniq=   11 SFac= 1.00D+00 NAtFMM=   60 NAOKFM=F Big=F
 Integral buffers will be    131072 words long.
 Raffenetti 2 integral format.
 Two-electron integral symmetry is turned on.
 R6Disp:  Grimme-D2 Dispersion energy=       -0.0046989337 Hartrees.
 Nuclear repulsion after empirical dispersion term =      196.0727528982 Hartrees.
 Leave Link  301 at Wed Aug  6 20:05:23 2025, MaxMem=   104857600 cpu:               0.0 elap:               0.0
 (Enter /Applications/g16/l302.exe)
 NPDir=0 NMtPBC=     1 NCelOv=     1 NCel=       1 NClECP=     1 NCelD=      1
         NCelK=      1 NCelE2=     1 NClLst=     1 CellRange=     0.0.
 One-electron integrals computed using PRISM.
 One-electron integral symmetry used in STVInt
 NBasis=   113 RedAO= T EigKep=  8.65D-04  NBF=   113
 NBsUse=   113 1.00D-06 EigRej= -1.00D+00 NBFU=   113
 Precomputing XC quadrature grid using
 IXCGrd= 4 IRadAn=           5 IRanWt=          -1 IRanGd=           0 AccXCQ= 0.00D+00.
 Generated NRdTot=       0 NPtTot=           0 NUsed=           0 NTot=          32
 NSgBfM=   113   113   113   113   113 MxSgAt=    11 MxSgA2=    11.
 Leave Link  302 at Wed Aug  6 20:05:23 2025, MaxMem=   104857600 cpu:               0.1 elap:               0.1
 (Enter /Applications/g16/l303.exe)
 DipDrv:  MaxL=1.
 Leave Link  303 at Wed Aug  6 20:05:23 2025, MaxMem=   104857600 cpu:               0.0 elap:               0.0
 (Enter /Applications/g16/l401.exe)
 Initial guess from the checkpoint file:  "/Users/srak/g16_scratch/Gau-83439.chk"
 B after Tr=    -0.000000    0.000000   -0.000000
         Rot=    1.000000   -0.000262   -0.000013    0.000625 Ang=  -0.08 deg.
 Guess basis will be translated and rotated to current coordinates.
 JPrj=2 DoOrth=T DoCkMO=T.
 Generating alternative initial guess.
 ExpMin= 3.60D-02 ExpMax= 4.17D+03 ExpMxC= 6.27D+02 IAcc=3 IRadAn=         5 AccDes= 0.00D+00
 Harris functional with IExCor= 4639 and IRadAn=       5 diagonalized for initial guess.
 HarFok:  IExCor= 4639 AccDes= 0.00D+00 IRadAn=         5 IDoV= 1 UseB2=F ITyADJ=14
 ICtDFT=  3500011 ScaDFX=  1.000000  1.000000  1.000000  1.000000
 FoFCou: FMM=F IPFlag=           0 FMFlag=      100000 FMFlg1=           0
         NFxFlg=           0 DoJE=T BraDBF=F KetDBF=T FulRan=T
         wScrn=  0.000000 ICntrl=       500 IOpCl=  0 I1Cent=   200000004 NGrid=           0
         NMat0=    1 NMatS0=      1 NMatT0=    0 NMatD0=    1 NMtDS0=    0 NMtDT0=    0
 Petite list used in FoFCou.
 Harris En= -259.806469311550    
 Leave Link  401 at Wed Aug  6 20:05:24 2025, MaxMem=   104857600 cpu:               0.6 elap:               0.6
 (Enter /Applications/g16/l502.exe)
 Keep R1 ints in memory in canonical form, NReq=43174005.
 FoFCou: FMM=F IPFlag=           0 FMFlag=           0 FMFlg1=           0
         NFxFlg=           0 DoJE=F BraDBF=F KetDBF=F FulRan=T
         wScrn=  0.000000 ICntrl=       600 IOpCl=  0 I1Cent=           0 NGrid=           0
         NMat0=    1 NMatS0=   6441 NMatT0=    0 NMatD0=    1 NMtDS0=    0 NMtDT0=    0
 Symmetry not used in FoFCou.
 Two-electron integral symmetry not used.
 Closed shell SCF:
 Using DIIS extrapolation, IDIIS=  1040.
 NGot=   104857600 LenX=    63336875 LenY=    63323665
 Requested convergence on RMS density matrix=1.00D-08 within 128 cycles.
 Requested convergence on MAX density matrix=1.00D-06.
 Requested convergence on             energy=1.00D-06.
 No special actions if energy rises.

 Cycle   1  Pass 1  IDiag  1:
 E= -271.555712283918    
 DIIS: error= 3.02D-03 at cycle   1 NSaved=   1.
 NSaved= 1 IEnMin= 1 EnMin= -271.555712283918     IErMin= 1 ErrMin= 3.02D-03
 ErrMax= 3.02D-03  0.00D+00 EMaxC= 1.00D-01 BMatC= 1.23D-03 BMatP= 1.23D-03
 IDIUse=3 WtCom= 9.70D-01 WtEn= 3.02D-02
 Coeff-Com:  0.100D+01
 Coeff-En:   0.100D+01
 Coeff:      0.100D+01
 Gap=     1.753 Goal=   None    Shift=    0.000
 GapD=    1.753 DampG=2.000 DampE=1.000 DampFc=2.0000 IDamp=-1.
 RMSDP=6.74D-04 MaxDP=1.81D-02              OVMax= 1.32D-02

 Cycle   2  Pass 1  IDiag  1:
 E= -271.557451803195     Delta-E=       -0.001739519276 Rises=F Damp=F
 DIIS: error= 1.37D-03 at cycle   2 NSaved=   2.
 NSaved= 2 IEnMin= 2 EnMin= -271.557451803195     IErMin= 2 ErrMin= 1.37D-03
 ErrMax= 1.37D-03  0.00D+00 EMaxC= 1.00D-01 BMatC= 2.00D-04 BMatP= 1.23D-03
 IDIUse=3 WtCom= 9.86D-01 WtEn= 1.37D-02
 Coeff-Com:  0.104D+00 0.896D+00
 Coeff-En:   0.000D+00 0.100D+01
 Coeff:      0.102D+00 0.898D+00
 Gap=     0.390 Goal=   None    Shift=    0.000
 RMSDP=1.80D-04 MaxDP=5.08D-03 DE=-1.74D-03 OVMax= 7.08D-03

 Cycle   3  Pass 1  IDiag  1:
 E= -271.557476920643     Delta-E=       -0.000025117448 Rises=F Damp=F
 DIIS: error= 1.69D-03 at cycle   3 NSaved=   3.
 NSaved= 3 IEnMin= 3 EnMin= -271.557476920643     IErMin= 2 ErrMin= 1.37D-03
 ErrMax= 1.69D-03  0.00D+00 EMaxC= 1.00D-01 BMatC= 2.41D-04 BMatP= 2.00D-04
 IDIUse=3 WtCom= 1.96D-01 WtEn= 8.04D-01
 Coeff-Com: -0.821D-01 0.560D+00 0.522D+00
 Coeff-En:   0.000D+00 0.465D+00 0.535D+00
 Coeff:     -0.161D-01 0.483D+00 0.533D+00
 Gap=     0.391 Goal=   None    Shift=    0.000
 RMSDP=1.15D-04 MaxDP=3.62D-03 DE=-2.51D-05 OVMax= 4.95D-03

 Cycle   4  Pass 1  IDiag  1:
 E= -271.557665880557     Delta-E=       -0.000188959915 Rises=F Damp=F
 DIIS: error= 4.26D-04 at cycle   4 NSaved=   4.
 NSaved= 4 IEnMin= 4 EnMin= -271.557665880557     IErMin= 4 ErrMin= 4.26D-04
 ErrMax= 4.26D-04  0.00D+00 EMaxC= 1.00D-01 BMatC= 1.79D-05 BMatP= 2.00D-04
 IDIUse=3 WtCom= 9.96D-01 WtEn= 4.26D-03
 Coeff-Com: -0.362D-01 0.651D-01 0.247D+00 0.724D+00
 Coeff-En:   0.000D+00 0.000D+00 0.000D+00 0.100D+01
 Coeff:     -0.361D-01 0.649D-01 0.246D+00 0.725D+00
 Gap=     0.390 Goal=   None    Shift=    0.000
 RMSDP=3.36D-05 MaxDP=8.37D-04 DE=-1.89D-04 OVMax= 1.27D-03

 Cycle   5  Pass 1  IDiag  1:
 E= -271.557682956151     Delta-E=       -0.000017075593 Rises=F Damp=F
 DIIS: error= 6.67D-05 at cycle   5 NSaved=   5.
 NSaved= 5 IEnMin= 5 EnMin= -271.557682956151     IErMin= 5 ErrMin= 6.67D-05
 ErrMax= 6.67D-05  0.00D+00 EMaxC= 1.00D-01 BMatC= 6.12D-07 BMatP= 1.79D-05
 IDIUse=1 WtCom= 1.00D+00 WtEn= 0.00D+00
 Coeff-Com:  0.949D-03-0.547D-01-0.237D-02 0.211D+00 0.845D+00
 Coeff:      0.949D-03-0.547D-01-0.237D-02 0.211D+00 0.845D+00
 Gap=     0.390 Goal=   None    Shift=    0.000
 RMSDP=9.51D-06 MaxDP=1.44D-04 DE=-1.71D-05 OVMax= 4.68D-04

 Cycle   6  Pass 1  IDiag  1:
 E= -271.557683813352     Delta-E=       -0.000000857201 Rises=F Damp=F
 DIIS: error= 3.01D-05 at cycle   6 NSaved=   6.
 NSaved= 6 IEnMin= 6 EnMin= -271.557683813352     IErMin= 6 ErrMin= 3.01D-05
 ErrMax= 3.01D-05  0.00D+00 EMaxC= 1.00D-01 BMatC= 9.21D-08 BMatP= 6.12D-07
 IDIUse=1 WtCom= 1.00D+00 WtEn= 0.00D+00
 Coeff-Com:  0.337D-02-0.280D-01-0.213D-01 0.241D-01 0.335D+00 0.687D+00
 Coeff:      0.337D-02-0.280D-01-0.213D-01 0.241D-01 0.335D+00 0.687D+00
 Gap=     0.390 Goal=   None    Shift=    0.000
 RMSDP=3.82D-06 MaxDP=1.04D-04 DE=-8.57D-07 OVMax= 1.47D-04

 Cycle   7  Pass 1  IDiag  1:
 E= -271.557683891761     Delta-E=       -0.000000078409 Rises=F Damp=F
 DIIS: error= 1.94D-05 at cycle   7 NSaved=   7.
 NSaved= 7 IEnMin= 7 EnMin= -271.557683891761     IErMin= 7 ErrMin= 1.94D-05
 ErrMax= 1.94D-05  0.00D+00 EMaxC= 1.00D-01 BMatC= 3.97D-08 BMatP= 9.21D-08
 IDIUse=1 WtCom= 1.00D+00 WtEn= 0.00D+00
 Coeff-Com:  0.197D-02-0.435D-02-0.136D-01-0.408D-01 0.131D-02 0.438D+00
 Coeff-Com:  0.617D+00
 Coeff:      0.197D-02-0.435D-02-0.136D-01-0.408D-01 0.131D-02 0.438D+00
 Coeff:      0.617D+00
 Gap=     0.390 Goal=   None    Shift=    0.000
 RMSDP=1.74D-06 MaxDP=4.18D-05 DE=-7.84D-08 OVMax= 6.84D-05

 Cycle   8  Pass 1  IDiag  1:
 E= -271.557683929586     Delta-E=       -0.000000037824 Rises=F Damp=F
 DIIS: error= 1.53D-06 at cycle   8 NSaved=   8.
 NSaved= 8 IEnMin= 8 EnMin= -271.557683929586     IErMin= 8 ErrMin= 1.53D-06
 ErrMax= 1.53D-06  0.00D+00 EMaxC= 1.00D-01 BMatC= 2.77D-10 BMatP= 3.97D-08
 IDIUse=1 WtCom= 1.00D+00 WtEn= 0.00D+00
 Coeff-Com: -0.696D-05 0.137D-02 0.630D-04-0.573D-02-0.192D-01 0.279D-02
 Coeff-Com:  0.670D-01 0.954D+00
 Coeff:     -0.696D-05 0.137D-02 0.630D-04-0.573D-02-0.192D-01 0.279D-02
 Coeff:      0.670D-01 0.954D+00
 Gap=     0.390 Goal=   None    Shift=    0.000
 RMSDP=3.58D-07 MaxDP=5.31D-06 DE=-3.78D-08 OVMax= 1.40D-05

 Cycle   9  Pass 1  IDiag  1:
 E= -271.557683930076     Delta-E=       -0.000000000490 Rises=F Damp=F
 DIIS: error= 3.07D-07 at cycle   9 NSaved=   9.
 NSaved= 9 IEnMin= 9 EnMin= -271.557683930076     IErMin= 9 ErrMin= 3.07D-07
 ErrMax= 3.07D-07  0.00D+00 EMaxC= 1.00D-01 BMatC= 1.25D-11 BMatP= 2.77D-10
 IDIUse=1 WtCom= 1.00D+00 WtEn= 0.00D+00
 Coeff-Com: -0.923D-04 0.371D-03 0.609D-03 0.120D-02-0.208D-02-0.208D-01
 Coeff-Com: -0.221D-01 0.969D-01 0.946D+00
 Coeff:     -0.923D-04 0.371D-03 0.609D-03 0.120D-02-0.208D-02-0.208D-01
 Coeff:     -0.221D-01 0.969D-01 0.946D+00
 Gap=     0.390 Goal=   None    Shift=    0.000
 RMSDP=9.16D-08 MaxDP=1.43D-06 DE=-4.90D-10 OVMax= 2.50D-06

 Cycle  10  Pass 1  IDiag  1:
 E= -271.557683930097     Delta-E=       -0.000000000021 Rises=F Damp=F
 DIIS: error= 1.08D-07 at cycle  10 NSaved=  10.
 NSaved=10 IEnMin=10 EnMin= -271.557683930097     IErMin=10 ErrMin= 1.08D-07
 ErrMax= 1.08D-07  0.00D+00 EMaxC= 1.00D-01 BMatC= 8.50D-13 BMatP= 1.25D-11
 IDIUse=1 WtCom= 1.00D+00 WtEn= 0.00D+00
 Coeff-Com: -0.125D-04-0.779D-05 0.742D-04 0.421D-03 0.568D-03-0.318D-02
 Coeff-Com: -0.624D-02-0.300D-01 0.149D+00 0.890D+00
 Coeff:     -0.125D-04-0.779D-05 0.742D-04 0.421D-03 0.568D-03-0.318D-02
 Coeff:     -0.624D-02-0.300D-01 0.149D+00 0.890D+00
 Gap=     0.390 Goal=   None    Shift=    0.000
 RMSDP=2.15D-08 MaxDP=4.02D-07 DE=-2.11D-11 OVMax= 5.74D-07

 Cycle  11  Pass 1  IDiag  1:
 E= -271.557683930106     Delta-E=       -0.000000000009 Rises=F Damp=F
 DIIS: error= 2.09D-08 at cycle  11 NSaved=  11.
 NSaved=11 IEnMin=11 EnMin= -271.557683930106     IErMin=11 ErrMin= 2.09D-08
 ErrMax= 2.09D-08  0.00D+00 EMaxC= 1.00D-01 BMatC= 7.44D-14 BMatP= 8.50D-13
 IDIUse=1 WtCom= 1.00D+00 WtEn= 0.00D+00
 Coeff-Com:  0.507D-05-0.282D-04-0.379D-04-0.370D-04 0.239D-03 0.123D-02
 Coeff-Com:  0.101D-02-0.124D-01-0.573D-01 0.127D+00 0.940D+00
 Coeff:      0.507D-05-0.282D-04-0.379D-04-0.370D-04 0.239D-03 0.123D-02
 Coeff:      0.101D-02-0.124D-01-0.573D-01 0.127D+00 0.940D+00
 Gap=     0.390 Goal=   None    Shift=    0.000
 RMSDP=6.81D-09 MaxDP=1.44D-07 DE=-9.09D-12 OVMax= 2.19D-07

 SCF Done:  E(RwB97XD) =  -271.557683930     A.U. after   11 cycles
            NFock= 11  Conv=0.68D-08     -V/T= 2.0092
 KE= 2.690700660727D+02 PE=-1.015728451522D+03 EE= 2.790279486209D+02
 Leave Link  502 at Wed Aug  6 20:05:31 2025, MaxMem=   104857600 cpu:               7.6 elap:               7.7
 (Enter /Applications/g16/l701.exe)
 ... and contract with generalized density number  0.
 Compute integral first derivatives.
 R6Disp: Adding Grimme-D2 dispersion energy 1st derivatives to the gradient.
 Leave Link  701 at Wed Aug  6 20:05:31 2025, MaxMem=   104857600 cpu:               0.0 elap:               0.0
 (Enter /Applications/g16/l702.exe)
 L702 exits ... SP integral derivatives will be done elsewhere.
 Leave Link  702 at Wed Aug  6 20:05:31 2025, MaxMem=   104857600 cpu:               0.0 elap:               0.0
 (Enter /Applications/g16/l703.exe)
 Integral derivatives from FoFJK, PRISM(SPDF).
 Compute integral first derivatives, UseDBF=F ICtDFT=           0.
 Calling FoFJK, ICntrl=      2127 FMM=F ISym2X=0 I1Cent= 0 IOpClX= 0 NMat=1 NMatS=1 NMatT=0.
 FoFJK:  IHMeth= 1 ICntrl=    2127 DoSepK=T KAlg= 0 I1Cent=           0 FoldK=F
 IRaf=         1 NMat=       1 IRICut=       1 DoRegI=T DoRafI=F ISym2E= 0 IDoP0=0 IntGTp=1.
 FoFCou: FMM=F IPFlag=           0 FMFlag=      100000 FMFlg1=         800
         NFxFlg=           0 DoJE=F BraDBF=F KetDBF=F FulRan=T
         wScrn=  0.000000 ICntrl=      2527 IOpCl=  0 I1Cent=           0 NGrid=           0
         NMat0=    1 NMatS0=      1 NMatT0=    0 NMatD0=    1 NMtDS0=    0 NMtDT0=    0
 Symmetry not used in FoFCou.
 Leave Link  703 at Wed Aug  6 20:05:34 2025, MaxMem=   104857600 cpu:               2.8 elap:               2.8
 (Enter /Applications/g16/l716.exe)
 Dipole        = 6.95859921D+00-6.16333822D-01 4.41961083D-03
 ***** Axes restored to original set *****
 -------------------------------------------------------------------
 Center     Atomic                   Forces (Hartrees/Bohr)
 Number     Number              X              Y              Z
 -------------------------------------------------------------------
      1        7          -0.000327807   -0.000186701    0.000055526
      2        6           0.001113886    0.001984494   -0.000112743
      3        6          -0.003629435   -0.004878834    0.000055473
      4        6           0.002853330    0.002990486   -0.000105481
      5        6           0.000011776   -0.000889116    0.000183408
      6        7          -0.011860192    0.003338534   -0.000088822
      7        1          -0.001052524   -0.001080506   -0.000241619
      8        1          -0.001011073   -0.001082508    0.000246944
      9        1           0.001184415    0.001413594   -0.000118390
     10        1           0.001210224    0.001408676    0.000115287
     11        3           0.011507399   -0.003018119    0.000010416
 -------------------------------------------------------------------
 Cartesian Forces:  Max     0.011860192 RMS     0.003325973
 Leave Link  716 at Wed Aug  6 20:05:34 2025, MaxMem=   104857600 cpu:               0.0 elap:               0.0
 (Enter /Applications/g16/l103.exe)

 GradGradGradGradGradGradGradGradGradGradGradGradGradGradGradGradGradGrad
 Berny optimization.
 Using GEDIIS/GDIIS optimizer.
 FormGI is forming the generalized inverse of G from B-inverse, IUseBI=4.
 Internal  Forces:  Max     0.011896561 RMS     0.002191316
 Search for a local minimum.
 Step number   2 out of a maximum of   47
 All quantities printed in internal units (Hartrees-Bohrs-Radians)
 RMS Force = .21913D-02 SwitMx=.10000D-02 MixMth= 1
 Mixed Optimization -- RFO/linear search
 Update second derivatives using D2CorX and points    1    2
 DE= -5.24D-03 DEPred=-4.47D-03 R= 1.17D+00
 TightC=F SS=  1.41D+00  RLast= 2.16D-01 DXNew= 5.0454D-01 6.4855D-01
 Trust test= 1.17D+00 RLast= 2.16D-01 DXMaxT set to 5.05D-01
 ITU=  1  0
 Use linear search instead of GDIIS.
     Eigenvalues ---    0.00766   0.01214   0.01217   0.02568   0.02568
     Eigenvalues ---    0.04905   0.04911   0.05632   0.05829   0.06003
     Eigenvalues ---    0.06077   0.09942   0.15997   0.16000   0.16000
     Eigenvalues ---    0.17042   0.22104   0.22310   0.34106   0.34229
     Eigenvalues ---    0.34230   0.34230   0.35428   0.36207   0.36475
     Eigenvalues ---    1.29964   1.30018
 RFO step:  Lambda=-1.16266957D-03 EMin= 7.65946014D-03
 Quartic linear search produced a step of  0.46807.
 Iteration  1 RMS(Cart)=  0.02772316 RMS(Int)=  0.00029114
 Iteration  2 RMS(Cart)=  0.00041919 RMS(Int)=  0.00007365
 Iteration  3 RMS(Cart)=  0.00000010 RMS(Int)=  0.00007365
 ITry= 1 IFail=0 DXMaxC= 1.42D-01 DCOld= 1.00D+10 DXMaxT= 5.05D-01 DXLimC= 3.00D+00 Rises=F
 Variable       Old X    -DE/DX   Delta X   Delta X   Delta X     New X
                                 (Linear)    (Quad)   (Total)
    R1        2.18425   0.00024  -0.00075   0.00081   0.00007   2.18432
    R2        2.76528  -0.00018  -0.00248   0.00097  -0.00151   2.76376
    R3        2.91448   0.00048   0.03740  -0.02289   0.01451   2.92899
    R4        2.07009  -0.00056   0.00030  -0.00258  -0.00227   2.06782
    R5        2.07009  -0.00055   0.00031  -0.00256  -0.00225   2.06784
    R6        2.76054  -0.00016  -0.00473   0.00255  -0.00218   2.75835
    R7        2.07170  -0.00029   0.00106  -0.00195  -0.00089   2.07082
    R8        2.07170  -0.00029   0.00106  -0.00196  -0.00090   2.07081
    R9        2.18393  -0.00043  -0.00090   0.00017  -0.00074   2.18319
   R10        3.52597   0.01190   0.09020   0.05991   0.15011   3.67607
    A1        1.92411  -0.00254  -0.00976  -0.01065  -0.02058   1.90353
    A2        1.89170   0.00210  -0.00023   0.01594   0.01555   1.90724
    A3        1.89170   0.00212  -0.00024   0.01633   0.01593   1.90763
    A4        1.94224  -0.00159   0.00396  -0.01787  -0.01406   1.92818
    A5        1.94223  -0.00161   0.00395  -0.01796  -0.01415   1.92808
    A6        1.86989   0.00183   0.00259   0.01661   0.01908   1.88897
    A7        1.95464  -0.00024   0.00449  -0.00397   0.00051   1.95515
    A8        1.94645  -0.00166   0.00592  -0.01892  -0.01310   1.93335
    A9        1.94645  -0.00162   0.00592  -0.01879  -0.01297   1.93348
   A10        1.87327   0.00113  -0.00883   0.01630   0.00746   1.88073
   A11        1.87326   0.00109  -0.00883   0.01561   0.00677   1.88003
   A12        1.86510   0.00156   0.00035   0.01291   0.01308   1.87818
   A13        3.11228   0.00063  -0.00596   0.06356   0.05760   3.16988
   A14        3.13816   0.00021   0.00610   0.00440   0.01050   3.14866
   A15        3.17971  -0.00009  -0.00193  -0.00487  -0.00680   3.17290
   A16        3.12776   0.00011  -0.00209   0.01038   0.00829   3.13605
   A17        3.14622  -0.00026  -0.00221  -0.00699  -0.00920   3.13702
   A18        3.17314  -0.00005  -0.00056  -0.00305  -0.00360   3.16954
    D1       -3.14146  -0.00001  -0.00002  -0.00025  -0.00027   3.14146
    D2       -1.04171   0.00012  -0.00412   0.00467   0.00051  -1.04120
    D3        1.04200  -0.00010   0.00408  -0.00439  -0.00026   1.04174
    D4       -1.04192  -0.00010  -0.00422   0.00099  -0.00321  -1.04514
    D5        1.05782   0.00003  -0.00832   0.00591  -0.00244   1.05539
    D6        3.14153  -0.00020  -0.00012  -0.00315  -0.00320   3.13833
    D7        1.04220   0.00007   0.00419  -0.00192   0.00226   1.04446
    D8       -3.14124   0.00020   0.00009   0.00301   0.00304  -3.13820
    D9       -1.05753  -0.00003   0.00829  -0.00605   0.00227  -1.05526
         Item               Value     Threshold  Converged?
 Maximum Force            0.011897     0.000450     NO 
 RMS     Force            0.002191     0.000300     NO 
 Maximum Displacement     0.141876     0.001800     NO 
 RMS     Displacement     0.027687     0.001200     NO 
 Predicted change in Energy=-8.620054D-04
 Lowest energy point so far.  Saving SCF results.
 GradGradGradGradGradGradGradGradGradGradGradGradGradGradGradGradGradGrad

 Leave Link  103 at Wed Aug  6 20:05:34 2025, MaxMem=   104857600 cpu:               0.0 elap:               0.0
 (Enter /Applications/g16/l202.exe)
                          Input orientation:                          
 ---------------------------------------------------------------------
 Center     Atomic      Atomic             Coordinates (Angstroms)
 Number     Number       Type             X           Y           Z
 ---------------------------------------------------------------------
      1          7           0       -2.982944    0.235557    0.012561
      2          6           0       -1.886361   -0.129561   -0.004090
      3          6           0       -0.510284   -0.624913   -0.002586
      4          6           0        0.462227    0.581976   -0.002002
      5          6           0        1.859288    0.159110   -0.000323
      6          7           0        2.967653   -0.166820    0.000568
      7          1           0        0.303907    1.209097   -0.886590
      8          1           0        0.302649    1.209428    0.882117
      9          1           0       -0.348976   -1.246070   -0.888877
     10          1           0       -0.350353   -1.245693    0.884232
     11          3           0        4.852135   -0.649392    0.005470
 ---------------------------------------------------------------------
                    Distance matrix (angstroms):
                    1          2          3          4          5
     1  N    0.000000
     2  C    1.155890   0.000000
     3  C    2.618145   1.462520   0.000000
     4  C    3.462574   2.454007   1.549954   0.000000
     5  C    4.842853   3.756758   2.495911   1.459657   0.000000
     6  N    5.964198   4.854159   3.507977   2.614931   1.155294
     7  H    3.543958   2.714422   2.192707   1.095829   2.075368
     8  H    3.535487   2.714777   2.192798   1.095823   2.074848
     9  H    3.153664   2.095947   1.094243   2.187772   2.764143
    10  H    3.143954   2.096231   1.094253   2.187709   2.763770
    11  Li   7.884900   6.758524   5.362481   4.559344   3.100136
                    6          7          8          9         10
     6  N    0.000000
     7  H    3.126618   0.000000
     8  H    3.126249   1.768708   0.000000
     9  H    3.599433   2.540493   3.096854   0.000000
    10  H    3.599165   3.096750   2.540479   1.773110   0.000000
    11  Li   1.945295   4.993609   4.992149   5.311068   5.309773
                   11
    11  Li   0.000000
 Stoichiometry    C4H4LiN2(1+)
 Framework group  C1[X(C4H4LiN2)]
 Deg. of freedom    27
 Full point group                 C1      NOp   1
 RotChk:  IX=1 Diff= 3.71D-03
 Largest Abelian subgroup         C1      NOp   1
 Largest concise Abelian subgroup C1      NOp   1
                         Standard orientation:                         
 ---------------------------------------------------------------------
 Center     Atomic      Atomic             Coordinates (Angstroms)
 Number     Number       Type             X           Y           Z
 ---------------------------------------------------------------------
      1          7           0       -3.300205    0.139485    0.009353
      2          6           0       -2.189866   -0.181430   -0.006192
      3          6           0       -0.795050   -0.621254   -0.003250
      4          6           0        0.128330    0.623626   -0.003757
      5          6           0        1.541209    0.257071   -0.000727
      6          7           0        2.661741   -0.024193    0.001224
      7          1           0       -0.054444    1.242725   -0.889281
      8          1           0       -0.056797    1.245356    0.879424
      9          1           0       -0.608445   -1.236628   -0.888610
     10          1           0       -0.610921   -1.233949    0.884496
     11          3           0        4.564039   -0.430875    0.007830
 ---------------------------------------------------------------------
 Rotational constants (GHZ):          23.6133274           1.0204805           0.9903327
 Leave Link  202 at Wed Aug  6 20:05:34 2025, MaxMem=   104857600 cpu:               0.0 elap:               0.0
 (Enter /Applications/g16/l301.exe)
 Standard basis: 6-31G(d) (6D, 7F)
 Ernie: Thresh=  0.10000D-02 Tol=  0.10000D-05 Strict=F.
 There are   113 symmetry adapted cartesian basis functions of A   symmetry.
 There are   113 symmetry adapted basis functions of A   symmetry.
   113 basis functions,   212 primitive gaussians,   113 cartesian basis functions
    22 alpha electrons       22 beta electrons
       nuclear repulsion energy       195.6145252512 Hartrees.
 IExCor= 4639 DFT=T Ex+Corr=wB97XD ExCW=0 ScaHFX=  1.000000
 ScaDFX=  1.000000  1.000000  1.000000  1.000000 ScalE2=  1.000000  1.000000
 IRadAn=      5 IRanWt=     -1 IRanGd=            0 ICorTp=0 IEmpDi=121
 HFx  wShort=  0.000000 wLong=  0.200000 cFull=  0.222036 cShort=  0.000000 cLong=  0.777964
 DFx  wShort=  0.000000 wLong=  0.200000 cFull=  0.000000 cShort=  0.000000 cLong=  1.000000
 NAtoms=   11 NActive=   11 NUniq=   11 SFac= 1.00D+00 NAtFMM=   60 NAOKFM=F Big=F
 Integral buffers will be    131072 words long.
 Raffenetti 2 integral format.
 Two-electron integral symmetry is turned on.
 R6Disp:  Grimme-D2 Dispersion energy=       -0.0046832593 Hartrees.
 Nuclear repulsion after empirical dispersion term =      195.6098419919 Hartrees.
 Leave Link  301 at Wed Aug  6 20:05:34 2025, MaxMem=   104857600 cpu:               0.0 elap:               0.0
 (Enter /Applications/g16/l302.exe)
 NPDir=0 NMtPBC=     1 NCelOv=     1 NCel=       1 NClECP=     1 NCelD=      1
         NCelK=      1 NCelE2=     1 NClLst=     1 CellRange=     0.0.
 One-electron integrals computed using PRISM.
 One-electron integral symmetry used in STVInt
 NBasis=   113 RedAO= T EigKep=  8.51D-04  NBF=   113
 NBsUse=   113 1.00D-06 EigRej= -1.00D+00 NBFU=   113
 Precomputing XC quadrature grid using
 IXCGrd= 4 IRadAn=           5 IRanWt=          -1 IRanGd=           0 AccXCQ= 0.00D+00.
 Generated NRdTot=       0 NPtTot=           0 NUsed=           0 NTot=          32
 NSgBfM=   113   113   113   113   113 MxSgAt=    11 MxSgA2=    11.
 Leave Link  302 at Wed Aug  6 20:05:34 2025, MaxMem=   104857600 cpu:               0.1 elap:               0.1
 (Enter /Applications/g16/l303.exe)
 DipDrv:  MaxL=1.
 Leave Link  303 at Wed Aug  6 20:05:34 2025, MaxMem=   104857600 cpu:               0.0 elap:               0.0
 (Enter /Applications/g16/l401.exe)
 Initial guess from the checkpoint file:  "/Users/srak/g16_scratch/Gau-83439.chk"
 B after Tr=     0.000000    0.000000   -0.000000
         Rot=    1.000000    0.000543    0.000024   -0.000479 Ang=   0.08 deg.
 Guess basis will be translated and rotated to current coordinates.
 JPrj=2 DoOrth=T DoCkMO=T.
 Generating alternative initial guess.
 ExpMin= 3.60D-02 ExpMax= 4.17D+03 ExpMxC= 6.27D+02 IAcc=3 IRadAn=         5 AccDes= 0.00D+00
 Harris functional with IExCor= 4639 and IRadAn=       5 diagonalized for initial guess.
 HarFok:  IExCor= 4639 AccDes= 0.00D+00 IRadAn=         5 IDoV= 1 UseB2=F ITyADJ=14
 ICtDFT=  3500011 ScaDFX=  1.000000  1.000000  1.000000  1.000000
 FoFCou: FMM=F IPFlag=           0 FMFlag=      100000 FMFlg1=           0
         NFxFlg=           0 DoJE=T BraDBF=F KetDBF=T FulRan=T
         wScrn=  0.000000 ICntrl=       500 IOpCl=  0 I1Cent=   200000004 NGrid=           0
         NMat0=    1 NMatS0=      1 NMatT0=    0 NMatD0=    1 NMtDS0=    0 NMtDT0=    0
 Petite list used in FoFCou.
 Harris En= -259.808266424023    
 Leave Link  401 at Wed Aug  6 20:05:35 2025, MaxMem=   104857600 cpu:               0.6 elap:               0.7
 (Enter /Applications/g16/l502.exe)
 Keep R1 ints in memory in canonical form, NReq=43174005.
 FoFCou: FMM=F IPFlag=           0 FMFlag=           0 FMFlg1=           0
         NFxFlg=           0 DoJE=F BraDBF=F KetDBF=F FulRan=T
         wScrn=  0.000000 ICntrl=       600 IOpCl=  0 I1Cent=           0 NGrid=           0
         NMat0=    1 NMatS0=   6441 NMatT0=    0 NMatD0=    1 NMtDS0=    0 NMtDT0=    0
 Symmetry not used in FoFCou.
 Two-electron integral symmetry not used.
 Closed shell SCF:
 Using DIIS extrapolation, IDIIS=  1040.
 NGot=   104857600 LenX=    63336875 LenY=    63323665
 Requested convergence on RMS density matrix=1.00D-08 within 128 cycles.
 Requested convergence on MAX density matrix=1.00D-06.
 Requested convergence on             energy=1.00D-06.
 No special actions if energy rises.

 Cycle   1  Pass 1  IDiag  1:
 E= -271.557598564506    
 DIIS: error= 2.51D-03 at cycle   1 NSaved=   1.
 NSaved= 1 IEnMin= 1 EnMin= -271.557598564506     IErMin= 1 ErrMin= 2.51D-03
 ErrMax= 2.51D-03  0.00D+00 EMaxC= 1.00D-01 BMatC= 6.49D-04 BMatP= 6.49D-04
 IDIUse=3 WtCom= 9.75D-01 WtEn= 2.51D-02
 Coeff-Com:  0.100D+01
 Coeff-En:   0.100D+01
 Coeff:      0.100D+01
 Gap=     1.822 Goal=   None    Shift=    0.000
 GapD=    1.822 DampG=2.000 DampE=1.000 DampFc=2.0000 IDamp=-1.
 RMSDP=4.61D-04 MaxDP=9.39D-03              OVMax= 1.01D-02

 Cycle   2  Pass 1  IDiag  1:
 E= -271.558540175962     Delta-E=       -0.000941611456 Rises=F Damp=F
 DIIS: error= 9.71D-04 at cycle   2 NSaved=   2.
 NSaved= 2 IEnMin= 2 EnMin= -271.558540175962     IErMin= 2 ErrMin= 9.71D-04
 ErrMax= 9.71D-04  0.00D+00 EMaxC= 1.00D-01 BMatC= 9.76D-05 BMatP= 6.49D-04
 IDIUse=3 WtCom= 9.90D-01 WtEn= 9.71D-03
 Coeff-Com:  0.653D-01 0.935D+00
 Coeff-En:   0.000D+00 0.100D+01
 Coeff:      0.646D-01 0.935D+00
 Gap=     0.387 Goal=   None    Shift=    0.000
 RMSDP=1.45D-04 MaxDP=3.92D-03 DE=-9.42D-04 OVMax= 5.95D-03

 Cycle   3  Pass 1  IDiag  1:
 E= -271.558530406436     Delta-E=        0.000009769526 Rises=F Damp=F
 DIIS: error= 1.38D-03 at cycle   3 NSaved=   3.
 NSaved= 3 IEnMin= 2 EnMin= -271.558540175962     IErMin= 2 ErrMin= 9.71D-04
 ErrMax= 1.38D-03  0.00D+00 EMaxC= 1.00D-01 BMatC= 1.57D-04 BMatP= 9.76D-05
 IDIUse=3 WtCom= 2.12D-01 WtEn= 7.88D-01
 Coeff-Com: -0.102D+00 0.619D+00 0.483D+00
 Coeff-En:   0.000D+00 0.523D+00 0.477D+00
 Coeff:     -0.216D-01 0.543D+00 0.478D+00
 Gap=     0.388 Goal=   None    Shift=    0.000
 RMSDP=8.72D-05 MaxDP=2.74D-03 DE= 9.77D-06 OVMax= 3.77D-03

 Cycle   4  Pass 1  IDiag  1:
 E= -271.558659875899     Delta-E=       -0.000129469462 Rises=F Damp=F
 DIIS: error= 2.17D-04 at cycle   4 NSaved=   4.
 NSaved= 4 IEnMin= 4 EnMin= -271.558659875899     IErMin= 4 ErrMin= 2.17D-04
 ErrMax= 2.17D-04  0.00D+00 EMaxC= 1.00D-01 BMatC= 4.82D-06 BMatP= 9.76D-05
 IDIUse=3 WtCom= 9.98D-01 WtEn= 2.17D-03
 Coeff-Com: -0.132D-01-0.930D-01 0.101D+00 0.101D+01
 Coeff-En:   0.000D+00 0.000D+00 0.000D+00 0.100D+01
 Coeff:     -0.132D-01-0.928D-01 0.101D+00 0.101D+01
 Gap=     0.388 Goal=   None    Shift=    0.000
 RMSDP=2.74D-05 MaxDP=5.63D-04 DE=-1.29D-04 OVMax= 1.15D-03

 Cycle   5  Pass 1  IDiag  1:
 E= -271.558665653283     Delta-E=       -0.000005777385 Rises=F Damp=F
 DIIS: error= 4.83D-05 at cycle   5 NSaved=   5.
 NSaved= 5 IEnMin= 5 EnMin= -271.558665653283     IErMin= 5 ErrMin= 4.83D-05
 ErrMax= 4.83D-05  0.00D+00 EMaxC= 1.00D-01 BMatC= 2.84D-07 BMatP= 4.82D-06
 IDIUse=1 WtCom= 1.00D+00 WtEn= 0.00D+00
 Coeff-Com:  0.126D-02-0.801D-01 0.790D-02 0.412D+00 0.659D+00
 Coeff:      0.126D-02-0.801D-01 0.790D-02 0.412D+00 0.659D+00
 Gap=     0.388 Goal=   None    Shift=    0.000
 RMSDP=7.07D-06 MaxDP=1.75D-04 DE=-5.78D-06 OVMax= 2.58D-04

 Cycle   6  Pass 1  IDiag  1:
 E= -271.558665890595     Delta-E=       -0.000000237311 Rises=F Damp=F
 DIIS: error= 3.03D-05 at cycle   6 NSaved=   6.
 NSaved= 6 IEnMin= 6 EnMin= -271.558665890595     IErMin= 6 ErrMin= 3.03D-05
 ErrMax= 3.03D-05  0.00D+00 EMaxC= 1.00D-01 BMatC= 1.04D-07 BMatP= 2.84D-07
 IDIUse=1 WtCom= 1.00D+00 WtEn= 0.00D+00
 Coeff-Com:  0.438D-02-0.256D-01-0.218D-01-0.118D-01 0.403D+00 0.651D+00
 Coeff:      0.438D-02-0.256D-01-0.218D-01-0.118D-01 0.403D+00 0.651D+00
 Gap=     0.388 Goal=   None    Shift=    0.000
 RMSDP=3.07D-06 MaxDP=7.44D-05 DE=-2.37D-07 OVMax= 1.28D-04

 Cycle   7  Pass 1  IDiag  1:
 E= -271.558665992211     Delta-E=       -0.000000101616 Rises=F Damp=F
 DIIS: error= 3.84D-06 at cycle   7 NSaved=   7.
 NSaved= 7 IEnMin= 7 EnMin= -271.558665992211     IErMin= 7 ErrMin= 3.84D-06
 ErrMax= 3.84D-06  0.00D+00 EMaxC= 1.00D-01 BMatC= 2.22D-09 BMatP= 1.04D-07
 IDIUse=1 WtCom= 1.00D+00 WtEn= 0.00D+00
 Coeff-Com:  0.101D-02 0.168D-03-0.554D-02-0.368D-01 0.418D-01 0.160D+00
 Coeff-Com:  0.839D+00
 Coeff:      0.101D-02 0.168D-03-0.554D-02-0.368D-01 0.418D-01 0.160D+00
 Coeff:      0.839D+00
 Gap=     0.388 Goal=   None    Shift=    0.000
 RMSDP=5.94D-07 MaxDP=9.83D-06 DE=-1.02D-07 OVMax= 2.93D-05

 Cycle   8  Pass 1  IDiag  1:
 E= -271.558665995241     Delta-E=       -0.000000003030 Rises=F Damp=F
 DIIS: error= 1.09D-06 at cycle   8 NSaved=   8.
 NSaved= 8 IEnMin= 8 EnMin= -271.558665995241     IErMin= 8 ErrMin= 1.09D-06
 ErrMax= 1.09D-06  0.00D+00 EMaxC= 1.00D-01 BMatC= 1.49D-10 BMatP= 2.22D-09
 IDIUse=1 WtCom= 1.00D+00 WtEn= 0.00D+00
 Coeff-Com: -0.117D-03 0.190D-02 0.647D-03-0.596D-02-0.226D-01-0.193D-01
 Coeff-Com:  0.183D+00 0.863D+00
 Coeff:     -0.117D-03 0.190D-02 0.647D-03-0.596D-02-0.226D-01-0.193D-01
 Coeff:      0.183D+00 0.863D+00
 Gap=     0.388 Goal=   None    Shift=    0.000
 RMSDP=1.82D-07 MaxDP=3.41D-06 DE=-3.03D-09 OVMax= 6.71D-06

 Cycle   9  Pass 1  IDiag  1:
 E= -271.558665995457     Delta-E=       -0.000000000216 Rises=F Damp=F
 DIIS: error= 2.69D-07 at cycle   9 NSaved=   9.
 NSaved= 9 IEnMin= 9 EnMin= -271.558665995457     IErMin= 9 ErrMin= 2.69D-07
 ErrMax= 2.69D-07  0.00D+00 EMaxC= 1.00D-01 BMatC= 1.11D-11 BMatP= 1.49D-10
 IDIUse=1 WtCom= 1.00D+00 WtEn= 0.00D+00
 Coeff-Com: -0.890D-04 0.417D-03 0.492D-03 0.101D-02-0.790D-02-0.151D-01
 Coeff-Com: -0.114D-01 0.205D+00 0.827D+00
 Coeff:     -0.890D-04 0.417D-03 0.492D-03 0.101D-02-0.790D-02-0.151D-01
 Coeff:     -0.114D-01 0.205D+00 0.827D+00
 Gap=     0.388 Goal=   None    Shift=    0.000
 RMSDP=6.04D-08 MaxDP=1.46D-06 DE=-2.16D-10 OVMax= 1.66D-06

 Cycle  10  Pass 1  IDiag  1:
 E= -271.558665995473     Delta-E=       -0.000000000016 Rises=F Damp=F
 DIIS: error= 7.37D-08 at cycle  10 NSaved=  10.
 NSaved=10 IEnMin=10 EnMin= -271.558665995473     IErMin=10 ErrMin= 7.37D-08
 ErrMax= 7.37D-08  0.00D+00 EMaxC= 1.00D-01 BMatC= 7.11D-13 BMatP= 1.11D-11
 IDIUse=1 WtCom= 1.00D+00 WtEn= 0.00D+00
 Coeff-Com:  0.476D-05-0.137D-03-0.424D-04 0.564D-03 0.130D-02 0.485D-03
 Coeff-Com: -0.172D-01-0.602D-01 0.628D-01 0.101D+01
 Coeff:      0.476D-05-0.137D-03-0.424D-04 0.564D-03 0.130D-02 0.485D-03
 Coeff:     -0.172D-01-0.602D-01 0.628D-01 0.101D+01
 Gap=     0.388 Goal=   None    Shift=    0.000
 RMSDP=2.44D-08 MaxDP=5.96D-07 DE=-1.59D-11 OVMax= 7.24D-07

 Cycle  11  Pass 1  IDiag  1:
 E= -271.558665995476     Delta-E=       -0.000000000003 Rises=F Damp=F
 DIIS: error= 2.16D-08 at cycle  11 NSaved=  11.
 NSaved=11 IEnMin=11 EnMin= -271.558665995476     IErMin=11 ErrMin= 2.16D-08
 ErrMax= 2.16D-08  0.00D+00 EMaxC= 1.00D-01 BMatC= 4.71D-14 BMatP= 7.11D-13
 IDIUse=1 WtCom= 1.00D+00 WtEn= 0.00D+00
 Coeff-Com:  0.574D-05-0.329D-04-0.321D-04-0.311D-04 0.630D-03 0.106D-02
 Coeff-Com: -0.336D-03-0.183D-01-0.515D-01 0.642D-01 0.100D+01
 Coeff:      0.574D-05-0.329D-04-0.321D-04-0.311D-04 0.630D-03 0.106D-02
 Coeff:     -0.336D-03-0.183D-01-0.515D-01 0.642D-01 0.100D+01
 Gap=     0.388 Goal=   None    Shift=    0.000
 RMSDP=6.24D-09 MaxDP=1.19D-07 DE=-2.50D-12 OVMax= 2.21D-07

 SCF Done:  E(RwB97XD) =  -271.558665995     A.U. after   11 cycles
            NFock= 11  Conv=0.62D-08     -V/T= 2.0094
 KE= 2.690399397374D+02 PE=-1.014884461636D+03 EE= 2.786760139111D+02
 Leave Link  502 at Wed Aug  6 20:05:42 2025, MaxMem=   104857600 cpu:               7.5 elap:               7.5
 (Enter /Applications/g16/l701.exe)
 ... and contract with generalized density number  0.
 Compute integral first derivatives.
 R6Disp: Adding Grimme-D2 dispersion energy 1st derivatives to the gradient.
 Leave Link  701 at Wed Aug  6 20:05:42 2025, MaxMem=   104857600 cpu:               0.0 elap:               0.0
 (Enter /Applications/g16/l702.exe)
 L702 exits ... SP integral derivatives will be done elsewhere.
 Leave Link  702 at Wed Aug  6 20:05:42 2025, MaxMem=   104857600 cpu:               0.0 elap:               0.0
 (Enter /Applications/g16/l703.exe)
 Integral derivatives from FoFJK, PRISM(SPDF).
 Compute integral first derivatives, UseDBF=F ICtDFT=           0.
 Calling FoFJK, ICntrl=      2127 FMM=F ISym2X=0 I1Cent= 0 IOpClX= 0 NMat=1 NMatS=1 NMatT=0.
 FoFJK:  IHMeth= 1 ICntrl=    2127 DoSepK=T KAlg= 0 I1Cent=           0 FoldK=F
 IRaf=         1 NMat=       1 IRICut=       1 DoRegI=T DoRafI=F ISym2E= 0 IDoP0=0 IntGTp=1.
 FoFCou: FMM=F IPFlag=           0 FMFlag=      100000 FMFlg1=         800
         NFxFlg=           0 DoJE=F BraDBF=F KetDBF=F FulRan=T
         wScrn=  0.000000 ICntrl=      2527 IOpCl=  0 I1Cent=           0 NGrid=           0
         NMat0=    1 NMatS0=      1 NMatT0=    0 NMatD0=    1 NMtDS0=    0 NMtDT0=    0
 Symmetry not used in FoFCou.
 Leave Link  703 at Wed Aug  6 20:05:45 2025, MaxMem=   104857600 cpu:               2.6 elap:               2.6
 (Enter /Applications/g16/l716.exe)
 Dipole        = 7.12974991D+00-6.34374959D-01 2.90856309D-03
 ***** Axes restored to original set *****
 -------------------------------------------------------------------
 Center     Atomic                   Forces (Hartrees/Bohr)
 Number     Number              X              Y              Z
 -------------------------------------------------------------------
      1        7           0.000491331    0.001856780   -0.000582641
      2        6          -0.001460355   -0.004412726    0.001223703
      3        6           0.001665317    0.003529536   -0.000624300
      4        6           0.000140903   -0.000925659    0.000018306
      5        6           0.000607281    0.000753131   -0.000089652
      6        7          -0.002127144    0.000040996    0.000041136
      7        1          -0.000060366   -0.000109192    0.000284940
      8        1          -0.000154173   -0.000108628   -0.000280860
      9        1          -0.000396145   -0.000083945    0.000193308
     10        1          -0.000677551   -0.000036466   -0.000179560
     11        3           0.001970903   -0.000503827   -0.000004380
 -------------------------------------------------------------------
 Cartesian Forces:  Max     0.004412726 RMS     0.001280910
 Leave Link  716 at Wed Aug  6 20:05:45 2025, MaxMem=   104857600 cpu:               0.0 elap:               0.0
 (Enter /Applications/g16/l103.exe)

 GradGradGradGradGradGradGradGradGradGradGradGradGradGradGradGradGradGrad
 Berny optimization.
 Using GEDIIS/GDIIS optimizer.
 FormGI is forming the generalized inverse of G from B-inverse, IUseBI=4.
 Internal  Forces:  Max     0.004349261 RMS     0.000939581
 Search for a local minimum.
 Step number   3 out of a maximum of   47
 All quantities printed in internal units (Hartrees-Bohrs-Radians)
 RMS Force = .93958D-03 SwitMx=.10000D-02 MixMth= 2
 Mixed Optimization -- En-DIIS/RFO-DIIS
 Update second derivatives using D2CorX and points    1    2    3
 DE= -9.82D-04 DEPred=-8.62D-04 R= 1.14D+00
 TightC=F SS=  1.41D+00  RLast= 1.70D-01 DXNew= 8.4853D-01 5.0862D-01
 Trust test= 1.14D+00 RLast= 1.70D-01 DXMaxT set to 5.09D-01
 ITU=  1  1  0
 Use linear search instead of GDIIS.
     Eigenvalues ---    0.00766   0.01214   0.01298   0.02568   0.02569
     Eigenvalues ---    0.04900   0.04926   0.05684   0.06008   0.06113
     Eigenvalues ---    0.06157   0.07113   0.16000   0.16000   0.16066
     Eigenvalues ---    0.17269   0.22355   0.23221   0.34075   0.34230
     Eigenvalues ---    0.34230   0.34231   0.35558   0.36207   0.36634
     Eigenvalues ---    1.29963   1.30026
 RFO step:  Lambda=-1.47796344D-03 EMin= 7.65940778D-03
 Quartic linear search produced a step of -0.03142.
 Iteration  1 RMS(Cart)=  0.06245361 RMS(Int)=  0.01610494
 Iteration  2 RMS(Cart)=  0.02927693 RMS(Int)=  0.00135032
 Iteration  3 RMS(Cart)=  0.00127905 RMS(Int)=  0.00001131
 Iteration  4 RMS(Cart)=  0.00000123 RMS(Int)=  0.00001129
 Iteration  5 RMS(Cart)=  0.00000000 RMS(Int)=  0.00001129
 ITry= 1 IFail=0 DXMaxC= 3.64D-01 DCOld= 1.00D+10 DXMaxT= 5.09D-01 DXLimC= 3.00D+00 Rises=F
 Variable       Old X    -DE/DX   Delta X   Delta X   Delta X     New X
                                 (Linear)    (Quad)   (Total)
    R1        2.18432   0.00011  -0.00000   0.00001   0.00001   2.18432
    R2        2.76376   0.00005   0.00005  -0.00129  -0.00124   2.76252
    R3        2.92899  -0.00043  -0.00046   0.01439   0.01393   2.94292
    R4        2.06782  -0.00017   0.00007  -0.00197  -0.00190   2.06592
    R5        2.06784  -0.00022   0.00007  -0.00212  -0.00205   2.06579
    R6        2.75835   0.00035   0.00007  -0.00128  -0.00121   2.75715
    R7        2.07082  -0.00028   0.00003  -0.00124  -0.00121   2.06961
    R8        2.07081  -0.00027   0.00003  -0.00121  -0.00118   2.06963
    R9        2.18319  -0.00002   0.00002  -0.00066  -0.00064   2.18255
   R10        3.67607   0.00203  -0.00472   0.12753   0.12281   3.79888
    A1        1.90353   0.00216   0.00065  -0.00595  -0.00532   1.89821
    A2        1.90724  -0.00103  -0.00049   0.00622   0.00572   1.91296
    A3        1.90763  -0.00131  -0.00050   0.00328   0.00276   1.91039
    A4        1.92818   0.00013   0.00044  -0.00720  -0.00677   1.92141
    A5        1.92808   0.00034   0.00044  -0.00670  -0.00627   1.92181
    A6        1.88897  -0.00035  -0.00060   0.01067   0.01007   1.89904
    A7        1.95515   0.00011  -0.00002   0.00192   0.00191   1.95705
    A8        1.93335  -0.00006   0.00041  -0.00858  -0.00818   1.92516
    A9        1.93348  -0.00015   0.00041  -0.00888  -0.00849   1.92498
   A10        1.88073   0.00002  -0.00023   0.00426   0.00403   1.88477
   A11        1.88003   0.00010  -0.00021   0.00458   0.00437   1.88440
   A12        1.87818  -0.00002  -0.00041   0.00762   0.00717   1.88535
   A13        3.16988  -0.00435  -0.00181  -0.28333  -0.28514   2.88474
   A14        3.14866  -0.00096  -0.00033  -0.01114  -0.01147   3.13719
   A15        3.17290   0.00001   0.00021  -0.00396  -0.00375   3.16915
   A16        3.13605  -0.00040  -0.00026  -0.02451  -0.02477   3.11128
   A17        3.13702   0.00038   0.00029   0.00108   0.00137   3.13839
   A18        3.16954  -0.00002   0.00011  -0.00301  -0.00289   3.16664
    D1        3.14146  -0.00006   0.00001  -0.00152  -0.00151   3.13995
    D2       -1.04120  -0.00001  -0.00002  -0.00072  -0.00075  -1.04195
    D3        1.04174  -0.00016   0.00001  -0.00252  -0.00249   1.03925
    D4       -1.04514   0.00012   0.00010  -0.00205  -0.00194  -1.04708
    D5        1.05539   0.00018   0.00008  -0.00125  -0.00118   1.05420
    D6        3.13833   0.00002   0.00010  -0.00304  -0.00293   3.13540
    D7        1.04446  -0.00002  -0.00007   0.00232   0.00224   1.04671
    D8       -3.13820   0.00004  -0.00010   0.00312   0.00301  -3.13519
    D9       -1.05526  -0.00012  -0.00007   0.00132   0.00126  -1.05400
         Item               Value     Threshold  Converged?
 Maximum Force            0.004349     0.000450     NO 
 RMS     Force            0.000940     0.000300     NO 
 Maximum Displacement     0.363663     0.001800     NO 
 RMS     Displacement     0.088684     0.001200     NO 
 Predicted change in Energy=-8.134173D-04
 Lowest energy point so far.  Saving SCF results.
 GradGradGradGradGradGradGradGradGradGradGradGradGradGradGradGradGradGrad

 Leave Link  103 at Wed Aug  6 20:05:45 2025, MaxMem=   104857600 cpu:               0.0 elap:               0.0
 (Enter /Applications/g16/l202.exe)
                          Input orientation:                          
 ---------------------------------------------------------------------
 Center     Atomic      Atomic             Coordinates (Angstroms)
 Number     Number       Type             X           Y           Z
 ---------------------------------------------------------------------
      1          7           0       -2.867974    0.427999   -0.060284
      2          6           0       -1.900616   -0.199394    0.021489
      3          6           0       -0.517078   -0.671383    0.012173
      4          6           0        0.433035    0.562532    0.009673
      5          6           0        1.839208    0.173477    0.002650
      6          7           0        2.951377   -0.137806   -0.007649
      7          1           0        0.249072    1.182021   -0.874537
      8          1           0        0.257456    1.178932    0.897752
      9          1           0       -0.343409   -1.280831   -0.878658
     10          1           0       -0.335330   -1.283945    0.899165
     11          3           0        4.903201   -0.618881   -0.021293
 ---------------------------------------------------------------------
                    Distance matrix (angstroms):
                    1          2          3          4          5
     1  N    0.000000
     2  C    1.155894   0.000000
     3  C    2.596267   1.461861   0.000000
     4  C    3.304490   2.454913   1.557327   0.000000
     5  C    4.714479   3.758414   2.503191   1.459019   0.000000
     6  N    5.847030   4.852472   3.509314   2.613967   1.154956
     7  H    3.308706   2.707828   2.192795   1.095189   2.077295
     8  H    3.354109   2.706455   2.192674   1.095199   2.077038
     9  H    3.156464   2.098729   1.093238   2.188604   2.766864
    10  H    3.203994   2.096828   1.093169   2.188849   2.767026
    11  Li   7.841470   6.816871   5.420637   4.623752   3.164879
                    6          7          8          9         10
     6  N    0.000000
     7  H    3.129840   0.000000
     8  H    3.132213   1.772312   0.000000
     9  H    3.594549   2.533120   3.093074   0.000000
    10  H    3.596998   3.093305   2.533211   1.777845   0.000000
    11  Li   2.010283   5.062825   5.065542   5.357255   5.360202
                   11
    11  Li   0.000000
 Stoichiometry    C4H4LiN2(1+)
 Framework group  C1[X(C4H4LiN2)]
 Deg. of freedom    27
 Full point group                 C1      NOp   1
 RotChk:  IX=3 Diff= 2.83D-02
 Largest Abelian subgroup         C1      NOp   1
 Largest concise Abelian subgroup C1      NOp   1
                         Standard orientation:                         
 ---------------------------------------------------------------------
 Center     Atomic      Atomic             Coordinates (Angstroms)
 Number     Number       Type             X           Y           Z
 ---------------------------------------------------------------------
      1          7           0       -3.203295    0.285217   -0.042616
      2          6           0       -2.205151   -0.293449    0.027706
      3          6           0       -0.799486   -0.694420    0.008568
      4          6           0        0.086817    0.586017    0.023273
      5          6           0        1.510888    0.268978    0.007660
      6          7           0        2.637382    0.014730   -0.009488
      7          1           0       -0.130655    1.208792   -0.850966
      8          1           0       -0.117456    1.179089    0.921048
      9          1           0       -0.597480   -1.280605   -0.891848
     10          1           0       -0.584571   -1.310432    0.885699
     11          3           0        4.611049   -0.366407   -0.034149
 ---------------------------------------------------------------------
 Rotational constants (GHZ):          21.6338397           1.0370508           1.0022868
 Leave Link  202 at Wed Aug  6 20:05:45 2025, MaxMem=   104857600 cpu:               0.0 elap:               0.0
 (Enter /Applications/g16/l301.exe)
 Standard basis: 6-31G(d) (6D, 7F)
 Ernie: Thresh=  0.10000D-02 Tol=  0.10000D-05 Strict=F.
 There are   113 symmetry adapted cartesian basis functions of A   symmetry.
 There are   113 symmetry adapted basis functions of A   symmetry.
   113 basis functions,   212 primitive gaussians,   113 cartesian basis functions
    22 alpha electrons       22 beta electrons
       nuclear repulsion energy       195.9375921087 Hartrees.
 IExCor= 4639 DFT=T Ex+Corr=wB97XD ExCW=0 ScaHFX=  1.000000
 ScaDFX=  1.000000  1.000000  1.000000  1.000000 ScalE2=  1.000000  1.000000
 IRadAn=      5 IRanWt=     -1 IRanGd=            0 ICorTp=0 IEmpDi=121
 HFx  wShort=  0.000000 wLong=  0.200000 cFull=  0.222036 cShort=  0.000000 cLong=  0.777964
 DFx  wShort=  0.000000 wLong=  0.200000 cFull=  0.000000 cShort=  0.000000 cLong=  1.000000
 NAtoms=   11 NActive=   11 NUniq=   11 SFac= 1.00D+00 NAtFMM=   60 NAOKFM=F Big=F
 Integral buffers will be    131072 words long.
 Raffenetti 2 integral format.
 Two-electron integral symmetry is turned on.
 R6Disp:  Grimme-D2 Dispersion energy=       -0.0047426497 Hartrees.
 Nuclear repulsion after empirical dispersion term =      195.9328494590 Hartrees.
 Leave Link  301 at Wed Aug  6 20:05:45 2025, MaxMem=   104857600 cpu:               0.0 elap:               0.0
 (Enter /Applications/g16/l302.exe)
 NPDir=0 NMtPBC=     1 NCelOv=     1 NCel=       1 NClECP=     1 NCelD=      1
         NCelK=      1 NCelE2=     1 NClLst=     1 CellRange=     0.0.
 One-electron integrals computed using PRISM.
 One-electron integral symmetry used in STVInt
 NBasis=   113 RedAO= T EigKep=  9.19D-04  NBF=   113
 NBsUse=   113 1.00D-06 EigRej= -1.00D+00 NBFU=   113
 Precomputing XC quadrature grid using
 IXCGrd= 4 IRadAn=           5 IRanWt=          -1 IRanGd=           0 AccXCQ= 0.00D+00.
 Generated NRdTot=       0 NPtTot=           0 NUsed=           0 NTot=          32
 NSgBfM=   113   113   113   113   113 MxSgAt=    11 MxSgA2=    11.
 Leave Link  302 at Wed Aug  6 20:05:45 2025, MaxMem=   104857600 cpu:               0.1 elap:               0.1
 (Enter /Applications/g16/l303.exe)
 DipDrv:  MaxL=1.
 Leave Link  303 at Wed Aug  6 20:05:45 2025, MaxMem=   104857600 cpu:               0.0 elap:               0.0
 (Enter /Applications/g16/l401.exe)
 Initial guess from the checkpoint file:  "/Users/srak/g16_scratch/Gau-83439.chk"
 B after Tr=    -0.000000   -0.000000    0.000000
         Rot=    0.999983   -0.005759   -0.000035   -0.001157 Ang=  -0.67 deg.
 Guess basis will be translated and rotated to current coordinates.
 JPrj=2 DoOrth=T DoCkMO=T.
 Generating alternative initial guess.
 ExpMin= 3.60D-02 ExpMax= 4.17D+03 ExpMxC= 6.27D+02 IAcc=3 IRadAn=         5 AccDes= 0.00D+00
 Harris functional with IExCor= 4639 and IRadAn=       5 diagonalized for initial guess.
 HarFok:  IExCor= 4639 AccDes= 0.00D+00 IRadAn=         5 IDoV= 1 UseB2=F ITyADJ=14
 ICtDFT=  3500011 ScaDFX=  1.000000  1.000000  1.000000  1.000000
 FoFCou: FMM=F IPFlag=           0 FMFlag=      100000 FMFlg1=           0
         NFxFlg=           0 DoJE=T BraDBF=F KetDBF=T FulRan=T
         wScrn=  0.000000 ICntrl=       500 IOpCl=  0 I1Cent=   200000004 NGrid=           0
         NMat0=    1 NMatS0=      1 NMatT0=    0 NMatD0=    1 NMtDS0=    0 NMtDT0=    0
 Petite list used in FoFCou.
 Harris En= -259.806616810113    
 Leave Link  401 at Wed Aug  6 20:05:46 2025, MaxMem=   104857600 cpu:               0.6 elap:               0.6
 (Enter /Applications/g16/l502.exe)
 Keep R1 ints in memory in canonical form, NReq=43174005.
 FoFCou: FMM=F IPFlag=           0 FMFlag=           0 FMFlg1=           0
         NFxFlg=           0 DoJE=F BraDBF=F KetDBF=F FulRan=T
         wScrn=  0.000000 ICntrl=       600 IOpCl=  0 I1Cent=           0 NGrid=           0
         NMat0=    1 NMatS0=   6441 NMatT0=    0 NMatD0=    1 NMtDS0=    0 NMtDT0=    0
 Symmetry not used in FoFCou.
 Two-electron integral symmetry not used.
 Closed shell SCF:
 Using DIIS extrapolation, IDIIS=  1040.
 NGot=   104857600 LenX=    63336875 LenY=    63323665
 Requested convergence on RMS density matrix=1.00D-08 within 128 cycles.
 Requested convergence on MAX density matrix=1.00D-06.
 Requested convergence on             energy=1.00D-06.
 No special actions if energy rises.

 Cycle   1  Pass 1  IDiag  1:
 E= -271.513487658521    
 DIIS: error= 1.68D-02 at cycle   1 NSaved=   1.
 NSaved= 1 IEnMin= 1 EnMin= -271.513487658521     IErMin= 1 ErrMin= 1.68D-02
 ErrMax= 1.68D-02  0.00D+00 EMaxC= 1.00D-01 BMatC= 2.49D-02 BMatP= 2.49D-02
 IDIUse=3 WtCom= 8.32D-01 WtEn= 1.68D-01
 Coeff-Com:  0.100D+01
 Coeff-En:   0.100D+01
 Coeff:      0.100D+01
 Recover alternate guess density for next cycle.
 RMSDP=6.36D-03 MaxDP=1.80D-01              OVMax= 0.00D+00

 Cycle   2  Pass 1  IDiag  1:
 E= -271.494071313660     Delta-E=        0.019416344860 Rises=F Damp=F
 Switch densities from cycles 1 and 2 for lowest energy.
 DIIS: error= 5.07D-02 at cycle   2 NSaved=   2.
 NSaved= 2 IEnMin= 1 EnMin= -271.513487658521     IErMin= 1 ErrMin= 1.68D-02
 ErrMax= 5.07D-02  0.00D+00 EMaxC= 1.00D+00 BMatC= 2.40D-01 BMatP= 2.49D-02
 IDIUse=1 WtCom= 1.00D+00 WtEn= 0.00D+00
 Coeff-Com:  0.903D+00 0.974D-01
 Coeff:      0.903D+00 0.974D-01
 Gap=     0.397 Goal=   None    Shift=    0.000
 RMSDP=2.23D-03 MaxDP=5.01D-02 DE= 1.94D-02 OVMax= 6.69D-02

 Cycle   3  Pass 1  IDiag  1:
 E= -271.553991708672     Delta-E=       -0.059920395012 Rises=F Damp=F
 DIIS: error= 2.82D-03 at cycle   3 NSaved=   3.
 NSaved= 3 IEnMin= 3 EnMin= -271.553991708672     IErMin= 3 ErrMin= 2.82D-03
 ErrMax= 2.82D-03  0.00D+00 EMaxC= 1.00D+00 BMatC= 1.08D-03 BMatP= 2.49D-02
 IDIUse=1 WtCom= 1.00D+00 WtEn= 0.00D+00
 Coeff-Com: -0.144D+00 0.779D-02 0.114D+01
 Coeff:     -0.144D+00 0.779D-02 0.114D+01
 Gap=     0.387 Goal=   None    Shift=    0.000
 RMSDP=6.56D-04 MaxDP=1.41D-02 DE=-5.99D-02 OVMax= 3.04D-02

 Cycle   4  Pass 1  IDiag  1:
 E= -271.556034965842     Delta-E=       -0.002043257170 Rises=F Damp=F
 DIIS: error= 1.62D-03 at cycle   4 NSaved=   4.
 NSaved= 4 IEnMin= 4 EnMin= -271.556034965842     IErMin= 4 ErrMin= 1.62D-03
 ErrMax= 1.62D-03  0.00D+00 EMaxC= 1.00D+00 BMatC= 5.76D-04 BMatP= 1.08D-03
 IDIUse=1 WtCom= 1.00D+00 WtEn= 0.00D+00
 Coeff-Com: -0.896D-01 0.433D-03 0.551D+00 0.538D+00
 Coeff:     -0.896D-01 0.433D-03 0.551D+00 0.538D+00
 Gap=     0.387 Goal=   None    Shift=    0.000
 RMSDP=1.96D-04 MaxDP=4.53D-03 DE=-2.04D-03 OVMax= 7.48D-03

 Cycle   5  Pass 1  IDiag  1:
 E= -271.556501534033     Delta-E=       -0.000466568191 Rises=F Damp=F
 DIIS: error= 8.95D-04 at cycle   5 NSaved=   5.
 NSaved= 5 IEnMin= 5 EnMin= -271.556501534033     IErMin= 5 ErrMin= 8.95D-04
 ErrMax= 8.95D-04  0.00D+00 EMaxC= 1.00D+00 BMatC= 9.76D-05 BMatP= 5.76D-04
 IDIUse=1 WtCom= 1.00D+00 WtEn= 0.00D+00
 Coeff-Com: -0.603D-02-0.824D-03-0.316D-01 0.275D+00 0.763D+00
 Coeff:     -0.603D-02-0.824D-03-0.316D-01 0.275D+00 0.763D+00
 Gap=     0.388 Goal=   None    Shift=    0.000
 RMSDP=1.06D-04 MaxDP=2.17D-03 DE=-4.67D-04 OVMax= 5.11D-03

 Cycle   6  Pass 1  IDiag  1:
 E= -271.556611581954     Delta-E=       -0.000110047922 Rises=F Damp=F
 DIIS: error= 1.61D-04 at cycle   6 NSaved=   6.
 NSaved= 6 IEnMin= 6 EnMin= -271.556611581954     IErMin= 6 ErrMin= 1.61D-04
 ErrMax= 1.61D-04  0.00D+00 EMaxC= 1.00D+00 BMatC= 4.30D-06 BMatP= 9.76D-05
 IDIUse=1 WtCom= 1.00D+00 WtEn= 0.00D+00
 Coeff-Com:  0.961D-02 0.185D-03-0.797D-01 0.139D-02 0.178D+00 0.890D+00
 Coeff:      0.961D-02 0.185D-03-0.797D-01 0.139D-02 0.178D+00 0.890D+00
 Gap=     0.387 Goal=   None    Shift=    0.000
 RMSDP=3.16D-05 MaxDP=6.99D-04 DE=-1.10D-04 OVMax= 1.70D-03

 Cycle   7  Pass 1  IDiag  1:
 E= -271.556619047145     Delta-E=       -0.000007465190 Rises=F Damp=F
 DIIS: error= 8.69D-05 at cycle   7 NSaved=   7.
 NSaved= 7 IEnMin= 7 EnMin= -271.556619047145     IErMin= 7 ErrMin= 8.69D-05
 ErrMax= 8.69D-05  0.00D+00 EMaxC= 1.00D+00 BMatC= 7.23D-07 BMatP= 4.30D-06
 IDIUse=1 WtCom= 1.00D+00 WtEn= 0.00D+00
 Coeff-Com:  0.481D-02 0.109D-03-0.326D-01-0.200D-01 0.181D-01 0.366D+00
 Coeff-Com:  0.663D+00
 Coeff:      0.481D-02 0.109D-03-0.326D-01-0.200D-01 0.181D-01 0.366D+00
 Coeff:      0.663D+00
 Gap=     0.387 Goal=   None    Shift=    0.000
 RMSDP=9.85D-06 MaxDP=2.11D-04 DE=-7.47D-06 OVMax= 4.16D-04

 Cycle   8  Pass 1  IDiag  1:
 E= -271.556619704061     Delta-E=       -0.000000656916 Rises=F Damp=F
 DIIS: error= 3.24D-05 at cycle   8 NSaved=   8.
 NSaved= 8 IEnMin= 8 EnMin= -271.556619704061     IErMin= 8 ErrMin= 3.24D-05
 ErrMax= 3.24D-05  0.00D+00 EMaxC= 1.00D+00 BMatC= 1.81D-07 BMatP= 7.23D-07
 IDIUse=1 WtCom= 1.00D+00 WtEn= 0.00D+00
 Coeff-Com:  0.100D-02 0.281D-05-0.460D-02-0.101D-01-0.167D-01 0.549D-01
 Coeff-Com:  0.357D+00 0.619D+00
 Coeff:      0.100D-02 0.281D-05-0.460D-02-0.101D-01-0.167D-01 0.549D-01
 Coeff:      0.357D+00 0.619D+00
 Gap=     0.387 Goal=   None    Shift=    0.000
 RMSDP=3.88D-06 MaxDP=9.84D-05 DE=-6.57D-07 OVMax= 1.76D-04

 Cycle   9  Pass 1  IDiag  1:
 E= -271.556619867938     Delta-E=       -0.000000163877 Rises=F Damp=F
 DIIS: error= 8.34D-06 at cycle   9 NSaved=   9.
 NSaved= 9 IEnMin= 9 EnMin= -271.556619867938     IErMin= 9 ErrMin= 8.34D-06
 ErrMax= 8.34D-06  0.00D+00 EMaxC= 1.00D+00 BMatC= 1.41D-08 BMatP= 1.81D-07
 IDIUse=1 WtCom= 1.00D+00 WtEn= 0.00D+00
 Coeff-Com: -0.307D-03-0.218D-04 0.294D-02-0.437D-03-0.785D-02-0.355D-01
 Coeff-Com:  0.320D-01 0.248D+00 0.761D+00
 Coeff:     -0.307D-03-0.218D-04 0.294D-02-0.437D-03-0.785D-02-0.355D-01
 Coeff:      0.320D-01 0.248D+00 0.761D+00
 Gap=     0.387 Goal=   None    Shift=    0.000
 RMSDP=1.48D-06 MaxDP=3.22D-05 DE=-1.64D-07 OVMax= 4.64D-05

 Cycle  10  Pass 1  IDiag  1:
 E= -271.556619884751     Delta-E=       -0.000000016813 Rises=F Damp=F
 DIIS: error= 1.73D-06 at cycle  10 NSaved=  10.
 NSaved=10 IEnMin=10 EnMin= -271.556619884751     IErMin=10 ErrMin= 1.73D-06
 ErrMax= 1.73D-06  0.00D+00 EMaxC= 1.00D+00 BMatC= 4.43D-10 BMatP= 1.41D-08
 IDIUse=1 WtCom= 1.00D+00 WtEn= 0.00D+00
 Coeff-Com: -0.101D-03 0.440D-05 0.625D-03 0.728D-03 0.443D-04-0.840D-02
 Coeff-Com: -0.225D-01-0.851D-02 0.103D+00 0.936D+00
 Coeff:     -0.101D-03 0.440D-05 0.625D-03 0.728D-03 0.443D-04-0.840D-02
 Coeff:     -0.225D-01-0.851D-02 0.103D+00 0.936D+00
 Gap=     0.387 Goal=   None    Shift=    0.000
 RMSDP=5.02D-07 MaxDP=1.21D-05 DE=-1.68D-08 OVMax= 1.77D-05

 Cycle  11  Pass 1  IDiag  1:
 E= -271.556619885912     Delta-E=       -0.000000001161 Rises=F Damp=F
 DIIS: error= 7.40D-07 at cycle  11 NSaved=  11.
 NSaved=11 IEnMin=11 EnMin= -271.556619885912     IErMin=11 ErrMin= 7.40D-07
 ErrMax= 7.40D-07  0.00D+00 EMaxC= 1.00D+00 BMatC= 3.23D-11 BMatP= 4.43D-10
 IDIUse=1 WtCom= 1.00D+00 WtEn= 0.00D+00
 Coeff-Com:  0.269D-04-0.399D-06-0.250D-03-0.215D-04 0.532D-03 0.318D-02
 Coeff-Com: -0.177D-02-0.196D-01-0.750D-01-0.660D-01 0.116D+01
 Coeff:      0.269D-04-0.399D-06-0.250D-03-0.215D-04 0.532D-03 0.318D-02
 Coeff:     -0.177D-02-0.196D-01-0.750D-01-0.660D-01 0.116D+01
 Gap=     0.387 Goal=   None    Shift=    0.000
 RMSDP=1.80D-07 MaxDP=3.52D-06 DE=-1.16D-09 OVMax= 8.91D-06

 Cycle  12  Pass 1  IDiag  1:
 E= -271.556619886067     Delta-E=       -0.000000000155 Rises=F Damp=F
 DIIS: error= 1.40D-07 at cycle  12 NSaved=  12.
 NSaved=12 IEnMin=12 EnMin= -271.556619886067     IErMin=12 ErrMin= 1.40D-07
 ErrMax= 1.40D-07  0.00D+00 EMaxC= 1.00D+00 BMatC= 2.46D-12 BMatP= 3.23D-11
 IDIUse=1 WtCom= 1.00D+00 WtEn= 0.00D+00
 Coeff-Com:  0.686D-05-0.311D-07-0.416D-04-0.578D-04-0.113D-05 0.805D-03
 Coeff-Com:  0.201D-02 0.414D-03-0.947D-02-0.732D-01 0.498D-01 0.103D+01
 Coeff:      0.686D-05-0.311D-07-0.416D-04-0.578D-04-0.113D-05 0.805D-03
 Coeff:      0.201D-02 0.414D-03-0.947D-02-0.732D-01 0.498D-01 0.103D+01
 Gap=     0.387 Goal=   None    Shift=    0.000
 RMSDP=3.55D-08 MaxDP=7.97D-07 DE=-1.55D-10 OVMax= 2.03D-06

 Cycle  13  Pass 1  IDiag  1:
 E= -271.556619886072     Delta-E=       -0.000000000005 Rises=F Damp=F
 DIIS: error= 4.68D-08 at cycle  13 NSaved=  13.
 NSaved=13 IEnMin=13 EnMin= -271.556619886072     IErMin=13 ErrMin= 4.68D-08
 ErrMax= 4.68D-08  0.00D+00 EMaxC= 1.00D+00 BMatC= 1.76D-13 BMatP= 2.46D-12
 IDIUse=1 WtCom= 1.00D+00 WtEn= 0.00D+00
 Coeff-Com: -0.156D-05-0.190D-07 0.170D-04-0.880D-05-0.523D-04-0.180D-03
 Coeff-Com:  0.350D-03 0.152D-02 0.496D-02-0.184D-02-0.839D-01 0.638D-01
 Coeff-Com:  0.102D+01
 Coeff:     -0.156D-05-0.190D-07 0.170D-04-0.880D-05-0.523D-04-0.180D-03
 Coeff:      0.350D-03 0.152D-02 0.496D-02-0.184D-02-0.839D-01 0.638D-01
 Coeff:      0.102D+01
 Gap=     0.387 Goal=   None    Shift=    0.000
 RMSDP=1.22D-08 MaxDP=2.80D-07 DE=-5.12D-12 OVMax= 5.25D-07

 Cycle  14  Pass 1  IDiag  1:
 E= -271.556619886070     Delta-E=        0.000000000001 Rises=F Damp=F
 DIIS: error= 1.12D-08 at cycle  14 NSaved=  14.
 NSaved=14 IEnMin=13 EnMin= -271.556619886072     IErMin=14 ErrMin= 1.12D-08
 ErrMax= 1.12D-08  0.00D+00 EMaxC= 1.00D+00 BMatC= 1.64D-14 BMatP= 1.76D-13
 IDIUse=1 WtCom= 1.00D+00 WtEn= 0.00D+00
 Coeff-Com: -0.867D-06-0.343D-08 0.665D-05 0.166D-05-0.131D-04-0.963D-04
 Coeff-Com: -0.660D-04 0.281D-03 0.167D-02 0.461D-02-0.190D-01-0.654D-01
 Coeff-Com:  0.199D+00 0.879D+00
 Coeff:     -0.867D-06-0.343D-08 0.665D-05 0.166D-05-0.131D-04-0.963D-04
 Coeff:     -0.660D-04 0.281D-03 0.167D-02 0.461D-02-0.190D-01-0.654D-01
 Coeff:      0.199D+00 0.879D+00
 Gap=     0.387 Goal=   None    Shift=    0.000
 RMSDP=3.39D-09 MaxDP=8.95D-08 DE= 1.25D-12 OVMax= 1.06D-07

 SCF Done:  E(RwB97XD) =  -271.556619886     A.U. after   14 cycles
            NFock= 14  Conv=0.34D-08     -V/T= 2.0095
 KE= 2.690141448920D+02 PE=-1.015591868572D+03 EE= 2.790882543345D+02
 Leave Link  502 at Wed Aug  6 20:05:56 2025, MaxMem=   104857600 cpu:               9.6 elap:               9.8
 (Enter /Applications/g16/l701.exe)
 ... and contract with generalized density number  0.
 Compute integral first derivatives.
 R6Disp: Adding Grimme-D2 dispersion energy 1st derivatives to the gradient.
 Leave Link  701 at Wed Aug  6 20:05:56 2025, MaxMem=   104857600 cpu:               0.0 elap:               0.0
 (Enter /Applications/g16/l702.exe)
 L702 exits ... SP integral derivatives will be done elsewhere.
 Leave Link  702 at Wed Aug  6 20:05:56 2025, MaxMem=   104857600 cpu:               0.0 elap:               0.0
 (Enter /Applications/g16/l703.exe)
 Integral derivatives from FoFJK, PRISM(SPDF).
 Compute integral first derivatives, UseDBF=F ICtDFT=           0.
 Calling FoFJK, ICntrl=      2127 FMM=F ISym2X=0 I1Cent= 0 IOpClX= 0 NMat=1 NMatS=1 NMatT=0.
 FoFJK:  IHMeth= 1 ICntrl=    2127 DoSepK=T KAlg= 0 I1Cent=           0 FoldK=F
 IRaf=         1 NMat=       1 IRICut=       1 DoRegI=T DoRafI=F ISym2E= 0 IDoP0=0 IntGTp=1.
 FoFCou: FMM=F IPFlag=           0 FMFlag=      100000 FMFlg1=         800
         NFxFlg=           0 DoJE=F BraDBF=F KetDBF=F FulRan=T
         wScrn=  0.000000 ICntrl=      2527 IOpCl=  0 I1Cent=           0 NGrid=           0
         NMat0=    1 NMatS0=      1 NMatT0=    0 NMatD0=    1 NMtDS0=    0 NMtDT0=    0
 Symmetry not used in FoFCou.
 Leave Link  703 at Wed Aug  6 20:05:59 2025, MaxMem=   104857600 cpu:               2.8 elap:               2.8
 (Enter /Applications/g16/l716.exe)
 Dipole        = 7.17283292D+00-6.98131365D-01-6.18621456D-03
 ***** Axes restored to original set *****
 -------------------------------------------------------------------
 Center     Atomic                   Forces (Hartrees/Bohr)
 Number     Number              X              Y              Z
 -------------------------------------------------------------------
      1        7          -0.006904760   -0.004444003    0.002633689
      2        6           0.007768319    0.011800724   -0.005948170
      3        6           0.002810267   -0.002260035    0.003402010
      4        6          -0.004291560   -0.002416361    0.000342892
      5        6          -0.000304554   -0.000718211   -0.000384376
      6        7           0.004048414   -0.001084824    0.000161804
      7        1          -0.000046077    0.000547536    0.000474836
      8        1          -0.000003210    0.000629216   -0.000531425
      9        1          -0.000487855   -0.001386711    0.000490804
     10        1           0.001043439   -0.001648691   -0.000658844
     11        3          -0.003632422    0.000981361    0.000016781
 -------------------------------------------------------------------
 Cartesian Forces:  Max     0.011800724 RMS     0.003475691
 Leave Link  716 at Wed Aug  6 20:05:59 2025, MaxMem=   104857600 cpu:               0.0 elap:               0.0
 (Enter /Applications/g16/l103.exe)

 GradGradGradGradGradGradGradGradGradGradGradGradGradGradGradGradGradGrad
 Berny optimization.
 Using GEDIIS/GDIIS optimizer.
 FormGI is forming the generalized inverse of G from B-inverse, IUseBI=4.
 Internal  Forces:  Max     0.017501953 RMS     0.003186443
 Search for a local minimum.
 Step number   4 out of a maximum of   47
 All quantities printed in internal units (Hartrees-Bohrs-Radians)
 RMS Force = .31864D-02 SwitMx=.10000D-02 MixMth= 1
 Mixed Optimization -- RFO/linear search
 Update second derivatives using D2CorX and points    1    2    4    3
 DE=  2.05D-03 DEPred=-8.13D-04 R=-2.52D+00
 Trust test=-2.52D+00 RLast= 3.13D-01 DXMaxT set to 2.54D-01
 ITU= -1  1  1  0
 Use linear search instead of GDIIS.
     Eigenvalues ---    0.00766   0.01211   0.02567   0.02568   0.04846
     Eigenvalues ---    0.04911   0.05704   0.05906   0.06133   0.06216
     Eigenvalues ---    0.06316   0.08041   0.16000   0.16012   0.16041
     Eigenvalues ---    0.16959   0.22365   0.23523   0.33756   0.34230
     Eigenvalues ---    0.34230   0.34233   0.34461   0.36235   0.36279
     Eigenvalues ---    1.29959   1.30141
 RFO step:  Lambda=-4.94541722D-05 EMin= 7.65950657D-03
 Quartic linear search produced a step of -0.79004.
 Iteration  1 RMS(Cart)=  0.06610856 RMS(Int)=  0.00892571
 Iteration  2 RMS(Cart)=  0.01269416 RMS(Int)=  0.00024146
 Iteration  3 RMS(Cart)=  0.00028889 RMS(Int)=  0.00001089
 Iteration  4 RMS(Cart)=  0.00000012 RMS(Int)=  0.00001089
 ITry= 1 IFail=0 DXMaxC= 3.10D-01 DCOld= 1.00D+10 DXMaxT= 2.54D-01 DXLimC= 3.00D+00 Rises=F
 Variable       Old X    -DE/DX   Delta X   Delta X   Delta X     New X
                                 (Linear)    (Quad)   (Total)
    R1        2.18432   0.00318  -0.00001   0.00058   0.00058   2.18490
    R2        2.76252   0.00154   0.00098   0.00094   0.00192   2.76444
    R3        2.94292  -0.00419  -0.01101  -0.00310  -0.01411   2.92881
    R4        2.06592   0.00030   0.00150  -0.00028   0.00122   2.06714
    R5        2.06579   0.00056   0.00162  -0.00025   0.00137   2.06716
    R6        2.75715   0.00033   0.00095   0.00090   0.00185   2.75899
    R7        2.06961  -0.00011   0.00096  -0.00076   0.00020   2.06980
    R8        2.06963  -0.00008   0.00093  -0.00071   0.00022   2.06985
    R9        2.18255   0.00043   0.00050   0.00003   0.00053   2.18309
   R10        3.79888  -0.00376  -0.09702   0.01056  -0.08646   3.71242
    A1        1.89821  -0.00285   0.00420   0.00501   0.00918   1.90739
    A2        1.91296   0.00004  -0.00452  -0.00407  -0.00862   1.90435
    A3        1.91039   0.00162  -0.00218  -0.00290  -0.00511   1.90528
    A4        1.92141   0.00199   0.00535   0.00307   0.00840   1.92981
    A5        1.92181   0.00096   0.00495   0.00311   0.00803   1.92985
    A6        1.89904  -0.00173  -0.00795  -0.00429  -0.01225   1.88678
    A7        1.95705  -0.00140  -0.00151  -0.00043  -0.00194   1.95512
    A8        1.92516   0.00075   0.00647   0.00001   0.00648   1.93164
    A9        1.92498   0.00088   0.00671  -0.00007   0.00664   1.93163
   A10        1.88477   0.00033  -0.00319   0.00086  -0.00233   1.88244
   A11        1.88440   0.00035  -0.00345   0.00169  -0.00177   1.88264
   A12        1.88535  -0.00092  -0.00566  -0.00208  -0.00773   1.87762
   A13        2.88474   0.01750   0.22527   0.00478   0.23006   3.11479
   A14        3.13719   0.00047   0.00906  -0.01397  -0.00491   3.13228
   A15        3.16915   0.00030   0.00296   0.00275   0.00571   3.17487
   A16        3.11128   0.00046   0.01957  -0.01947   0.00010   3.11138
   A17        3.13839   0.00015  -0.00108   0.00680   0.00572   3.14411
   A18        3.16664   0.00006   0.00229  -0.00020   0.00209   3.16873
    D1        3.13995   0.00049   0.00119   0.00098   0.00218  -3.14106
    D2       -1.04195   0.00049   0.00059   0.00179   0.00239  -1.03956
    D3        1.03925   0.00039   0.00197  -0.00082   0.00114   1.04039
    D4       -1.04708  -0.00002   0.00154   0.00096   0.00250  -1.04458
    D5        1.05420  -0.00002   0.00093   0.00177   0.00271   1.05692
    D6        3.13540  -0.00013   0.00231  -0.00085   0.00147   3.13687
    D7        1.04671  -0.00030  -0.00177  -0.00044  -0.00222   1.04448
    D8       -3.13519  -0.00030  -0.00238   0.00037  -0.00201  -3.13721
    D9       -1.05400  -0.00041  -0.00100  -0.00225  -0.00326  -1.05725
         Item               Value     Threshold  Converged?
 Maximum Force            0.017502     0.000450     NO 
 RMS     Force            0.003186     0.000300     NO 
 Maximum Displacement     0.310477     0.001800     NO 
 RMS     Displacement     0.076123     0.001200     NO 
 Predicted change in Energy=-1.803120D-04
 GradGradGradGradGradGradGradGradGradGradGradGradGradGradGradGradGradGrad

 Leave Link  103 at Wed Aug  6 20:05:59 2025, MaxMem=   104857600 cpu:               0.0 elap:               0.0
 (Enter /Applications/g16/l202.exe)
                          Input orientation:                          
 ---------------------------------------------------------------------
 Center     Atomic      Atomic             Coordinates (Angstroms)
 Number     Number       Type             X           Y           Z
 ---------------------------------------------------------------------
      1          7           0       -2.967672    0.263701    0.007494
      2          6           0       -1.888756   -0.151750   -0.004125
      3          6           0       -0.506354   -0.630255   -0.001383
      4          6           0        0.455880    0.584724   -0.000651
      5          6           0        1.856773    0.173524    0.001345
      6          7           0        2.962168   -0.162152    0.000647
      7          1           0        0.290521    1.209514   -0.884935
      8          1           0        0.288043    1.210402    0.882569
      9          1           0       -0.340578   -1.251286   -0.886494
     10          1           0       -0.342839   -1.250615    0.884627
     11          3           0        4.861756   -0.663088    0.001387
 ---------------------------------------------------------------------
                    Distance matrix (angstroms):
                    1          2          3          4          5
     1  N    0.000000
     2  C    1.156198   0.000000
     3  C    2.618648   1.462877   0.000000
     4  C    3.438579   2.457585   1.549861   0.000000
     5  C    4.825291   3.759630   2.496085   1.459997   0.000000
     6  N    5.945115   4.850938   3.499968   2.615207   1.155239
     7  H    3.508106   2.716268   2.190986   1.095293   2.076515
     8  H    3.501667   2.716641   2.190994   1.095317   2.076677
     9  H    3.161649   2.093898   1.093884   2.188605   2.765265
    10  H    3.154721   2.094575   1.093892   2.188638   2.765257
    11  Li   7.884092   6.769853   5.368211   4.579168   3.119269
                    6          7          8          9         10
     6  N    0.000000
     7  H    3.131042   0.000000
     8  H    3.132513   1.767506   0.000000
     9  H    3.589061   2.540437   3.095909   0.000000
    10  H    3.590159   3.095921   2.540595   1.771122   0.000000
    11  Li   1.964528   5.018804   5.020488   5.310234   5.311601
                   11
    11  Li   0.000000
 Stoichiometry    C4H4LiN2(1+)
 Framework group  C1[X(C4H4LiN2)]
 Deg. of freedom    27
 Full point group                 C1      NOp   1
 RotChk:  IX=1 Diff= 2.76D-02
 Largest Abelian subgroup         C1      NOp   1
 Largest concise Abelian subgroup C1      NOp   1
                         Standard orientation:                         
 ---------------------------------------------------------------------
 Center     Atomic      Atomic             Coordinates (Angstroms)
 Number     Number       Type             X           Y           Z
 ---------------------------------------------------------------------
      1          7           0       -3.287173    0.159669    0.005559
      2          6           0       -2.191811   -0.210282   -0.005031
      3          6           0       -0.790594   -0.630501   -0.001072
      4          6           0        0.119945    0.623686   -0.002402
      5          6           0        1.536820    0.271484    0.000689
      6          7           0        2.655296   -0.017632    0.000875
      7          1           0       -0.071147    1.239353   -0.887898
      8          1           0       -0.074205    1.243441    0.879600
      9          1           0       -0.598697   -1.245703   -0.884975
     10          1           0       -0.601530   -1.241817    0.886141
     11          3           0        4.574185   -0.438620    0.002994
 ---------------------------------------------------------------------
 Rotational constants (GHZ):          23.0564921           1.0230229           0.9916918
 Leave Link  202 at Wed Aug  6 20:05:59 2025, MaxMem=   104857600 cpu:               0.0 elap:               0.0
 (Enter /Applications/g16/l301.exe)
 Standard basis: 6-31G(d) (6D, 7F)
 Ernie: Thresh=  0.10000D-02 Tol=  0.10000D-05 Strict=F.
 There are   113 symmetry adapted cartesian basis functions of A   symmetry.
 There are   113 symmetry adapted basis functions of A   symmetry.
   113 basis functions,   212 primitive gaussians,   113 cartesian basis functions
    22 alpha electrons       22 beta electrons
       nuclear repulsion energy       195.6078206535 Hartrees.
 IExCor= 4639 DFT=T Ex+Corr=wB97XD ExCW=0 ScaHFX=  1.000000
 ScaDFX=  1.000000  1.000000  1.000000  1.000000 ScalE2=  1.000000  1.000000
 IRadAn=      5 IRanWt=     -1 IRanGd=            0 ICorTp=0 IEmpDi=121
 HFx  wShort=  0.000000 wLong=  0.200000 cFull=  0.222036 cShort=  0.000000 cLong=  0.777964
 DFx  wShort=  0.000000 wLong=  0.200000 cFull=  0.000000 cShort=  0.000000 cLong=  1.000000
 NAtoms=   11 NActive=   11 NUniq=   11 SFac= 1.00D+00 NAtFMM=   60 NAOKFM=F Big=F
 Integral buffers will be    131072 words long.
 Raffenetti 2 integral format.
 Two-electron integral symmetry is turned on.
 R6Disp:  Grimme-D2 Dispersion energy=       -0.0046914812 Hartrees.
 Nuclear repulsion after empirical dispersion term =      195.6031291723 Hartrees.
 Leave Link  301 at Wed Aug  6 20:05:59 2025, MaxMem=   104857600 cpu:               0.0 elap:               0.0
 (Enter /Applications/g16/l302.exe)
 NPDir=0 NMtPBC=     1 NCelOv=     1 NCel=       1 NClECP=     1 NCelD=      1
         NCelK=      1 NCelE2=     1 NClLst=     1 CellRange=     0.0.
 One-electron integrals computed using PRISM.
 One-electron integral symmetry used in STVInt
 NBasis=   113 RedAO= T EigKep=  8.79D-04  NBF=   113
 NBsUse=   113 1.00D-06 EigRej= -1.00D+00 NBFU=   113
 Precomputing XC quadrature grid using
 IXCGrd= 4 IRadAn=           5 IRanWt=          -1 IRanGd=           0 AccXCQ= 0.00D+00.
 Generated NRdTot=       0 NPtTot=           0 NUsed=           0 NTot=          32
 NSgBfM=   113   113   113   113   113 MxSgAt=    11 MxSgA2=    11.
 Leave Link  302 at Wed Aug  6 20:05:59 2025, MaxMem=   104857600 cpu:               0.1 elap:               0.1
 (Enter /Applications/g16/l303.exe)
 DipDrv:  MaxL=1.
 Leave Link  303 at Wed Aug  6 20:05:59 2025, MaxMem=   104857600 cpu:               0.0 elap:               0.0
 (Enter /Applications/g16/l401.exe)
 Lowest energy guess from the checkpoint file:  "/Users/srak/g16_scratch/Gau-83439.chk"
 B after Tr=    -0.000000   -0.000000    0.000000
         Rot=    1.000000    0.000290   -0.000001   -0.000474 Ang=   0.06 deg.
 Guess basis will be translated and rotated to current coordinates.
 B after Tr=    -0.000000    0.000000   -0.000000
         Rot=    0.999983    0.005797    0.000045    0.000687 Ang=   0.67 deg.
 Guess basis will be translated and rotated to current coordinates.
 CkInt1:  FT= 2.10D-01
 Max alpha theta=  8.485 degrees.
 JPrj=2 DoOrth=T DoCkMO=T.
 Leave Link  401 at Wed Aug  6 20:05:59 2025, MaxMem=   104857600 cpu:               0.0 elap:               0.0
 (Enter /Applications/g16/l502.exe)
 Keep R1 ints in memory in canonical form, NReq=43174005.
 FoFCou: FMM=F IPFlag=           0 FMFlag=           0 FMFlg1=           0
         NFxFlg=           0 DoJE=F BraDBF=F KetDBF=F FulRan=T
         wScrn=  0.000000 ICntrl=       600 IOpCl=  0 I1Cent=           0 NGrid=           0
         NMat0=    1 NMatS0=   6441 NMatT0=    0 NMatD0=    1 NMtDS0=    0 NMtDT0=    0
 Symmetry not used in FoFCou.
 Two-electron integral symmetry not used.
 Closed shell SCF:
 Using DIIS extrapolation, IDIIS=  1040.
 NGot=   104857600 LenX=    63336875 LenY=    63323665
 Requested convergence on RMS density matrix=1.00D-08 within 128 cycles.
 Requested convergence on MAX density matrix=1.00D-06.
 Requested convergence on             energy=1.00D-06.
 No special actions if energy rises.

 Cycle   1  Pass 1  IDiag  1:
 E= -271.558574960863    
 DIIS: error= 8.94D-04 at cycle   1 NSaved=   1.
 NSaved= 1 IEnMin= 1 EnMin= -271.558574960863     IErMin= 1 ErrMin= 8.94D-04
 ErrMax= 8.94D-04  0.00D+00 EMaxC= 1.00D-01 BMatC= 1.64D-04 BMatP= 1.64D-04
 IDIUse=3 WtCom= 9.91D-01 WtEn= 8.94D-03
 Coeff-Com:  0.100D+01
 Coeff-En:   0.100D+01
 Coeff:      0.100D+01
 Gap=    12.932 Goal=   None    Shift=    0.000
 RMSDP=1.81D-04 MaxDP=3.21D-03              OVMax= 4.79D-03

 Cycle   2  Pass 1  IDiag  1:
 E= -271.558811487808     Delta-E=       -0.000236526945 Rises=F Damp=F
 DIIS: error= 3.75D-04 at cycle   2 NSaved=   2.
 NSaved= 2 IEnMin= 2 EnMin= -271.558811487808     IErMin= 2 ErrMin= 3.75D-04
 ErrMax= 3.75D-04  0.00D+00 EMaxC= 1.00D-01 BMatC= 1.52D-05 BMatP= 1.64D-04
 IDIUse=3 WtCom= 9.96D-01 WtEn= 3.75D-03
 Coeff-Com: -0.226D-01 0.102D+01
 Coeff-En:   0.000D+00 0.100D+01
 Coeff:     -0.225D-01 0.102D+01
 Gap=     0.388 Goal=   None    Shift=    0.000
 RMSDP=7.01D-05 MaxDP=1.65D-03 DE=-2.37D-04 OVMax= 2.58D-03

 Cycle   3  Pass 1  IDiag  1:
 E= -271.558810976045     Delta-E=        0.000000511763 Rises=F Damp=F
 DIIS: error= 5.31D-04 at cycle   3 NSaved=   3.
 NSaved= 3 IEnMin= 2 EnMin= -271.558811487808     IErMin= 2 ErrMin= 3.75D-04
 ErrMax= 5.31D-04  0.00D+00 EMaxC= 1.00D-01 BMatC= 2.82D-05 BMatP= 1.52D-05
 IDIUse=3 WtCom= 3.03D-01 WtEn= 6.97D-01
 Coeff-Com: -0.111D+00 0.659D+00 0.452D+00
 Coeff-En:   0.000D+00 0.508D+00 0.492D+00
 Coeff:     -0.335D-01 0.554D+00 0.480D+00
 Gap=     0.387 Goal=   None    Shift=    0.000
 RMSDP=4.52D-05 MaxDP=1.19D-03 DE= 5.12D-07 OVMax= 1.94D-03

 Cycle   4  Pass 1  IDiag  1:
 E= -271.558833150162     Delta-E=       -0.000022174117 Rises=F Damp=F
 DIIS: error= 1.30D-04 at cycle   4 NSaved=   4.
 NSaved= 4 IEnMin= 4 EnMin= -271.558833150162     IErMin= 4 ErrMin= 1.30D-04
 ErrMax= 1.30D-04  0.00D+00 EMaxC= 1.00D-01 BMatC= 2.03D-06 BMatP= 1.52D-05
 IDIUse=3 WtCom= 9.99D-01 WtEn= 1.30D-03
 Coeff-Com: -0.134D-01-0.747D-01 0.193D+00 0.895D+00
 Coeff-En:   0.000D+00 0.000D+00 0.129D-01 0.987D+00
 Coeff:     -0.134D-01-0.746D-01 0.193D+00 0.895D+00
 Gap=     0.387 Goal=   None    Shift=    0.000
 RMSDP=1.37D-05 MaxDP=3.36D-04 DE=-2.22D-05 OVMax= 4.73D-04

 Cycle   5  Pass 1  IDiag  1:
 E= -271.558835257685     Delta-E=       -0.000002107524 Rises=F Damp=F
 DIIS: error= 1.14D-05 at cycle   5 NSaved=   5.
 NSaved= 5 IEnMin= 5 EnMin= -271.558835257685     IErMin= 5 ErrMin= 1.14D-05
 ErrMax= 1.14D-05  0.00D+00 EMaxC= 1.00D-01 BMatC= 3.07D-08 BMatP= 2.03D-06
 IDIUse=1 WtCom= 1.00D+00 WtEn= 0.00D+00
 Coeff-Com:  0.677D-02-0.754D-01 0.268D-02 0.202D+00 0.864D+00
 Coeff:      0.677D-02-0.754D-01 0.268D-02 0.202D+00 0.864D+00
 Gap=     0.387 Goal=   None    Shift=    0.000
 RMSDP=2.52D-06 MaxDP=3.45D-05 DE=-2.11D-06 OVMax= 1.17D-04

 Cycle   6  Pass 1  IDiag  1:
 E= -271.558835302136     Delta-E=       -0.000000044451 Rises=F Damp=F
 DIIS: error= 8.43D-06 at cycle   6 NSaved=   6.
 NSaved= 6 IEnMin= 6 EnMin= -271.558835302136     IErMin= 6 ErrMin= 8.43D-06
 ErrMax= 8.43D-06  0.00D+00 EMaxC= 1.00D-01 BMatC= 8.75D-09 BMatP= 3.07D-08
 IDIUse=1 WtCom= 1.00D+00 WtEn= 0.00D+00
 Coeff-Com:  0.466D-02-0.292D-01-0.187D-01 0.482D-02 0.407D+00 0.631D+00
 Coeff:      0.466D-02-0.292D-01-0.187D-01 0.482D-02 0.407D+00 0.631D+00
 Gap=     0.387 Goal=   None    Shift=    0.000
 RMSDP=8.77D-07 MaxDP=2.41D-05 DE=-4.45D-08 OVMax= 3.00D-05

 Cycle   7  Pass 1  IDiag  1:
 E= -271.558835309805     Delta-E=       -0.000000007669 Rises=F Damp=F
 DIIS: error= 4.03D-06 at cycle   7 NSaved=   7.
 NSaved= 7 IEnMin= 7 EnMin= -271.558835309805     IErMin= 7 ErrMin= 4.03D-06
 ErrMax= 4.03D-06  0.00D+00 EMaxC= 1.00D-01 BMatC= 1.62D-09 BMatP= 8.75D-09
 IDIUse=1 WtCom= 1.00D+00 WtEn= 0.00D+00
 Coeff-Com:  0.156D-02-0.473D-02-0.104D-01-0.265D-01 0.887D-01 0.338D+00
 Coeff-Com:  0.613D+00
 Coeff:      0.156D-02-0.473D-02-0.104D-01-0.265D-01 0.887D-01 0.338D+00
 Coeff:      0.613D+00
 Gap=     0.387 Goal=   None    Shift=    0.000
 RMSDP=3.24D-07 MaxDP=7.88D-06 DE=-7.67D-09 OVMax= 1.14D-05

 Cycle   8  Pass 1  IDiag  1:
 E= -271.558835311266     Delta-E=       -0.000000001461 Rises=F Damp=F
 DIIS: error= 5.33D-07 at cycle   8 NSaved=   8.
 NSaved= 8 IEnMin= 8 EnMin= -271.558835311266     IErMin= 8 ErrMin= 5.33D-07
 ErrMax= 5.33D-07  0.00D+00 EMaxC= 1.00D-01 BMatC= 5.69D-11 BMatP= 1.62D-09
 IDIUse=1 WtCom= 1.00D+00 WtEn= 0.00D+00
 Coeff-Com: -0.158D-03 0.210D-02-0.607D-04-0.545D-02-0.274D-01 0.666D-02
 Coeff-Com:  0.160D+00 0.864D+00
 Coeff:     -0.158D-03 0.210D-02-0.607D-04-0.545D-02-0.274D-01 0.666D-02
 Coeff:      0.160D+00 0.864D+00
 Gap=     0.387 Goal=   None    Shift=    0.000
 RMSDP=1.07D-07 MaxDP=1.92D-06 DE=-1.46D-09 OVMax= 3.47D-06

 Cycle   9  Pass 1  IDiag  1:
 E= -271.558835311339     Delta-E=       -0.000000000073 Rises=F Damp=F
 DIIS: error= 1.30D-07 at cycle   9 NSaved=   9.
 NSaved= 9 IEnMin= 9 EnMin= -271.558835311339     IErMin= 9 ErrMin= 1.30D-07
 ErrMax= 1.30D-07  0.00D+00 EMaxC= 1.00D-01 BMatC= 2.20D-12 BMatP= 5.69D-11
 IDIUse=1 WtCom= 1.00D+00 WtEn= 0.00D+00
 Coeff-Com: -0.107D-03 0.597D-03 0.573D-03 0.479D-03-0.104D-01-0.180D-01
 Coeff-Com: -0.600D-02 0.166D+00 0.867D+00
 Coeff:     -0.107D-03 0.597D-03 0.573D-03 0.479D-03-0.104D-01-0.180D-01
 Coeff:     -0.600D-02 0.166D+00 0.867D+00
 Gap=     0.387 Goal=   None    Shift=    0.000
 RMSDP=3.18D-08 MaxDP=5.41D-07 DE=-7.28D-11 OVMax= 8.00D-07

 Cycle  10  Pass 1  IDiag  1:
 E= -271.558835311341     Delta-E=       -0.000000000002 Rises=F Damp=F
 DIIS: error= 2.62D-08 at cycle  10 NSaved=  10.
 NSaved=10 IEnMin=10 EnMin= -271.558835311341     IErMin=10 ErrMin= 2.62D-08
 ErrMax= 2.62D-08  0.00D+00 EMaxC= 1.00D-01 BMatC= 1.21D-13 BMatP= 2.20D-12
 IDIUse=1 WtCom= 1.00D+00 WtEn= 0.00D+00
 Coeff-Com: -0.236D-05-0.633D-04 0.667D-04 0.366D-03 0.378D-03-0.253D-02
 Coeff-Com: -0.110D-01-0.343D-01 0.946D-01 0.953D+00
 Coeff:     -0.236D-05-0.633D-04 0.667D-04 0.366D-03 0.378D-03-0.253D-02
 Coeff:     -0.110D-01-0.343D-01 0.946D-01 0.953D+00
 Gap=     0.387 Goal=   None    Shift=    0.000
 RMSDP=9.24D-09 MaxDP=1.90D-07 DE=-1.76D-12 OVMax= 2.05D-07

 SCF Done:  E(RwB97XD) =  -271.558835311     A.U. after   10 cycles
            NFock= 10  Conv=0.92D-08     -V/T= 2.0094
 KE= 2.690303228068D+02 PE=-1.014884666114D+03 EE= 2.786923788234D+02
 Leave Link  502 at Wed Aug  6 20:06:06 2025, MaxMem=   104857600 cpu:               6.9 elap:               7.1
 (Enter /Applications/g16/l701.exe)
 ... and contract with generalized density number  0.
 Compute integral first derivatives.
 R6Disp: Adding Grimme-D2 dispersion energy 1st derivatives to the gradient.
 Leave Link  701 at Wed Aug  6 20:06:06 2025, MaxMem=   104857600 cpu:               0.0 elap:               0.0
 (Enter /Applications/g16/l702.exe)
 L702 exits ... SP integral derivatives will be done elsewhere.
 Leave Link  702 at Wed Aug  6 20:06:06 2025, MaxMem=   104857600 cpu:               0.0 elap:               0.0
 (Enter /Applications/g16/l703.exe)
 Integral derivatives from FoFJK, PRISM(SPDF).
 Compute integral first derivatives, UseDBF=F ICtDFT=           0.
 Calling FoFJK, ICntrl=      2127 FMM=F ISym2X=0 I1Cent= 0 IOpClX= 0 NMat=1 NMatS=1 NMatT=0.
 FoFJK:  IHMeth= 1 ICntrl=    2127 DoSepK=T KAlg= 0 I1Cent=           0 FoldK=F
 IRaf=         1 NMat=       1 IRICut=       1 DoRegI=T DoRafI=F ISym2E= 0 IDoP0=0 IntGTp=1.
 FoFCou: FMM=F IPFlag=           0 FMFlag=      100000 FMFlg1=         800
         NFxFlg=           0 DoJE=F BraDBF=F KetDBF=F FulRan=T
         wScrn=  0.000000 ICntrl=      2527 IOpCl=  0 I1Cent=           0 NGrid=           0
         NMat0=    1 NMatS0=      1 NMatT0=    0 NMatD0=    1 NMtDS0=    0 NMtDT0=    0
 Symmetry not used in FoFCou.
 Leave Link  703 at Wed Aug  6 20:06:08 2025, MaxMem=   104857600 cpu:               2.6 elap:               2.7
 (Enter /Applications/g16/l716.exe)
 Dipole        = 7.15472237D+00-6.65645291D-01-5.28952475D-04
 ***** Axes restored to original set *****
 -------------------------------------------------------------------
 Center     Atomic                   Forces (Hartrees/Bohr)
 Number     Number              X              Y              Z
 -------------------------------------------------------------------
      1        7           0.000458853   -0.000343396   -0.000461947
      2        6          -0.000185965    0.000313377    0.000996320
      3        6           0.000498641    0.000951031   -0.000543949
      4        6          -0.000496191   -0.000337220    0.000087246
      5        6          -0.000170150   -0.000745603   -0.000177317
      6        7          -0.000174545    0.000273642    0.000092181
      7        1          -0.000016188    0.000138727    0.000039564
      8        1          -0.000056561    0.000121703   -0.000053808
      9        1           0.000111642   -0.000211713   -0.000018567
     10        1          -0.000151909   -0.000153377    0.000040474
     11        3           0.000182371   -0.000007172   -0.000000196
 -------------------------------------------------------------------
 Cartesian Forces:  Max     0.000996320 RMS     0.000364947
 Leave Link  716 at Wed Aug  6 20:06:08 2025, MaxMem=   104857600 cpu:               0.0 elap:               0.0
 (Enter /Applications/g16/l103.exe)

 GradGradGradGradGradGradGradGradGradGradGradGradGradGradGradGradGradGrad
 Berny optimization.
 Using GEDIIS/GDIIS optimizer.
 FormGI is forming the generalized inverse of G from B-inverse, IUseBI=4.
 Internal  Forces:  Max     0.000893224 RMS     0.000289466
 Search for a local minimum.
 Step number   5 out of a maximum of   47
 All quantities printed in internal units (Hartrees-Bohrs-Radians)
 RMS Force = .28947D-03 SwitMx=.10000D-02 MixMth= 2
 Mixed Optimization -- En-DIIS/RFO-DIIS
 Update second derivatives using D2CorX and points    1    2    4    3    5
 DE= -1.69D-04 DEPred=-1.80D-04 R= 9.39D-01
 TightC=F SS=  1.41D+00  RLast= 7.32D-02 DXNew= 4.2769D-01 2.1968D-01
 Trust test= 9.39D-01 RLast= 7.32D-02 DXMaxT set to 2.54D-01
 ITU=  1 -1  1  1  0
 Use linear search instead of GDIIS.
     Eigenvalues ---    0.00766   0.01342   0.02559   0.02569   0.04706
     Eigenvalues ---    0.04928   0.05685   0.05875   0.06132   0.06161
     Eigenvalues ---    0.06286   0.08018   0.15907   0.16000   0.16050
     Eigenvalues ---    0.17195   0.22046   0.23457   0.33775   0.34224
     Eigenvalues ---    0.34230   0.34232   0.34337   0.36212   0.36289
     Eigenvalues ---    1.29954   1.30327
 RFO step:  Lambda=-6.60899442D-05 EMin= 7.65964294D-03
 Quartic linear search produced a step of -0.05732.
 Iteration  1 RMS(Cart)=  0.01462092 RMS(Int)=  0.00037490
 Iteration  2 RMS(Cart)=  0.00041610 RMS(Int)=  0.00000042
 Iteration  3 RMS(Cart)=  0.00000028 RMS(Int)=  0.00000037
 ITry= 1 IFail=0 DXMaxC= 6.47D-02 DCOld= 1.00D+10 DXMaxT= 2.54D-01 DXLimC= 3.00D+00 Rises=F
 Variable       Old X    -DE/DX   Delta X   Delta X   Delta X     New X
                                 (Linear)    (Quad)   (Total)
    R1        2.18490  -0.00056  -0.00003  -0.00022  -0.00025   2.18465
    R2        2.76444  -0.00027  -0.00004  -0.00049  -0.00053   2.76391
    R3        2.92881  -0.00089   0.00001  -0.00214  -0.00213   2.92668
    R4        2.06714   0.00015   0.00004   0.00021   0.00025   2.06739
    R5        2.06716   0.00010   0.00004   0.00007   0.00011   2.06726
    R6        2.75899  -0.00002  -0.00004   0.00007   0.00004   2.75903
    R7        2.06980   0.00005   0.00006  -0.00015  -0.00009   2.06971
    R8        2.06985   0.00003   0.00005  -0.00018  -0.00012   2.06973
    R9        2.18309  -0.00007   0.00001  -0.00009  -0.00008   2.18300
   R10        3.71242   0.00018  -0.00208   0.01324   0.01116   3.72358
    A1        1.90739   0.00009  -0.00022   0.00137   0.00115   1.90854
    A2        1.90435   0.00005   0.00017   0.00031   0.00047   1.90482
    A3        1.90528  -0.00022   0.00013  -0.00238  -0.00224   1.90303
    A4        1.92981   0.00003  -0.00009   0.00109   0.00099   1.93081
    A5        1.92985   0.00020  -0.00010   0.00137   0.00126   1.93111
    A6        1.88678  -0.00016   0.00013  -0.00184  -0.00171   1.88507
    A7        1.95512  -0.00050   0.00000  -0.00201  -0.00201   1.95311
    A8        1.93164   0.00018   0.00010   0.00043   0.00053   1.93217
    A9        1.93163   0.00013   0.00011   0.00019   0.00030   1.93192
   A10        1.88244   0.00015  -0.00010   0.00096   0.00086   1.88330
   A11        1.88264   0.00019  -0.00015   0.00153   0.00138   1.88401
   A12        1.87762  -0.00015   0.00003  -0.00102  -0.00099   1.87663
   A13        3.11479  -0.00007   0.00316  -0.01431  -0.01115   3.10365
   A14        3.13228   0.00073   0.00094   0.00901   0.00995   3.14223
   A15        3.17487   0.00013  -0.00011   0.00537   0.00525   3.18012
   A16        3.11138   0.00086   0.00141   0.05778   0.05920   3.17058
   A17        3.14411  -0.00008  -0.00041   0.00048   0.00008   3.14418
   A18        3.16873   0.00004   0.00005   0.00102   0.00107   3.16980
    D1       -3.14106  -0.00007  -0.00004  -0.00121  -0.00125   3.14088
    D2       -1.03956  -0.00009  -0.00009  -0.00105  -0.00114  -1.04070
    D3        1.04039  -0.00007   0.00008  -0.00192  -0.00184   1.03855
    D4       -1.04458   0.00006  -0.00003   0.00072   0.00069  -1.04389
    D5        1.05692   0.00005  -0.00009   0.00088   0.00079   1.05771
    D6        3.13687   0.00007   0.00008   0.00001   0.00009   3.13696
    D7        1.04448   0.00001  -0.00000   0.00001   0.00001   1.04449
    D8       -3.13721  -0.00000  -0.00006   0.00017   0.00011  -3.13709
    D9       -1.05725   0.00002   0.00011  -0.00070  -0.00059  -1.05784
         Item               Value     Threshold  Converged?
 Maximum Force            0.000893     0.000450     NO 
 RMS     Force            0.000289     0.000300     YES
 Maximum Displacement     0.064706     0.001800     NO 
 RMS     Displacement     0.014620     0.001200     NO 
 Predicted change in Energy=-3.380415D-05
 Lowest energy point so far.  Saving SCF results.
 GradGradGradGradGradGradGradGradGradGradGradGradGradGradGradGradGradGrad

 Leave Link  103 at Wed Aug  6 20:06:08 2025, MaxMem=   104857600 cpu:               0.0 elap:               0.0
 (Enter /Applications/g16/l202.exe)
                          Input orientation:                          
 ---------------------------------------------------------------------
 Center     Atomic      Atomic             Coordinates (Angstroms)
 Number     Number       Type             X           Y           Z
 ---------------------------------------------------------------------
      1          7           0       -2.970984    0.260811   -0.026747
      2          6           0       -1.889708   -0.146464    0.011420
      3          6           0       -0.508607   -0.627835    0.005368
      4          6           0        0.456913    0.583091    0.003772
      5          6           0        1.855618    0.164467   -0.001280
      6          7           0        2.962227   -0.167029   -0.002823
      7          1           0        0.289964    1.210305   -0.878434
      8          1           0        0.294972    1.208318    0.888331
      9          1           0       -0.349174   -1.249044   -0.880948
     10          1           0       -0.344119   -1.251113    0.889220
     11          3           0        4.871840   -0.652788   -0.007399
 ---------------------------------------------------------------------
                    Distance matrix (angstroms):
                    1          2          3          4          5
     1  N    0.000000
     2  C    1.156066   0.000000
     3  C    2.618019   1.462599   0.000000
     4  C    3.443149   2.457425   1.548733   0.000000
     5  C    4.827631   3.758232   2.493461   1.460017   0.000000
     6  N    5.948665   4.851999   3.501299   2.615209   1.155194
     7  H    3.501527   2.717284   2.190339   1.095244   2.077126
     8  H    3.521592   2.716107   2.190165   1.095252   2.077655
     9  H    3.143757   2.094099   1.094018   2.188430   2.762777
    10  H    3.166280   2.092756   1.093949   2.188601   2.763277
    11  Li   7.895881   6.780505   5.380520   4.584660   3.124986
                    6          7          8          9         10
     6  N    0.000000
     7  H    3.131251   0.000000
     8  H    3.130492   1.766773   0.000000
     9  H    3.592664   2.541044   3.095788   0.000000
    10  H    3.592061   3.096004   2.541110   1.770176   0.000000
    11  Li   1.970433   5.022291   5.021331   5.327063   5.326176
                   11
    11  Li   0.000000
 Stoichiometry    C4H4LiN2(1+)
 Framework group  C1[X(C4H4LiN2)]
 Deg. of freedom    27
 Full point group                 C1      NOp   1
 RotChk:  IX=3 Diff= 9.54D-03
 Largest Abelian subgroup         C1      NOp   1
 Largest concise Abelian subgroup C1      NOp   1
                         Standard orientation:                         
 ---------------------------------------------------------------------
 Center     Atomic      Atomic             Coordinates (Angstroms)
 Number     Number       Type             X           Y           Z
 ---------------------------------------------------------------------
      1          7           0       -3.290086    0.157327   -0.019925
      2          6           0       -2.192630   -0.204397    0.015219
      3          6           0       -0.792558   -0.627362    0.005491
      4          6           0        0.121307    0.623003    0.008674
      5          6           0        1.536337    0.263462    0.000227
      6          7           0        2.655875   -0.021300   -0.004004
      7          1           0       -0.072870    1.246802   -0.870375
      8          1           0       -0.065655    1.236718    0.896355
      9          1           0       -0.608272   -1.237160   -0.883925
     10          1           0       -0.601003   -1.247339    0.886207
     11          3           0        4.584179   -0.426481   -0.012809
 ---------------------------------------------------------------------
 Rotational constants (GHZ):          23.2883860           1.0208839           0.9901329
 Leave Link  202 at Wed Aug  6 20:06:08 2025, MaxMem=   104857600 cpu:               0.0 elap:               0.0
 (Enter /Applications/g16/l301.exe)
 Standard basis: 6-31G(d) (6D, 7F)
 Ernie: Thresh=  0.10000D-02 Tol=  0.10000D-05 Strict=F.
 There are   113 symmetry adapted cartesian basis functions of A   symmetry.
 There are   113 symmetry adapted basis functions of A   symmetry.
   113 basis functions,   212 primitive gaussians,   113 cartesian basis functions
    22 alpha electrons       22 beta electrons
       nuclear repulsion energy       195.5824315794 Hartrees.
 IExCor= 4639 DFT=T Ex+Corr=wB97XD ExCW=0 ScaHFX=  1.000000
 ScaDFX=  1.000000  1.000000  1.000000  1.000000 ScalE2=  1.000000  1.000000
 IRadAn=      5 IRanWt=     -1 IRanGd=            0 ICorTp=0 IEmpDi=121
 HFx  wShort=  0.000000 wLong=  0.200000 cFull=  0.222036 cShort=  0.000000 cLong=  0.777964
 DFx  wShort=  0.000000 wLong=  0.200000 cFull=  0.000000 cShort=  0.000000 cLong=  1.000000
 NAtoms=   11 NActive=   11 NUniq=   11 SFac= 1.00D+00 NAtFMM=   60 NAOKFM=F Big=F
 Integral buffers will be    131072 words long.
 Raffenetti 2 integral format.
 Two-electron integral symmetry is turned on.
 R6Disp:  Grimme-D2 Dispersion energy=       -0.0046877586 Hartrees.
 Nuclear repulsion after empirical dispersion term =      195.5777438208 Hartrees.
 Leave Link  301 at Wed Aug  6 20:06:08 2025, MaxMem=   104857600 cpu:               0.0 elap:               0.0
 (Enter /Applications/g16/l302.exe)
 NPDir=0 NMtPBC=     1 NCelOv=     1 NCel=       1 NClECP=     1 NCelD=      1
         NCelK=      1 NCelE2=     1 NClLst=     1 CellRange=     0.0.
 One-electron integrals computed using PRISM.
 One-electron integral symmetry used in STVInt
 NBasis=   113 RedAO= T EigKep=  8.74D-04  NBF=   113
 NBsUse=   113 1.00D-06 EigRej= -1.00D+00 NBFU=   113
 Precomputing XC quadrature grid using
 IXCGrd= 4 IRadAn=           5 IRanWt=          -1 IRanGd=           0 AccXCQ= 0.00D+00.
 Generated NRdTot=       0 NPtTot=           0 NUsed=           0 NTot=          32
 NSgBfM=   113   113   113   113   113 MxSgAt=    11 MxSgA2=    11.
 Leave Link  302 at Wed Aug  6 20:06:09 2025, MaxMem=   104857600 cpu:               0.1 elap:               0.1
 (Enter /Applications/g16/l303.exe)
 DipDrv:  MaxL=1.
 Leave Link  303 at Wed Aug  6 20:06:09 2025, MaxMem=   104857600 cpu:               0.0 elap:               0.0
 (Enter /Applications/g16/l401.exe)
 Initial guess from the checkpoint file:  "/Users/srak/g16_scratch/Gau-83439.chk"
 B after Tr=     0.000000   -0.000000    0.000000
         Rot=    0.999999   -0.001607   -0.000075    0.000065 Ang=  -0.18 deg.
 Guess basis will be translated and rotated to current coordinates.
 JPrj=2 DoOrth=T DoCkMO=T.
 Generating alternative initial guess.
 ExpMin= 3.60D-02 ExpMax= 4.17D+03 ExpMxC= 6.27D+02 IAcc=3 IRadAn=         5 AccDes= 0.00D+00
 Harris functional with IExCor= 4639 and IRadAn=       5 diagonalized for initial guess.
 HarFok:  IExCor= 4639 AccDes= 0.00D+00 IRadAn=         5 IDoV= 1 UseB2=F ITyADJ=14
 ICtDFT=  3500011 ScaDFX=  1.000000  1.000000  1.000000  1.000000
 FoFCou: FMM=F IPFlag=           0 FMFlag=      100000 FMFlg1=           0
         NFxFlg=           0 DoJE=T BraDBF=F KetDBF=T FulRan=T
         wScrn=  0.000000 ICntrl=       500 IOpCl=  0 I1Cent=   200000004 NGrid=           0
         NMat0=    1 NMatS0=      1 NMatT0=    0 NMatD0=    1 NMtDS0=    0 NMtDT0=    0
 Petite list used in FoFCou.
 Harris En= -259.808579247140    
 Leave Link  401 at Wed Aug  6 20:06:09 2025, MaxMem=   104857600 cpu:               0.6 elap:               0.6
 (Enter /Applications/g16/l502.exe)
 Keep R1 ints in memory in canonical form, NReq=43174005.
 FoFCou: FMM=F IPFlag=           0 FMFlag=           0 FMFlg1=           0
         NFxFlg=           0 DoJE=F BraDBF=F KetDBF=F FulRan=T
         wScrn=  0.000000 ICntrl=       600 IOpCl=  0 I1Cent=           0 NGrid=           0
         NMat0=    1 NMatS0=   6441 NMatT0=    0 NMatD0=    1 NMtDS0=    0 NMtDT0=    0
 Symmetry not used in FoFCou.
 Two-electron integral symmetry not used.
 Closed shell SCF:
 Using DIIS extrapolation, IDIIS=  1040.
 NGot=   104857600 LenX=    63336875 LenY=    63323665
 Requested convergence on RMS density matrix=1.00D-08 within 128 cycles.
 Requested convergence on MAX density matrix=1.00D-06.
 Requested convergence on             energy=1.00D-06.
 No special actions if energy rises.

 Cycle   1  Pass 1  IDiag  1:
 E= -271.557677590103    
 DIIS: error= 2.83D-03 at cycle   1 NSaved=   1.
 NSaved= 1 IEnMin= 1 EnMin= -271.557677590103     IErMin= 1 ErrMin= 2.83D-03
 ErrMax= 2.83D-03  0.00D+00 EMaxC= 1.00D-01 BMatC= 6.47D-04 BMatP= 6.47D-04
 IDIUse=3 WtCom= 9.72D-01 WtEn= 2.83D-02
 Coeff-Com:  0.100D+01
 Coeff-En:   0.100D+01
 Coeff:      0.100D+01
 Gap=     1.849 Goal=   None    Shift=    0.000
 GapD=    1.849 DampG=2.000 DampE=1.000 DampFc=2.0000 IDamp=-1.
 RMSDP=2.98D-04 MaxDP=1.04D-02              OVMax= 1.28D-02

 Cycle   2  Pass 1  IDiag  1:
 E= -271.558710028054     Delta-E=       -0.001032437951 Rises=F Damp=F
 DIIS: error= 5.40D-04 at cycle   2 NSaved=   2.
 NSaved= 2 IEnMin= 2 EnMin= -271.558710028054     IErMin= 2 ErrMin= 5.40D-04
 ErrMax= 5.40D-04  0.00D+00 EMaxC= 1.00D-01 BMatC= 2.80D-05 BMatP= 6.47D-04
 IDIUse=3 WtCom= 9.95D-01 WtEn= 5.40D-03
 Coeff-Com: -0.187D+00 0.119D+01
 Coeff-En:   0.000D+00 0.100D+01
 Coeff:     -0.186D+00 0.119D+01
 Gap=     0.387 Goal=   None    Shift=    0.000
 RMSDP=9.97D-05 MaxDP=2.83D-03 DE=-1.03D-03 OVMax= 5.07D-03

 Cycle   3  Pass 1  IDiag  1:
 E= -271.558781240158     Delta-E=       -0.000071212104 Rises=F Damp=F
 DIIS: error= 1.77D-04 at cycle   3 NSaved=   3.
 NSaved= 3 IEnMin= 3 EnMin= -271.558781240158     IErMin= 3 ErrMin= 1.77D-04
 ErrMax= 1.77D-04  0.00D+00 EMaxC= 1.00D-01 BMatC= 2.90D-06 BMatP= 2.80D-05
 IDIUse=3 WtCom= 9.98D-01 WtEn= 1.77D-03
 Coeff-Com: -0.469D-01 0.208D+00 0.839D+00
 Coeff-En:   0.000D+00 0.000D+00 0.100D+01
 Coeff:     -0.468D-01 0.208D+00 0.839D+00
 Gap=     0.387 Goal=   None    Shift=    0.000
 RMSDP=2.52D-05 MaxDP=5.66D-04 DE=-7.12D-05 OVMax= 1.10D-03

 Cycle   4  Pass 1  IDiag  1:
 E= -271.558783360282     Delta-E=       -0.000002120124 Rises=F Damp=F
 DIIS: error= 1.69D-04 at cycle   4 NSaved=   4.
 NSaved= 4 IEnMin= 4 EnMin= -271.558783360282     IErMin= 4 ErrMin= 1.69D-04
 ErrMax= 1.69D-04  0.00D+00 EMaxC= 1.00D-01 BMatC= 3.07D-06 BMatP= 2.90D-06
 IDIUse=3 WtCom= 9.98D-01 WtEn= 1.69D-03
 Coeff-Com:  0.102D-01-0.125D+00 0.553D+00 0.561D+00
 Coeff-En:   0.000D+00 0.000D+00 0.262D+00 0.738D+00
 Coeff:      0.102D-01-0.125D+00 0.553D+00 0.562D+00
 Gap=     0.387 Goal=   None    Shift=    0.000
 RMSDP=1.36D-05 MaxDP=3.29D-04 DE=-2.12D-06 OVMax= 5.22D-04

 Cycle   5  Pass 1  IDiag  1:
 E= -271.558786238332     Delta-E=       -0.000002878050 Rises=F Damp=F
 DIIS: error= 2.37D-05 at cycle   5 NSaved=   5.
 NSaved= 5 IEnMin= 5 EnMin= -271.558786238332     IErMin= 5 ErrMin= 2.37D-05
 ErrMax= 2.37D-05  0.00D+00 EMaxC= 1.00D-01 BMatC= 6.28D-08 BMatP= 2.90D-06
 IDIUse=1 WtCom= 1.00D+00 WtEn= 0.00D+00
 Coeff-Com:  0.973D-02-0.655D-01 0.231D-01 0.123D+00 0.909D+00
 Coeff:      0.973D-02-0.655D-01 0.231D-01 0.123D+00 0.909D+00
 Gap=     0.387 Goal=   None    Shift=    0.000
 RMSDP=3.77D-06 MaxDP=6.49D-05 DE=-2.88D-06 OVMax= 2.11D-04

 Cycle   6  Pass 1  IDiag  1:
 E= -271.558786334092     Delta-E=       -0.000000095760 Rises=F Damp=F
 DIIS: error= 6.55D-06 at cycle   6 NSaved=   6.
 NSaved= 6 IEnMin= 6 EnMin= -271.558786334092     IErMin= 6 ErrMin= 6.55D-06
 ErrMax= 6.55D-06  0.00D+00 EMaxC= 1.00D-01 BMatC= 7.05D-09 BMatP= 6.28D-08
 IDIUse=1 WtCom= 1.00D+00 WtEn= 0.00D+00
 Coeff-Com:  0.325D-02-0.189D-01-0.141D-01 0.205D-01 0.326D+00 0.684D+00
 Coeff:      0.325D-02-0.189D-01-0.141D-01 0.205D-01 0.326D+00 0.684D+00
 Gap=     0.387 Goal=   None    Shift=    0.000
 RMSDP=1.05D-06 MaxDP=2.35D-05 DE=-9.58D-08 OVMax= 4.01D-05

 Cycle   7  Pass 1  IDiag  1:
 E= -271.558786338674     Delta-E=       -0.000000004582 Rises=F Damp=F
 DIIS: error= 5.40D-06 at cycle   7 NSaved=   7.
 NSaved= 7 IEnMin= 7 EnMin= -271.558786338674     IErMin= 7 ErrMin= 5.40D-06
 ErrMax= 5.40D-06  0.00D+00 EMaxC= 1.00D-01 BMatC= 3.26D-09 BMatP= 7.05D-09
 IDIUse=1 WtCom= 1.00D+00 WtEn= 0.00D+00
 Coeff-Com: -0.183D-03 0.297D-02-0.108D-01-0.133D-01-0.124D-01 0.418D+00
 Coeff-Com:  0.616D+00
 Coeff:     -0.183D-03 0.297D-02-0.108D-01-0.133D-01-0.124D-01 0.418D+00
 Coeff:      0.616D+00
 Gap=     0.387 Goal=   None    Shift=    0.000
 RMSDP=4.84D-07 MaxDP=1.10D-05 DE=-4.58D-09 OVMax= 2.02D-05

 Cycle   8  Pass 1  IDiag  1:
 E= -271.558786341521     Delta-E=       -0.000000002847 Rises=F Damp=F
 DIIS: error= 7.48D-07 at cycle   8 NSaved=   8.
 NSaved= 8 IEnMin= 8 EnMin= -271.558786341521     IErMin= 8 ErrMin= 7.48D-07
 ErrMax= 7.48D-07  0.00D+00 EMaxC= 1.00D-01 BMatC= 9.27D-11 BMatP= 3.26D-09
 IDIUse=1 WtCom= 1.00D+00 WtEn= 0.00D+00
 Coeff-Com: -0.287D-03 0.229D-02-0.205D-02-0.580D-02-0.317D-01 0.936D-01
 Coeff-Com:  0.220D+00 0.724D+00
 Coeff:     -0.287D-03 0.229D-02-0.205D-02-0.580D-02-0.317D-01 0.936D-01
 Coeff:      0.220D+00 0.724D+00
 Gap=     0.387 Goal=   None    Shift=    0.000
 RMSDP=1.11D-07 MaxDP=2.78D-06 DE=-2.85D-09 OVMax= 2.67D-06

 Cycle   9  Pass 1  IDiag  1:
 E= -271.558786341614     Delta-E=       -0.000000000093 Rises=F Damp=F
 DIIS: error= 1.39D-07 at cycle   9 NSaved=   9.
 NSaved= 9 IEnMin= 9 EnMin= -271.558786341614     IErMin= 9 ErrMin= 1.39D-07
 ErrMax= 1.39D-07  0.00D+00 EMaxC= 1.00D-01 BMatC= 3.83D-12 BMatP= 9.27D-11
 IDIUse=1 WtCom= 1.00D+00 WtEn= 0.00D+00
 Coeff-Com: -0.361D-04 0.153D-03 0.575D-03-0.936D-04-0.648D-02-0.171D-01
 Coeff-Com: -0.521D-02 0.136D+00 0.893D+00
 Coeff:     -0.361D-04 0.153D-03 0.575D-03-0.936D-04-0.648D-02-0.171D-01
 Coeff:     -0.521D-02 0.136D+00 0.893D+00
 Gap=     0.387 Goal=   None    Shift=    0.000
 RMSDP=4.47D-08 MaxDP=1.32D-06 DE=-9.28D-11 OVMax= 1.22D-06

 Cycle  10  Pass 1  IDiag  1:
 E= -271.558786341624     Delta-E=       -0.000000000010 Rises=F Damp=F
 DIIS: error= 3.41D-08 at cycle  10 NSaved=  10.
 NSaved=10 IEnMin=10 EnMin= -271.558786341624     IErMin=10 ErrMin= 3.41D-08
 ErrMax= 3.41D-08  0.00D+00 EMaxC= 1.00D-01 BMatC= 2.28D-13 BMatP= 3.83D-12
 IDIUse=1 WtCom= 1.00D+00 WtEn= 0.00D+00
 Coeff-Com:  0.169D-04-0.155D-03 0.263D-03 0.446D-03 0.134D-02-0.944D-02
 Coeff-Com: -0.173D-01-0.355D-01 0.123D+00 0.937D+00
 Coeff:      0.169D-04-0.155D-03 0.263D-03 0.446D-03 0.134D-02-0.944D-02
 Coeff:     -0.173D-01-0.355D-01 0.123D+00 0.937D+00
 Gap=     0.387 Goal=   None    Shift=    0.000
 RMSDP=1.52D-08 MaxDP=4.43D-07 DE=-1.03D-11 OVMax= 4.56D-07

 Cycle  11  Pass 1  IDiag  1:
 E= -271.558786341624     Delta-E=        0.000000000000 Rises=F Damp=F
 DIIS: error= 1.04D-08 at cycle  11 NSaved=  11.
 NSaved=11 IEnMin=10 EnMin= -271.558786341624     IErMin=11 ErrMin= 1.04D-08
 ErrMax= 1.04D-08  0.00D+00 EMaxC= 1.00D-01 BMatC= 1.69D-14 BMatP= 2.28D-13
 IDIUse=1 WtCom= 1.00D+00 WtEn= 0.00D+00
 Coeff-Com:  0.531D-05-0.341D-04 0.494D-05 0.838D-04 0.722D-03-0.218D-03
 Coeff-Com: -0.231D-02-0.152D-01-0.437D-01 0.134D+00 0.927D+00
 Coeff:      0.531D-05-0.341D-04 0.494D-05 0.838D-04 0.722D-03-0.218D-03
 Coeff:     -0.231D-02-0.152D-01-0.437D-01 0.134D+00 0.927D+00
 Gap=     0.387 Goal=   None    Shift=    0.000
 RMSDP=3.64D-09 MaxDP=8.70D-08 DE= 1.14D-13 OVMax= 1.35D-07

 SCF Done:  E(RwB97XD) =  -271.558786342     A.U. after   11 cycles
            NFock= 11  Conv=0.36D-08     -V/T= 2.0094
 KE= 2.690317550414D+02 PE=-1.014843481049D+03 EE= 2.786751958452D+02
 Leave Link  502 at Wed Aug  6 20:06:17 2025, MaxMem=   104857600 cpu:               7.4 elap:               7.4
 (Enter /Applications/g16/l701.exe)
 ... and contract with generalized density number  0.
 Compute integral first derivatives.
 R6Disp: Adding Grimme-D2 dispersion energy 1st derivatives to the gradient.
 Leave Link  701 at Wed Aug  6 20:06:17 2025, MaxMem=   104857600 cpu:               0.0 elap:               0.0
 (Enter /Applications/g16/l702.exe)
 L702 exits ... SP integral derivatives will be done elsewhere.
 Leave Link  702 at Wed Aug  6 20:06:17 2025, MaxMem=   104857600 cpu:               0.0 elap:               0.0
 (Enter /Applications/g16/l703.exe)
 Integral derivatives from FoFJK, PRISM(SPDF).
 Compute integral first derivatives, UseDBF=F ICtDFT=           0.
 Calling FoFJK, ICntrl=      2127 FMM=F ISym2X=0 I1Cent= 0 IOpClX= 0 NMat=1 NMatS=1 NMatT=0.
 FoFJK:  IHMeth= 1 ICntrl=    2127 DoSepK=T KAlg= 0 I1Cent=           0 FoldK=F
 IRaf=         1 NMat=       1 IRICut=       1 DoRegI=T DoRafI=F ISym2E= 0 IDoP0=0 IntGTp=1.
 FoFCou: FMM=F IPFlag=           0 FMFlag=      100000 FMFlg1=         800
         NFxFlg=           0 DoJE=F BraDBF=F KetDBF=F FulRan=T
         wScrn=  0.000000 ICntrl=      2527 IOpCl=  0 I1Cent=           0 NGrid=           0
         NMat0=    1 NMatS0=      1 NMatT0=    0 NMatD0=    1 NMtDS0=    0 NMtDT0=    0
 Symmetry not used in FoFCou.
 Leave Link  703 at Wed Aug  6 20:06:19 2025, MaxMem=   104857600 cpu:               2.7 elap:               2.7
 (Enter /Applications/g16/l716.exe)
 Dipole        = 7.17691172D+00-6.43596181D-01 6.14876028D-04
 ***** Axes restored to original set *****
 -------------------------------------------------------------------
 Center     Atomic                   Forces (Hartrees/Bohr)
 Number     Number              X              Y              Z
 -------------------------------------------------------------------
      1        7           0.000199819    0.000104285    0.001421239
      2        6          -0.000309464   -0.000322480   -0.003024077
      3        6           0.000165264    0.000651077    0.001558191
      4        6          -0.000399431   -0.000683200   -0.000065728
      5        6           0.000164963    0.000327021    0.000255996
      6        7           0.000293843   -0.000176018   -0.000108660
      7        1           0.000009110    0.000049391   -0.000074590
      8        1           0.000185951    0.000067221    0.000065166
      9        1          -0.000354949    0.000030904   -0.000092824
     10        1           0.000407950   -0.000117471    0.000066628
     11        3          -0.000363057    0.000069270   -0.000001343
 -------------------------------------------------------------------
 Cartesian Forces:  Max     0.003024077 RMS     0.000691121
 Leave Link  716 at Wed Aug  6 20:06:19 2025, MaxMem=   104857600 cpu:               0.0 elap:               0.0
 (Enter /Applications/g16/l103.exe)

 GradGradGradGradGradGradGradGradGradGradGradGradGradGradGradGradGradGrad
 Berny optimization.
 Using GEDIIS/GDIIS optimizer.
 FormGI is forming the generalized inverse of G from B-inverse, IUseBI=4.
 Internal  Forces:  Max     0.002446172 RMS     0.000472343
 Search for a local minimum.
 Step number   6 out of a maximum of   47
 All quantities printed in internal units (Hartrees-Bohrs-Radians)
 RMS Force = .47234D-03 SwitMx=.10000D-02 MixMth= 2
 Mixed Optimization -- En-DIIS/RFO-DIIS
 Swapping is turned off.
 Update second derivatives using D2CorX and points    1    2    4    3    5
                                                      6
 DE=  4.90D-05 DEPred=-3.38D-05 R=-1.45D+00
 Trust test=-1.45D+00 RLast= 6.26D-02 DXMaxT set to 1.27D-01
 ITU= -1  1 -1  1  1  0
     Eigenvalues ---    0.00766   0.02412   0.02568   0.02834   0.04447
     Eigenvalues ---    0.04933   0.05646   0.05698   0.06125   0.06162
     Eigenvalues ---    0.06838   0.08339   0.15707   0.16001   0.16357
     Eigenvalues ---    0.16965   0.21346   0.23404   0.32331   0.34229
     Eigenvalues ---    0.34231   0.34241   0.34377   0.36199   0.36342
     Eigenvalues ---    1.29948   1.30500
 En-DIIS/RFO-DIIS/Sim-DIIS IScMMF=       -3 using points:     6    5
 RFO step:  Lambda=-1.25420960D-04.
 NNeg= 0 NGDIIS= 2 SimSw=  2.50D-03 Rises=T DC=  4.90D-05 SmlDif=  1.00D-05
 NRisDI= 1 DoIntr=F SqrtH=F CThrHd= 10.0 CDAdj=  3.0
 RMS Error=  0.7747825340D-02 NUsed= 2 OKEnD=T EnDIS=T
 InvSVX:  RCond= 4.36D-03 Info=           0 Equed=N FErr=  1.16D-15 BErr=  4.00D-17
 IWarn =    0
 DidBck=T Rises=T En-DIIS coefs:    0.39503    0.60497
 Iteration  1 RMS(Cart)=  0.01091454 RMS(Int)=  0.00023353
 Iteration  2 RMS(Cart)=  0.00025462 RMS(Int)=  0.00000027
 Iteration  3 RMS(Cart)=  0.00000010 RMS(Int)=  0.00000026
 ITry= 1 IFail=0 DXMaxC= 5.34D-02 DCOld= 1.00D+10 DXMaxT= 1.27D-01 DXLimC= 3.00D+00 Rises=F
 Variable       Old X    -DE/DX   Delta X   Delta X   Delta X     New X
                                 (Linear)    (Quad)   (Total)
    R1        2.18465  -0.00020   0.00015  -0.00031  -0.00016   2.18449
    R2        2.76391   0.00003   0.00032  -0.00043  -0.00011   2.76380
    R3        2.92668  -0.00033   0.00129  -0.00237  -0.00108   2.92560
    R4        2.06739   0.00001  -0.00015   0.00029   0.00013   2.06753
    R5        2.06726   0.00018  -0.00007   0.00032   0.00025   2.06751
    R6        2.75903   0.00003  -0.00002   0.00005   0.00003   2.75906
    R7        2.06971   0.00007   0.00006   0.00013   0.00018   2.06989
    R8        2.06973   0.00006   0.00007   0.00009   0.00017   2.06989
    R9        2.18300  -0.00004   0.00005  -0.00003   0.00002   2.18302
   R10        3.72358  -0.00037  -0.00675  -0.00099  -0.00774   3.71584
    A1        1.90854   0.00025  -0.00069   0.00116   0.00047   1.90901
    A2        1.90482  -0.00046  -0.00029  -0.00065  -0.00093   1.90389
    A3        1.90303   0.00031   0.00136  -0.00047   0.00088   1.90392
    A4        1.93081   0.00021  -0.00060   0.00056  -0.00004   1.93077
    A5        1.93111  -0.00034  -0.00076   0.00039  -0.00037   1.93074
    A6        1.88507   0.00002   0.00104  -0.00105  -0.00001   1.88506
    A7        1.95311   0.00016   0.00122  -0.00125  -0.00003   1.95307
    A8        1.93217  -0.00001  -0.00032   0.00067   0.00035   1.93252
    A9        1.93192   0.00018  -0.00018   0.00077   0.00059   1.93252
   A10        1.88330  -0.00007  -0.00052   0.00031  -0.00021   1.88309
   A11        1.88401  -0.00022  -0.00083   0.00020  -0.00063   1.88338
   A12        1.87663  -0.00005   0.00060  -0.00071  -0.00011   1.87652
   A13        3.10365   0.00096   0.00674   0.00295   0.00969   3.11334
   A14        3.14223  -0.00042  -0.00602   0.00651   0.00049   3.14272
   A15        3.18012  -0.00007  -0.00318   0.00261  -0.00057   3.17955
   A16        3.17058  -0.00245  -0.03581  -0.00964  -0.04546   3.12512
   A17        3.14418  -0.00007  -0.00005  -0.00116  -0.00120   3.14298
   A18        3.16980  -0.00002  -0.00065   0.00063  -0.00002   3.16978
    D1        3.14088   0.00019   0.00075   0.00000   0.00075  -3.14155
    D2       -1.04070   0.00020   0.00069   0.00001   0.00070  -1.04000
    D3        1.03855   0.00024   0.00112   0.00006   0.00117   1.03972
    D4       -1.04389  -0.00008  -0.00042   0.00029  -0.00012  -1.04401
    D5        1.05771  -0.00008  -0.00048   0.00031  -0.00018   1.05753
    D6        3.13696  -0.00004  -0.00006   0.00035   0.00029   3.13726
    D7        1.04449  -0.00014  -0.00001  -0.00040  -0.00041   1.04409
    D8       -3.13709  -0.00013  -0.00007  -0.00039  -0.00046  -3.13755
    D9       -1.05784  -0.00009   0.00036  -0.00034   0.00001  -1.05783
         Item               Value     Threshold  Converged?
 Maximum Force            0.002446     0.000450     NO 
 RMS     Force            0.000472     0.000300     NO 
 Maximum Displacement     0.053402     0.001800     NO 
 RMS     Displacement     0.010927     0.001200     NO 
 Predicted change in Energy=-6.285022D-05
 GradGradGradGradGradGradGradGradGradGradGradGradGradGradGradGradGradGrad

 Leave Link  103 at Wed Aug  6 20:06:19 2025, MaxMem=   104857600 cpu:               0.0 elap:               0.0
 (Enter /Applications/g16/l202.exe)
                          Input orientation:                          
 ---------------------------------------------------------------------
 Center     Atomic      Atomic             Coordinates (Angstroms)
 Number     Number       Type             X           Y           Z
 ---------------------------------------------------------------------
      1          7           0       -2.969113    0.265426    0.001512
      2          6           0       -1.889670   -0.148207    0.000079
      3          6           0       -0.508279   -0.628609   -0.000321
      4          6           0        0.456617    0.582083   -0.000336
      5          6           0        1.855426    0.163720   -0.000791
      6          7           0        2.962383   -0.166647    0.000533
      7          1           0        0.292448    1.208590   -0.883686
      8          1           0        0.292658    1.208435    0.883165
      9          1           0       -0.346122   -1.250667   -0.885634
     10          1           0       -0.345682   -1.250958    0.884698
     11          3           0        4.868276   -0.650445    0.001260
 ---------------------------------------------------------------------
                    Distance matrix (angstroms):
                    1          2          3          4          5
     1  N    0.000000
     2  C    1.155980   0.000000
     3  C    2.618207   1.462542   0.000000
     4  C    3.440334   2.457313   1.548160   0.000000
     5  C    4.825611   3.758064   2.492967   1.460033   0.000000
     6  N    5.947212   4.852088   3.501271   2.615237   1.155204
     7  H    3.508691   2.717274   2.190159   1.095340   2.077055
     8  H    3.507951   2.717144   2.190154   1.095341   2.077270
     9  H    3.156841   2.093429   1.094089   2.187948   2.762291
    10  H    3.156236   2.093445   1.094082   2.187924   2.762296
    11  Li   7.890721   6.776583   5.376599   4.580596   3.120918
                    6          7          8          9         10
     6  N    0.000000
     7  H    3.130762   0.000000
     8  H    3.130067   1.766850   0.000000
     9  H    3.592576   2.540811   3.095783   0.000000
    10  H    3.591765   3.095766   2.540884   1.770332   0.000000
    11  Li   1.966339   5.017702   5.016918   5.323232   5.322258
                   11
    11  Li   0.000000
 Stoichiometry    C4H4LiN2(1+)
 Framework group  C1[X(C4H4LiN2)]
 Deg. of freedom    27
 Full point group                 C1      NOp   1
 RotChk:  IX=1 Diff= 6.87D-03
 Largest Abelian subgroup         C1      NOp   1
 Largest concise Abelian subgroup C1      NOp   1
                         Standard orientation:                         
 ---------------------------------------------------------------------
 Center     Atomic      Atomic             Coordinates (Angstroms)
 Number     Number       Type             X           Y           Z
 ---------------------------------------------------------------------
      1          7           0       -3.288503    0.160905    0.001325
      2          6           0       -2.192578   -0.206839   -0.000108
      3          6           0       -0.792156   -0.628561   -0.000508
      4          6           0        0.120825    0.621744   -0.000523
      5          6           0        1.536033    0.262740   -0.000978
      6          7           0        2.655937   -0.020652    0.000346
      7          1           0       -0.069617    1.240770   -0.883873
      8          1           0       -0.069401    1.240624    0.882977
      9          1           0       -0.603912   -1.243228   -0.885821
     10          1           0       -0.603460   -1.243500    0.884511
     11          3           0        4.580536   -0.423648    0.001073
 ---------------------------------------------------------------------
 Rotational constants (GHZ):          23.2935517           1.0217320           0.9908986
 Leave Link  202 at Wed Aug  6 20:06:19 2025, MaxMem=   104857600 cpu:               0.0 elap:               0.0
 (Enter /Applications/g16/l301.exe)
 Standard basis: 6-31G(d) (6D, 7F)
 Ernie: Thresh=  0.10000D-02 Tol=  0.10000D-05 Strict=F.
 There are   113 symmetry adapted cartesian basis functions of A   symmetry.
 There are   113 symmetry adapted basis functions of A   symmetry.
   113 basis functions,   212 primitive gaussians,   113 cartesian basis functions
    22 alpha electrons       22 beta electrons
       nuclear repulsion energy       195.6214125311 Hartrees.
 IExCor= 4639 DFT=T Ex+Corr=wB97XD ExCW=0 ScaHFX=  1.000000
 ScaDFX=  1.000000  1.000000  1.000000  1.000000 ScalE2=  1.000000  1.000000
 IRadAn=      5 IRanWt=     -1 IRanGd=            0 ICorTp=0 IEmpDi=121
 HFx  wShort=  0.000000 wLong=  0.200000 cFull=  0.222036 cShort=  0.000000 cLong=  0.777964
 DFx  wShort=  0.000000 wLong=  0.200000 cFull=  0.000000 cShort=  0.000000 cLong=  1.000000
 NAtoms=   11 NActive=   11 NUniq=   11 SFac= 1.00D+00 NAtFMM=   60 NAOKFM=F Big=F
 Integral buffers will be    131072 words long.
 Raffenetti 2 integral format.
 Two-electron integral symmetry is turned on.
 R6Disp:  Grimme-D2 Dispersion energy=       -0.0046887396 Hartrees.
 Nuclear repulsion after empirical dispersion term =      195.6167237915 Hartrees.
 Leave Link  301 at Wed Aug  6 20:06:19 2025, MaxMem=   104857600 cpu:               0.0 elap:               0.0
 (Enter /Applications/g16/l302.exe)
 NPDir=0 NMtPBC=     1 NCelOv=     1 NCel=       1 NClECP=     1 NCelD=      1
         NCelK=      1 NCelE2=     1 NClLst=     1 CellRange=     0.0.
 One-electron integrals computed using PRISM.
 One-electron integral symmetry used in STVInt
 NBasis=   113 RedAO= T EigKep=  8.74D-04  NBF=   113
 NBsUse=   113 1.00D-06 EigRej= -1.00D+00 NBFU=   113
 Precomputing XC quadrature grid using
 IXCGrd= 4 IRadAn=           5 IRanWt=          -1 IRanGd=           0 AccXCQ= 0.00D+00.
 Generated NRdTot=       0 NPtTot=           0 NUsed=           0 NTot=          32
 NSgBfM=   113   113   113   113   113 MxSgAt=    11 MxSgA2=    11.
 Leave Link  302 at Wed Aug  6 20:06:19 2025, MaxMem=   104857600 cpu:               0.1 elap:               0.1
 (Enter /Applications/g16/l303.exe)
 DipDrv:  MaxL=1.
 Leave Link  303 at Wed Aug  6 20:06:19 2025, MaxMem=   104857600 cpu:               0.0 elap:               0.0
 (Enter /Applications/g16/l401.exe)
 Initial guess from the checkpoint file:  "/Users/srak/g16_scratch/Gau-83439.chk"
 B after Tr=    -0.000000    0.000000   -0.000000
         Rot=    0.999999    0.001150    0.000023   -0.000002 Ang=   0.13 deg.
 Guess basis will be translated and rotated to current coordinates.
 JPrj=2 DoOrth=T DoCkMO=T.
 Generating alternative initial guess.
 ExpMin= 3.60D-02 ExpMax= 4.17D+03 ExpMxC= 6.27D+02 IAcc=3 IRadAn=         5 AccDes= 0.00D+00
 Harris functional with IExCor= 4639 and IRadAn=       5 diagonalized for initial guess.
 HarFok:  IExCor= 4639 AccDes= 0.00D+00 IRadAn=         5 IDoV= 1 UseB2=F ITyADJ=14
 ICtDFT=  3500011 ScaDFX=  1.000000  1.000000  1.000000  1.000000
 FoFCou: FMM=F IPFlag=           0 FMFlag=      100000 FMFlg1=           0
         NFxFlg=           0 DoJE=T BraDBF=F KetDBF=T FulRan=T
         wScrn=  0.000000 ICntrl=       500 IOpCl=  0 I1Cent=   200000004 NGrid=           0
         NMat0=    1 NMatS0=      1 NMatT0=    0 NMatD0=    1 NMtDS0=    0 NMtDT0=    0
 Petite list used in FoFCou.
 Harris En= -259.808552493784    
 Leave Link  401 at Wed Aug  6 20:06:20 2025, MaxMem=   104857600 cpu:               0.6 elap:               0.6
 (Enter /Applications/g16/l502.exe)
 Keep R1 ints in memory in canonical form, NReq=43174005.
 FoFCou: FMM=F IPFlag=           0 FMFlag=           0 FMFlg1=           0
         NFxFlg=           0 DoJE=F BraDBF=F KetDBF=F FulRan=T
         wScrn=  0.000000 ICntrl=       600 IOpCl=  0 I1Cent=           0 NGrid=           0
         NMat0=    1 NMatS0=   6441 NMatT0=    0 NMatD0=    1 NMtDS0=    0 NMtDT0=    0
 Symmetry not used in FoFCou.
 Two-electron integral symmetry not used.
 Closed shell SCF:
 Using DIIS extrapolation, IDIIS=  1040.
 NGot=   104857600 LenX=    63336875 LenY=    63323665
 Requested convergence on RMS density matrix=1.00D-08 within 128 cycles.
 Requested convergence on MAX density matrix=1.00D-06.
 Requested convergence on             energy=1.00D-06.
 No special actions if energy rises.

 Cycle   1  Pass 1  IDiag  1:
 E= -271.558158700604    
 DIIS: error= 2.25D-03 at cycle   1 NSaved=   1.
 NSaved= 1 IEnMin= 1 EnMin= -271.558158700604     IErMin= 1 ErrMin= 2.25D-03
 ErrMax= 2.25D-03  0.00D+00 EMaxC= 1.00D-01 BMatC= 4.03D-04 BMatP= 4.03D-04
 IDIUse=3 WtCom= 9.78D-01 WtEn= 2.25D-02
 Coeff-Com:  0.100D+01
 Coeff-En:   0.100D+01
 Coeff:      0.100D+01
 Gap=     1.846 Goal=   None    Shift=    0.000
 GapD=    1.846 DampG=2.000 DampE=1.000 DampFc=2.0000 IDamp=-1.
 RMSDP=2.33D-04 MaxDP=8.28D-03              OVMax= 1.02D-02

 Cycle   2  Pass 1  IDiag  1:
 E= -271.558799774763     Delta-E=       -0.000641074158 Rises=F Damp=F
 DIIS: error= 4.46D-04 at cycle   2 NSaved=   2.
 NSaved= 2 IEnMin= 2 EnMin= -271.558799774763     IErMin= 2 ErrMin= 4.46D-04
 ErrMax= 4.46D-04  0.00D+00 EMaxC= 1.00D-01 BMatC= 1.73D-05 BMatP= 4.03D-04
 IDIUse=3 WtCom= 9.96D-01 WtEn= 4.46D-03
 Coeff-Com: -0.189D+00 0.119D+01
 Coeff-En:   0.000D+00 0.100D+01
 Coeff:     -0.188D+00 0.119D+01
 Gap=     0.387 Goal=   None    Shift=    0.000
 RMSDP=7.78D-05 MaxDP=2.26D-03 DE=-6.41D-04 OVMax= 4.03D-03

 Cycle   3  Pass 1  IDiag  1:
 E= -271.558844376479     Delta-E=       -0.000044601717 Rises=F Damp=F
 DIIS: error= 1.40D-04 at cycle   3 NSaved=   3.
 NSaved= 3 IEnMin= 3 EnMin= -271.558844376479     IErMin= 3 ErrMin= 1.40D-04
 ErrMax= 1.40D-04  0.00D+00 EMaxC= 1.00D-01 BMatC= 1.29D-06 BMatP= 1.73D-05
 IDIUse=3 WtCom= 9.99D-01 WtEn= 1.40D-03
 Coeff-Com: -0.317D-01 0.112D+00 0.919D+00
 Coeff-En:   0.000D+00 0.000D+00 0.100D+01
 Coeff:     -0.317D-01 0.112D+00 0.919D+00
 Gap=     0.387 Goal=   None    Shift=    0.000
 RMSDP=1.91D-05 MaxDP=3.98D-04 DE=-4.46D-05 OVMax= 9.48D-04

 Cycle   4  Pass 1  IDiag  1:
 E= -271.558845613177     Delta-E=       -0.000001236698 Rises=F Damp=F
 DIIS: error= 1.37D-04 at cycle   4 NSaved=   4.
 NSaved= 4 IEnMin= 4 EnMin= -271.558845613177     IErMin= 4 ErrMin= 1.37D-04
 ErrMax= 1.37D-04  0.00D+00 EMaxC= 1.00D-01 BMatC= 1.56D-06 BMatP= 1.29D-06
 IDIUse=3 WtCom= 4.61D-01 WtEn= 5.39D-01
 Coeff-Com:  0.124D-01-0.135D+00 0.589D+00 0.534D+00
 Coeff-En:   0.000D+00 0.000D+00 0.155D+00 0.845D+00
 Coeff:      0.573D-02-0.623D-01 0.355D+00 0.702D+00
 Gap=     0.387 Goal=   None    Shift=    0.000
 RMSDP=1.27D-05 MaxDP=3.90D-04 DE=-1.24D-06 OVMax= 5.49D-04

 Cycle   5  Pass 1  IDiag  1:
 E= -271.558846477023     Delta-E=       -0.000000863846 Rises=F Damp=F
 DIIS: error= 9.43D-05 at cycle   5 NSaved=   5.
 NSaved= 5 IEnMin= 5 EnMin= -271.558846477023     IErMin= 5 ErrMin= 9.43D-05
 ErrMax= 9.43D-05  0.00D+00 EMaxC= 1.00D-01 BMatC= 7.26D-07 BMatP= 1.29D-06
 IDIUse=1 WtCom= 1.00D+00 WtEn= 0.00D+00
 Coeff-Com:  0.940D-02-0.627D-01-0.830D-01 0.441D+00 0.695D+00
 Coeff:      0.940D-02-0.627D-01-0.830D-01 0.441D+00 0.695D+00
 Gap=     0.387 Goal=   None    Shift=    0.000
 RMSDP=5.75D-06 MaxDP=1.60D-04 DE=-8.64D-07 OVMax= 2.26D-04

 Cycle   6  Pass 1  IDiag  1:
 E= -271.558847107210     Delta-E=       -0.000000630187 Rises=F Damp=F
 DIIS: error= 3.84D-06 at cycle   6 NSaved=   6.
 NSaved= 6 IEnMin= 6 EnMin= -271.558847107210     IErMin= 6 ErrMin= 3.84D-06
 ErrMax= 3.84D-06  0.00D+00 EMaxC= 1.00D-01 BMatC= 1.85D-09 BMatP= 7.26D-07
 IDIUse=1 WtCom= 1.00D+00 WtEn= 0.00D+00
 Coeff-Com:  0.172D-02-0.912D-02-0.358D-01 0.760D-01 0.149D+00 0.818D+00
 Coeff:      0.172D-02-0.912D-02-0.358D-01 0.760D-01 0.149D+00 0.818D+00
 Gap=     0.387 Goal=   None    Shift=    0.000
 RMSDP=6.75D-07 MaxDP=1.49D-05 DE=-6.30D-07 OVMax= 2.56D-05

 Cycle   7  Pass 1  IDiag  1:
 E= -271.558847107795     Delta-E=       -0.000000000585 Rises=F Damp=F
 DIIS: error= 4.37D-06 at cycle   7 NSaved=   7.
 NSaved= 7 IEnMin= 7 EnMin= -271.558847107795     IErMin= 6 ErrMin= 3.84D-06
 ErrMax= 4.37D-06  0.00D+00 EMaxC= 1.00D-01 BMatC= 1.94D-09 BMatP= 1.85D-09
 IDIUse=1 WtCom= 1.00D+00 WtEn= 0.00D+00
 Coeff-Com: -0.455D-03 0.457D-02-0.636D-02-0.275D-01-0.268D-01 0.541D+00
 Coeff-Com:  0.516D+00
 Coeff:     -0.455D-03 0.457D-02-0.636D-02-0.275D-01-0.268D-01 0.541D+00
 Coeff:      0.516D+00
 Gap=     0.387 Goal=   None    Shift=    0.000
 RMSDP=3.48D-07 MaxDP=8.61D-06 DE=-5.85D-10 OVMax= 1.43D-05

 Cycle   8  Pass 1  IDiag  1:
 E= -271.558847109458     Delta-E=       -0.000000001663 Rises=F Damp=F
 DIIS: error= 3.29D-07 at cycle   8 NSaved=   8.
 NSaved= 8 IEnMin= 8 EnMin= -271.558847109458     IErMin= 8 ErrMin= 3.29D-07
 ErrMax= 3.29D-07  0.00D+00 EMaxC= 1.00D-01 BMatC= 1.48D-11 BMatP= 1.85D-09
 IDIUse=1 WtCom= 1.00D+00 WtEn= 0.00D+00
 Coeff-Com: -0.183D-03 0.132D-02 0.214D-02-0.117D-01-0.183D-01 0.490D-01
 Coeff-Com:  0.974D-01 0.880D+00
 Coeff:     -0.183D-03 0.132D-02 0.214D-02-0.117D-01-0.183D-01 0.490D-01
 Coeff:      0.974D-01 0.880D+00
 Gap=     0.387 Goal=   None    Shift=    0.000
 RMSDP=7.27D-08 MaxDP=2.09D-06 DE=-1.66D-09 OVMax= 1.86D-06

 Cycle   9  Pass 1  IDiag  1:
 E= -271.558847109480     Delta-E=       -0.000000000022 Rises=F Damp=F
 DIIS: error= 6.64D-08 at cycle   9 NSaved=   9.
 NSaved= 9 IEnMin= 9 EnMin= -271.558847109480     IErMin= 9 ErrMin= 6.64D-08
 ErrMax= 6.64D-08  0.00D+00 EMaxC= 1.00D-01 BMatC= 8.90D-13 BMatP= 1.48D-11
 IDIUse=1 WtCom= 1.00D+00 WtEn= 0.00D+00
 Coeff-Com: -0.257D-05-0.696D-04 0.924D-03-0.692D-03-0.220D-02-0.236D-01
 Coeff-Com: -0.142D-01 0.146D+00 0.894D+00
 Coeff:     -0.257D-05-0.696D-04 0.924D-03-0.692D-03-0.220D-02-0.236D-01
 Coeff:     -0.142D-01 0.146D+00 0.894D+00
 Gap=     0.387 Goal=   None    Shift=    0.000
 RMSDP=2.54D-08 MaxDP=7.84D-07 DE=-2.23D-11 OVMax= 6.63D-07

 Cycle  10  Pass 1  IDiag  1:
 E= -271.558847109480     Delta-E=        0.000000000001 Rises=F Damp=F
 DIIS: error= 2.74D-08 at cycle  10 NSaved=  10.
 NSaved=10 IEnMin= 9 EnMin= -271.558847109480     IErMin=10 ErrMin= 2.74D-08
 ErrMax= 2.74D-08  0.00D+00 EMaxC= 1.00D-01 BMatC= 1.10D-13 BMatP= 8.90D-13
 IDIUse=1 WtCom= 1.00D+00 WtEn= 0.00D+00
 Coeff-Com:  0.163D-04-0.140D-03 0.843D-04 0.882D-03 0.104D-02-0.107D-01
 Coeff-Com: -0.125D-01-0.408D-01 0.238D+00 0.824D+00
 Coeff:      0.163D-04-0.140D-03 0.843D-04 0.882D-03 0.104D-02-0.107D-01
 Coeff:     -0.125D-01-0.408D-01 0.238D+00 0.824D+00
 Gap=     0.387 Goal=   None    Shift=    0.000
 RMSDP=8.02D-09 MaxDP=2.38D-07 DE= 9.09D-13 OVMax= 2.20D-07

 SCF Done:  E(RwB97XD) =  -271.558847109     A.U. after   10 cycles
            NFock= 10  Conv=0.80D-08     -V/T= 2.0094
 KE= 2.690338408196D+02 PE=-1.014917443431D+03 EE= 2.787080317108D+02
 Leave Link  502 at Wed Aug  6 20:06:27 2025, MaxMem=   104857600 cpu:               6.6 elap:               6.6
 (Enter /Applications/g16/l701.exe)
 ... and contract with generalized density number  0.
 Compute integral first derivatives.
 R6Disp: Adding Grimme-D2 dispersion energy 1st derivatives to the gradient.
 Leave Link  701 at Wed Aug  6 20:06:27 2025, MaxMem=   104857600 cpu:               0.0 elap:               0.0
 (Enter /Applications/g16/l702.exe)
 L702 exits ... SP integral derivatives will be done elsewhere.
 Leave Link  702 at Wed Aug  6 20:06:27 2025, MaxMem=   104857600 cpu:               0.0 elap:               0.0
 (Enter /Applications/g16/l703.exe)
 Integral derivatives from FoFJK, PRISM(SPDF).
 Compute integral first derivatives, UseDBF=F ICtDFT=           0.
 Calling FoFJK, ICntrl=      2127 FMM=F ISym2X=0 I1Cent= 0 IOpClX= 0 NMat=1 NMatS=1 NMatT=0.
 FoFJK:  IHMeth= 1 ICntrl=    2127 DoSepK=T KAlg= 0 I1Cent=           0 FoldK=F
 IRaf=         1 NMat=       1 IRICut=       1 DoRegI=T DoRafI=F ISym2E= 0 IDoP0=0 IntGTp=1.
 FoFCou: FMM=F IPFlag=           0 FMFlag=      100000 FMFlg1=         800
         NFxFlg=           0 DoJE=F BraDBF=F KetDBF=F FulRan=T
         wScrn=  0.000000 ICntrl=      2527 IOpCl=  0 I1Cent=           0 NGrid=           0
         NMat0=    1 NMatS0=      1 NMatT0=    0 NMatD0=    1 NMtDS0=    0 NMtDT0=    0
 Symmetry not used in FoFCou.
 Leave Link  703 at Wed Aug  6 20:06:29 2025, MaxMem=   104857600 cpu:               2.6 elap:               2.6
 (Enter /Applications/g16/l716.exe)
 Dipole        = 7.16786879D+00-6.42279394D-01-9.62093956D-05
 ***** Axes restored to original set *****
 -------------------------------------------------------------------
 Center     Atomic                   Forces (Hartrees/Bohr)
 Number     Number              X              Y              Z
 -------------------------------------------------------------------
      1        7           0.000011871   -0.000064421   -0.000036275
      2        6          -0.000020546    0.000091164    0.000076984
      3        6          -0.000019621    0.000179705   -0.000046731
      4        6          -0.000259083   -0.000400302   -0.000094033
      5        6           0.000194293    0.000369809    0.000159402
      6        7          -0.000091157   -0.000111334   -0.000072656
      7        1           0.000042692    0.000028603   -0.000025962
      8        1           0.000093505    0.000019223    0.000032422
      9        1           0.000026791   -0.000043802   -0.000011685
     10        1           0.000010210   -0.000043289    0.000017213
     11        3           0.000011043   -0.000025354    0.000001322
 -------------------------------------------------------------------
 Cartesian Forces:  Max     0.000400302 RMS     0.000127509
 Leave Link  716 at Wed Aug  6 20:06:29 2025, MaxMem=   104857600 cpu:               0.0 elap:               0.0
 (Enter /Applications/g16/l103.exe)

 GradGradGradGradGradGradGradGradGradGradGradGradGradGradGradGradGradGrad
 Berny optimization.
 Using GEDIIS/GDIIS optimizer.
 FormGI is forming the generalized inverse of G from B-inverse, IUseBI=4.
 Internal  Forces:  Max     0.000440063 RMS     0.000090586
 Search for a local minimum.
 Step number   7 out of a maximum of   47
 All quantities printed in internal units (Hartrees-Bohrs-Radians)
 RMS Force = .90586D-04 SwitMx=.10000D-02 MixMth= 2
 Mixed Optimization -- En-DIIS/RFO-DIIS
 Swapping is turned off.
 Update second derivatives using D2CorX and points    1    2    4    3    5
                                                      6    7
 DE= -6.08D-05 DEPred=-6.29D-05 R= 9.67D-01
 TightC=F SS=  1.41D+00  RLast= 4.72D-02 DXNew= 2.1385D-01 1.4165D-01
 Trust test= 9.67D-01 RLast= 4.72D-02 DXMaxT set to 1.42D-01
 ITU=  1 -1  1 -1  1  1  0
     Eigenvalues ---    0.00766   0.02567   0.02578   0.04824   0.04930
     Eigenvalues ---    0.05688   0.05710   0.06051   0.06129   0.06370
     Eigenvalues ---    0.07248   0.08287   0.14618   0.15999   0.16285
     Eigenvalues ---    0.16371   0.20750   0.23621   0.30526   0.34229
     Eigenvalues ---    0.34230   0.34241   0.34317   0.36190   0.36428
     Eigenvalues ---    1.29925   1.30355
 En-DIIS/RFO-DIIS/Sim-DIIS IScMMF=       -3 using points:     7    6    5
 RFO step:  Lambda=-3.50121338D-06.
 NNeg= 0 NGDIIS= 3 SimSw=  2.50D-03 Rises=F DC= -6.08D-05 SmlDif=  1.00D-05
 NRisDI= 0 DoIntr=F SqrtH=F CThrHd= 10.0 CDAdj=  3.0
 RMS Error=  0.1150488214D-02 NUsed= 3 OKEnD=T EnDIS=F
 InvSVX:  RCond= 8.16D-05 Info=           0 Equed=N FErr=  3.91D-15 BErr=  9.49D-17
 DidBck=T Rises=F RFO-DIIS coefs:    0.53568    0.13200    0.33232
 Iteration  1 RMS(Cart)=  0.00361038 RMS(Int)=  0.00000636
 Iteration  2 RMS(Cart)=  0.00000857 RMS(Int)=  0.00000013
 Iteration  3 RMS(Cart)=  0.00000000 RMS(Int)=  0.00000013
 ITry= 1 IFail=0 DXMaxC= 1.33D-02 DCOld= 1.00D+10 DXMaxT= 1.42D-01 DXLimC= 3.00D+00 Rises=F
 Variable       Old X    -DE/DX   Delta X   Delta X   Delta X     New X
                                 (Linear)    (Quad)   (Total)
    R1        2.18449  -0.00003   0.00016  -0.00022  -0.00006   2.18442
    R2        2.76380   0.00002   0.00022  -0.00026  -0.00003   2.76377
    R3        2.92560  -0.00010   0.00121  -0.00183  -0.00062   2.92498
    R4        2.06753   0.00004  -0.00015   0.00025   0.00011   2.06763
    R5        2.06751   0.00004  -0.00015   0.00027   0.00011   2.06763
    R6        2.75906   0.00004  -0.00003   0.00012   0.00009   2.75916
    R7        2.06989   0.00003  -0.00005   0.00012   0.00007   2.06996
    R8        2.06989   0.00002  -0.00004   0.00009   0.00005   2.06994
    R9        2.18302  -0.00004   0.00002  -0.00004  -0.00002   2.18300
   R10        3.71584   0.00002  -0.00012  -0.00013  -0.00024   3.71560
    A1        1.90901   0.00005  -0.00060   0.00102   0.00043   1.90943
    A2        1.90389  -0.00000   0.00028  -0.00031  -0.00003   1.90386
    A3        1.90392  -0.00002   0.00034  -0.00046  -0.00012   1.90379
    A4        1.93077  -0.00001  -0.00031   0.00035   0.00004   1.93080
    A5        1.93074   0.00001  -0.00025   0.00027   0.00002   1.93076
    A6        1.88506  -0.00002   0.00058  -0.00092  -0.00035   1.88471
    A7        1.95307   0.00017   0.00068  -0.00044   0.00024   1.95332
    A8        1.93252   0.00002  -0.00034   0.00060   0.00026   1.93278
    A9        1.93252   0.00005  -0.00037   0.00067   0.00030   1.93282
   A10        1.88309  -0.00009  -0.00019   0.00001  -0.00017   1.88291
   A11        1.88338  -0.00014  -0.00016  -0.00041  -0.00057   1.88281
   A12        1.87652  -0.00003   0.00038  -0.00048  -0.00010   1.87642
   A13        3.11334   0.00008  -0.00080   0.00203   0.00123   3.11457
   A14        3.14272  -0.00044  -0.00353  -0.00109  -0.00462   3.13810
   A15        3.17955  -0.00007  -0.00148   0.00008  -0.00140   3.17816
   A16        3.12512   0.00010   0.00143   0.00053   0.00196   3.12708
   A17        3.14298   0.00002   0.00053  -0.00039   0.00014   3.14312
   A18        3.16978  -0.00002  -0.00035   0.00002  -0.00032   3.16946
    D1       -3.14155  -0.00002   0.00006  -0.00030  -0.00024   3.14140
    D2       -1.04000  -0.00001   0.00005  -0.00017  -0.00012  -1.04012
    D3        1.03972   0.00001   0.00007   0.00005   0.00012   1.03984
    D4       -1.04401   0.00000  -0.00017   0.00019   0.00002  -1.04399
    D5        1.05753   0.00002  -0.00018   0.00033   0.00014   1.05768
    D6        3.13726   0.00003  -0.00017   0.00055   0.00038   3.13764
    D7        1.04409  -0.00003   0.00019  -0.00056  -0.00037   1.04371
    D8       -3.13755  -0.00001   0.00017  -0.00043  -0.00025  -3.13780
    D9       -1.05783   0.00000   0.00019  -0.00020  -0.00002  -1.05784
         Item               Value     Threshold  Converged?
 Maximum Force            0.000440     0.000450     YES
 RMS     Force            0.000091     0.000300     YES
 Maximum Displacement     0.013319     0.001800     NO 
 RMS     Displacement     0.003612     0.001200     NO 
 Predicted change in Energy=-1.657158D-06
 Lowest energy point so far.  Saving SCF results.
 GradGradGradGradGradGradGradGradGradGradGradGradGradGradGradGradGradGrad

 Leave Link  103 at Wed Aug  6 20:06:29 2025, MaxMem=   104857600 cpu:               0.0 elap:               0.0
 (Enter /Applications/g16/l202.exe)
                          Input orientation:                          
 ---------------------------------------------------------------------
 Center     Atomic      Atomic             Coordinates (Angstroms)
 Number     Number       Type             X           Y           Z
 ---------------------------------------------------------------------
      1          7           0       -2.969964    0.260456   -0.000126
      2          6           0       -1.889151   -0.149488   -0.000053
      3          6           0       -0.506993   -0.627625   -0.000004
      4          6           0        0.456236    0.583977    0.000107
      5          6           0        1.855698    0.167629    0.000422
      6          7           0        2.961711   -0.165848    0.000303
      7          1           0        0.291840    1.210309   -0.883370
      8          1           0        0.291586    1.210390    0.883469
      9          1           0       -0.343675   -1.249794   -0.885095
     10          1           0       -0.343809   -1.249793    0.885109
     11          3           0        4.865461   -0.657493   -0.000281
 ---------------------------------------------------------------------
                    Distance matrix (angstroms):
                    1          2          3          4          5
     1  N    0.000000
     2  C    1.155946   0.000000
     3  C    2.618189   1.462524   0.000000
     4  C    3.441441   2.457399   1.547834   0.000000
     5  C    4.826555   3.758252   2.492938   1.460082   0.000000
     6  N    5.946975   4.850890   3.499307   2.615271   1.155193
     7  H    3.510229   2.717723   2.190085   1.095377   2.076998
     8  H    3.510103   2.717626   2.190103   1.095367   2.076913
     9  H    3.156172   2.093435   1.094145   2.187729   2.762331
    10  H    3.156134   2.093386   1.094142   2.187695   2.762171
    11  Li   7.889013   6.773689   5.372537   4.580668   3.120817
                    6          7          8          9         10
     6  N    0.000000
     7  H    3.130958   0.000000
     8  H    3.131067   1.766838   0.000000
     9  H    3.589491   2.540864   3.095784   0.000000
    10  H    3.589468   3.095750   2.540911   1.770204   0.000000
    11  Li   1.966209   5.018620   5.018997   5.316843   5.317070
                   11
    11  Li   0.000000
 Stoichiometry    C4H4LiN2(1+)
 Framework group  C1[X(C4H4LiN2)]
 Deg. of freedom    27
 Full point group                 C1      NOp   1
 RotChk:  IX=1 Diff= 4.23D-04
 Largest Abelian subgroup         C1      NOp   1
 Largest concise Abelian subgroup C1      NOp   1
                         Standard orientation:                         
 ---------------------------------------------------------------------
 Center     Atomic      Atomic             Coordinates (Angstroms)
 Number     Number       Type             X           Y           Z
 ---------------------------------------------------------------------
      1          7           0       -3.288969    0.157150   -0.000200
      2          6           0       -2.191938   -0.207179   -0.000128
      3          6           0       -0.790972   -0.627024   -0.000079
      4          6           0        0.120681    0.623847    0.000033
      5          6           0        1.536349    0.266462    0.000348
      6          7           0        2.655355   -0.020412    0.000229
      7          1           0       -0.069797    1.242747   -0.883444
      8          1           0       -0.070054    1.242816    0.883395
      9          1           0       -0.601746   -1.241809   -0.885169
     10          1           0       -0.601880   -1.241813    0.885035
     11          3           0        4.578021   -0.431913   -0.000355
 ---------------------------------------------------------------------
 Rotational constants (GHZ):          23.2206171           1.0221670           0.9911741
 Leave Link  202 at Wed Aug  6 20:06:29 2025, MaxMem=   104857600 cpu:               0.0 elap:               0.0
 (Enter /Applications/g16/l301.exe)
 Standard basis: 6-31G(d) (6D, 7F)
 Ernie: Thresh=  0.10000D-02 Tol=  0.10000D-05 Strict=F.
 There are   113 symmetry adapted cartesian basis functions of A   symmetry.
 There are   113 symmetry adapted basis functions of A   symmetry.
   113 basis functions,   212 primitive gaussians,   113 cartesian basis functions
    22 alpha electrons       22 beta electrons
       nuclear repulsion energy       195.6291901054 Hartrees.
 IExCor= 4639 DFT=T Ex+Corr=wB97XD ExCW=0 ScaHFX=  1.000000
 ScaDFX=  1.000000  1.000000  1.000000  1.000000 ScalE2=  1.000000  1.000000
 IRadAn=      5 IRanWt=     -1 IRanGd=            0 ICorTp=0 IEmpDi=121
 HFx  wShort=  0.000000 wLong=  0.200000 cFull=  0.222036 cShort=  0.000000 cLong=  0.777964
 DFx  wShort=  0.000000 wLong=  0.200000 cFull=  0.000000 cShort=  0.000000 cLong=  1.000000
 NAtoms=   11 NActive=   11 NUniq=   11 SFac= 1.00D+00 NAtFMM=   60 NAOKFM=F Big=F
 Integral buffers will be    131072 words long.
 Raffenetti 2 integral format.
 Two-electron integral symmetry is turned on.
 R6Disp:  Grimme-D2 Dispersion energy=       -0.0046889685 Hartrees.
 Nuclear repulsion after empirical dispersion term =      195.6245011369 Hartrees.
 Leave Link  301 at Wed Aug  6 20:06:29 2025, MaxMem=   104857600 cpu:               0.0 elap:               0.0
 (Enter /Applications/g16/l302.exe)
 NPDir=0 NMtPBC=     1 NCelOv=     1 NCel=       1 NClECP=     1 NCelD=      1
         NCelK=      1 NCelE2=     1 NClLst=     1 CellRange=     0.0.
 One-electron integrals computed using PRISM.
 One-electron integral symmetry used in STVInt
 NBasis=   113 RedAO= T EigKep=  8.75D-04  NBF=   113
 NBsUse=   113 1.00D-06 EigRej= -1.00D+00 NBFU=   113
 Precomputing XC quadrature grid using
 IXCGrd= 4 IRadAn=           5 IRanWt=          -1 IRanGd=           0 AccXCQ= 0.00D+00.
 Generated NRdTot=       0 NPtTot=           0 NUsed=           0 NTot=          32
 NSgBfM=   113   113   113   113   113 MxSgAt=    11 MxSgA2=    11.
 Leave Link  302 at Wed Aug  6 20:06:29 2025, MaxMem=   104857600 cpu:               0.1 elap:               0.1
 (Enter /Applications/g16/l303.exe)
 DipDrv:  MaxL=1.
 Leave Link  303 at Wed Aug  6 20:06:29 2025, MaxMem=   104857600 cpu:               0.0 elap:               0.0
 (Enter /Applications/g16/l401.exe)
 Initial guess from the checkpoint file:  "/Users/srak/g16_scratch/Gau-83439.chk"
 B after Tr=     0.000000    0.000000   -0.000000
         Rot=    1.000000   -0.000063    0.000051   -0.000033 Ang=  -0.01 deg.
 Guess basis will be translated and rotated to current coordinates.
 JPrj=2 DoOrth=T DoCkMO=T.
 Leave Link  401 at Wed Aug  6 20:06:29 2025, MaxMem=   104857600 cpu:               0.0 elap:               0.0
 (Enter /Applications/g16/l502.exe)
 Keep R1 ints in memory in canonical form, NReq=43174005.
 FoFCou: FMM=F IPFlag=           0 FMFlag=           0 FMFlg1=           0
         NFxFlg=           0 DoJE=F BraDBF=F KetDBF=F FulRan=T
         wScrn=  0.000000 ICntrl=       600 IOpCl=  0 I1Cent=           0 NGrid=           0
         NMat0=    1 NMatS0=   6441 NMatT0=    0 NMatD0=    1 NMtDS0=    0 NMtDT0=    0
 Symmetry not used in FoFCou.
 Two-electron integral symmetry not used.
 Closed shell SCF:
 Using DIIS extrapolation, IDIIS=  1040.
 NGot=   104857600 LenX=    63336875 LenY=    63323665
 Requested convergence on RMS density matrix=1.00D-08 within 128 cycles.
 Requested convergence on MAX density matrix=1.00D-06.
 Requested convergence on             energy=1.00D-06.
 No special actions if energy rises.

 Cycle   1  Pass 1  IDiag  1:
 E= -271.558833399540    
 DIIS: error= 2.24D-04 at cycle   1 NSaved=   1.
 NSaved= 1 IEnMin= 1 EnMin= -271.558833399540     IErMin= 1 ErrMin= 2.24D-04
 ErrMax= 2.24D-04  0.00D+00 EMaxC= 1.00D-01 BMatC= 9.04D-06 BMatP= 9.04D-06
 IDIUse=3 WtCom= 9.98D-01 WtEn= 2.24D-03
 Coeff-Com:  0.100D+01
 Coeff-En:   0.100D+01
 Coeff:      0.100D+01
 Gap=     1.845 Goal=   None    Shift=    0.000
 RMSDP=3.66D-05 MaxDP=7.25D-04              OVMax= 1.08D-03

 Cycle   2  Pass 1  IDiag  1:
 E= -271.558847434675     Delta-E=       -0.000014035134 Rises=F Damp=F
 DIIS: error= 5.38D-05 at cycle   2 NSaved=   2.
 NSaved= 2 IEnMin= 2 EnMin= -271.558847434675     IErMin= 2 ErrMin= 5.38D-05
 ErrMax= 5.38D-05  0.00D+00 EMaxC= 1.00D-01 BMatC= 3.67D-07 BMatP= 9.04D-06
 IDIUse=1 WtCom= 1.00D+00 WtEn= 0.00D+00
 Coeff-Com: -0.181D+00 0.118D+01
 Coeff:     -0.181D+00 0.118D+01
 Gap=     0.387 Goal=   None    Shift=    0.000
 RMSDP=1.05D-05 MaxDP=1.95D-04 DE=-1.40D-05 OVMax= 4.21D-04

 Cycle   3  Pass 1  IDiag  1:
 E= -271.558848338509     Delta-E=       -0.000000903835 Rises=F Damp=F
 DIIS: error= 1.06D-05 at cycle   3 NSaved=   3.
 NSaved= 3 IEnMin= 3 EnMin= -271.558848338509     IErMin= 3 ErrMin= 1.06D-05
 ErrMax= 1.06D-05  0.00D+00 EMaxC= 1.00D-01 BMatC= 1.38D-08 BMatP= 3.67D-07
 IDIUse=1 WtCom= 1.00D+00 WtEn= 0.00D+00
 Coeff-Com: -0.144D-01 0.278D-02 0.101D+01
 Coeff:     -0.144D-01 0.278D-02 0.101D+01
 Gap=     0.387 Goal=   None    Shift=    0.000
 RMSDP=2.12D-06 MaxDP=3.04D-05 DE=-9.04D-07 OVMax= 1.12D-04

 Cycle   4  Pass 1  IDiag  1:
 E= -271.558848373969     Delta-E=       -0.000000035460 Rises=F Damp=F
 DIIS: error= 5.90D-06 at cycle   4 NSaved=   4.
 NSaved= 4 IEnMin= 4 EnMin= -271.558848373969     IErMin= 4 ErrMin= 5.90D-06
 ErrMax= 5.90D-06  0.00D+00 EMaxC= 1.00D-01 BMatC= 5.21D-09 BMatP= 1.38D-08
 IDIUse=1 WtCom= 1.00D+00 WtEn= 0.00D+00
 Coeff-Com:  0.101D-01-0.988D-01 0.346D+00 0.742D+00
 Coeff:      0.101D-01-0.988D-01 0.346D+00 0.742D+00
 Gap=     0.387 Goal=   None    Shift=    0.000
 RMSDP=8.64D-07 MaxDP=1.72D-05 DE=-3.55D-08 OVMax= 3.10D-05

 Cycle   5  Pass 1  IDiag  1:
 E= -271.558848378716     Delta-E=       -0.000000004747 Rises=F Damp=F
 DIIS: error= 4.32D-06 at cycle   5 NSaved=   5.
 NSaved= 5 IEnMin= 5 EnMin= -271.558848378716     IErMin= 5 ErrMin= 4.32D-06
 ErrMax= 4.32D-06  0.00D+00 EMaxC= 1.00D-01 BMatC= 2.37D-09 BMatP= 5.21D-09
 IDIUse=1 WtCom= 1.00D+00 WtEn= 0.00D+00
 Coeff-Com:  0.962D-02-0.667D-01 0.281D-01 0.458D+00 0.571D+00
 Coeff:      0.962D-02-0.667D-01 0.281D-01 0.458D+00 0.571D+00
 Gap=     0.387 Goal=   None    Shift=    0.000
 RMSDP=3.83D-07 MaxDP=8.73D-06 DE=-4.75D-09 OVMax= 1.29D-05

 Cycle   6  Pass 1  IDiag  1:
 E= -271.558848380912     Delta-E=       -0.000000002196 Rises=F Damp=F
 DIIS: error= 4.66D-07 at cycle   6 NSaved=   6.
 NSaved= 6 IEnMin= 6 EnMin= -271.558848380912     IErMin= 6 ErrMin= 4.66D-07
 ErrMax= 4.66D-07  0.00D+00 EMaxC= 1.00D-01 BMatC= 3.63D-11 BMatP= 2.37D-09
 IDIUse=1 WtCom= 1.00D+00 WtEn= 0.00D+00
 Coeff-Com:  0.898D-03-0.345D-02-0.215D-01 0.954D-02 0.928D-01 0.922D+00
 Coeff:      0.898D-03-0.345D-02-0.215D-01 0.954D-02 0.928D-01 0.922D+00
 Gap=     0.387 Goal=   None    Shift=    0.000
 RMSDP=9.72D-08 MaxDP=1.37D-06 DE=-2.20D-09 OVMax= 4.16D-06

 Cycle   7  Pass 1  IDiag  1:
 E= -271.558848380962     Delta-E=       -0.000000000050 Rises=F Damp=F
 DIIS: error= 1.77D-07 at cycle   7 NSaved=   7.
 NSaved= 7 IEnMin= 7 EnMin= -271.558848380962     IErMin= 7 ErrMin= 1.77D-07
 ErrMax= 1.77D-07  0.00D+00 EMaxC= 1.00D-01 BMatC= 6.27D-12 BMatP= 3.63D-11
 IDIUse=1 WtCom= 1.00D+00 WtEn= 0.00D+00
 Coeff-Com: -0.544D-03 0.476D-02-0.866D-02-0.387D-01-0.215D-01 0.327D+00
 Coeff-Com:  0.738D+00
 Coeff:     -0.544D-03 0.476D-02-0.866D-02-0.387D-01-0.215D-01 0.327D+00
 Coeff:      0.738D+00
 Gap=     0.387 Goal=   None    Shift=    0.000
 RMSDP=2.95D-08 MaxDP=4.70D-07 DE=-4.99D-11 OVMax= 9.50D-07

 Cycle   8  Pass 1  IDiag  1:
 E= -271.558848380970     Delta-E=       -0.000000000008 Rises=F Damp=F
 DIIS: error= 5.75D-08 at cycle   8 NSaved=   8.
 NSaved= 8 IEnMin= 8 EnMin= -271.558848380970     IErMin= 8 ErrMin= 5.75D-08
 ErrMax= 5.75D-08  0.00D+00 EMaxC= 1.00D-01 BMatC= 4.33D-13 BMatP= 6.27D-12
 IDIUse=1 WtCom= 1.00D+00 WtEn= 0.00D+00
 Coeff-Com: -0.217D-03 0.169D-02-0.174D-02-0.135D-01-0.118D-01 0.624D-01
 Coeff-Com:  0.248D+00 0.716D+00
 Coeff:     -0.217D-03 0.169D-02-0.174D-02-0.135D-01-0.118D-01 0.624D-01
 Coeff:      0.248D+00 0.716D+00
 Gap=     0.387 Goal=   None    Shift=    0.000
 RMSDP=9.50D-09 MaxDP=1.90D-07 DE=-7.62D-12 OVMax= 3.03D-07

 SCF Done:  E(RwB97XD) =  -271.558848381     A.U. after    8 cycles
            NFock=  8  Conv=0.95D-08     -V/T= 2.0094
 KE= 2.690342097669D+02 PE=-1.014932466355D+03 EE= 2.787149070705D+02
 Leave Link  502 at Wed Aug  6 20:06:35 2025, MaxMem=   104857600 cpu:               5.4 elap:               5.4
 (Enter /Applications/g16/l701.exe)
 ... and contract with generalized density number  0.
 Compute integral first derivatives.
 R6Disp: Adding Grimme-D2 dispersion energy 1st derivatives to the gradient.
 Leave Link  701 at Wed Aug  6 20:06:35 2025, MaxMem=   104857600 cpu:               0.0 elap:               0.0
 (Enter /Applications/g16/l702.exe)
 L702 exits ... SP integral derivatives will be done elsewhere.
 Leave Link  702 at Wed Aug  6 20:06:35 2025, MaxMem=   104857600 cpu:               0.0 elap:               0.0
 (Enter /Applications/g16/l703.exe)
 Integral derivatives from FoFJK, PRISM(SPDF).
 Compute integral first derivatives, UseDBF=F ICtDFT=           0.
 Calling FoFJK, ICntrl=      2127 FMM=F ISym2X=0 I1Cent= 0 IOpClX= 0 NMat=1 NMatS=1 NMatT=0.
 FoFJK:  IHMeth= 1 ICntrl=    2127 DoSepK=T KAlg= 0 I1Cent=           0 FoldK=F
 IRaf=         1 NMat=       1 IRICut=       1 DoRegI=T DoRafI=F ISym2E= 0 IDoP0=0 IntGTp=1.
 FoFCou: FMM=F IPFlag=           0 FMFlag=      100000 FMFlg1=         800
         NFxFlg=           0 DoJE=F BraDBF=F KetDBF=F FulRan=T
         wScrn=  0.000000 ICntrl=      2527 IOpCl=  0 I1Cent=           0 NGrid=           0
         NMat0=    1 NMatS0=      1 NMatT0=    0 NMatD0=    1 NMtDS0=    0 NMtDT0=    0
 Symmetry not used in FoFCou.
 Leave Link  703 at Wed Aug  6 20:06:38 2025, MaxMem=   104857600 cpu:               2.6 elap:               2.6
 (Enter /Applications/g16/l716.exe)
 Dipole        = 7.16486647D+00-6.50920659D-01-5.68695498D-04
 ***** Axes restored to original set *****
 -------------------------------------------------------------------
 Center     Atomic                   Forces (Hartrees/Bohr)
 Number     Number              X              Y              Z
 -------------------------------------------------------------------
      1        7          -0.000040042    0.000013052    0.000001572
      2        6           0.000022630   -0.000010875   -0.000007143
      3        6          -0.000002133    0.000010539    0.000010525
      4        6          -0.000051998   -0.000031799    0.000014509
      5        6           0.000026612   -0.000025698   -0.000037695
      6        7          -0.000024961    0.000027352    0.000011492
      7        1           0.000026674    0.000020746   -0.000003650
      8        1           0.000009284    0.000024184    0.000007764
      9        1           0.000002928   -0.000007424   -0.000001821
     10        1           0.000004508   -0.000012935    0.000002230
     11        3           0.000026498   -0.000007141    0.000002217
 -------------------------------------------------------------------
 Cartesian Forces:  Max     0.000051998 RMS     0.000020454
 Leave Link  716 at Wed Aug  6 20:06:38 2025, MaxMem=   104857600 cpu:               0.0 elap:               0.0
 (Enter /Applications/g16/l103.exe)

 GradGradGradGradGradGradGradGradGradGradGradGradGradGradGradGradGradGrad
 Berny optimization.
 Using GEDIIS/GDIIS optimizer.
 FormGI is forming the generalized inverse of G from B-inverse, IUseBI=4.
 Internal  Forces:  Max     0.000054775 RMS     0.000018136
 Search for a local minimum.
 Step number   8 out of a maximum of   47
 All quantities printed in internal units (Hartrees-Bohrs-Radians)
 RMS Force = .18136D-04 SwitMx=.10000D-02 MixMth= 2
 Mixed Optimization -- En-DIIS/RFO-DIIS
 Swapping is turned off.
 Update second derivatives using D2CorX and points    1    2    4    3    5
                                                      6    7    8
 DE= -1.27D-06 DEPred=-1.66D-06 R= 7.67D-01
 TightC=F SS=  1.41D+00  RLast= 5.53D-03 DXNew= 2.3823D-01 1.6605D-02
 Trust test= 7.67D-01 RLast= 5.53D-03 DXMaxT set to 1.42D-01
 ITU=  1  1 -1  1 -1  1  1  0
     Eigenvalues ---    0.00766   0.02566   0.02586   0.04838   0.04928
     Eigenvalues ---    0.05685   0.05774   0.06029   0.06151   0.06438
     Eigenvalues ---    0.08053   0.10052   0.14534   0.15950   0.16110
     Eigenvalues ---    0.16385   0.21303   0.23663   0.31351   0.34219
     Eigenvalues ---    0.34234   0.34241   0.34359   0.36176   0.36356
     Eigenvalues ---    1.29932   1.30464
 En-DIIS/RFO-DIIS/Sim-DIIS IScMMF=       -3 using points:     8    7    6    5
 RFO step:  Lambda=-8.24695142D-08.
 NNeg= 0 NGDIIS= 4 SimSw=  2.50D-03 Rises=F DC= -1.27D-06 SmlDif=  1.00D-05
 NRisDI= 0 DoIntr=F SqrtH=F CThrHd= 10.0 CDAdj=  3.0
 RMS Error=  0.1564509802D-03 NUsed= 4 OKEnD=F EnDIS=F
 InvSVX:  RCond= 1.77D-06 Info=           0 Equed=N FErr=  1.78D-15 BErr=  8.51D-17
 DidBck=F Rises=F RFO-DIIS coefs:    0.94740    0.06210    0.00007   -0.00957
 Iteration  1 RMS(Cart)=  0.00038966 RMS(Int)=  0.00000008
 Iteration  2 RMS(Cart)=  0.00000015 RMS(Int)=  0.00000001
 ITry= 1 IFail=0 DXMaxC= 1.06D-03 DCOld= 1.00D+10 DXMaxT= 1.42D-01 DXLimC= 3.00D+00 Rises=F
 Variable       Old X    -DE/DX   Delta X   Delta X   Delta X     New X
                                 (Linear)    (Quad)   (Total)
    R1        2.18442   0.00004  -0.00000   0.00003   0.00003   2.18445
    R2        2.76377   0.00002  -0.00000   0.00005   0.00004   2.76381
    R3        2.92498   0.00001   0.00000   0.00001   0.00001   2.92499
    R4        2.06763   0.00001  -0.00000   0.00002   0.00002   2.06765
    R5        2.06763   0.00001  -0.00000   0.00003   0.00003   2.06766
    R6        2.75916   0.00003  -0.00000   0.00009   0.00008   2.75924
    R7        2.06996   0.00001  -0.00000   0.00003   0.00003   2.06999
    R8        2.06994   0.00002  -0.00000   0.00005   0.00005   2.07000
    R9        2.18300  -0.00000   0.00000  -0.00001  -0.00001   2.18299
   R10        3.71560   0.00003   0.00005   0.00036   0.00040   3.71600
    A1        1.90943   0.00001  -0.00001   0.00010   0.00009   1.90952
    A2        1.90386  -0.00001  -0.00000  -0.00001  -0.00001   1.90385
    A3        1.90379  -0.00000  -0.00001   0.00005   0.00005   1.90384
    A4        1.93080  -0.00000   0.00001  -0.00006  -0.00005   1.93076
    A5        1.93076   0.00000   0.00001   0.00000   0.00001   1.93077
    A6        1.88471  -0.00001   0.00000  -0.00009  -0.00009   1.88462
    A7        1.95332   0.00002  -0.00003   0.00015   0.00012   1.95344
    A8        1.93278   0.00003  -0.00001   0.00018   0.00018   1.93296
    A9        1.93282   0.00002  -0.00001   0.00014   0.00013   1.93295
   A10        1.88291  -0.00004   0.00002  -0.00026  -0.00024   1.88267
   A11        1.88281  -0.00002   0.00004  -0.00014  -0.00010   1.88270
   A12        1.87642  -0.00002  -0.00001  -0.00010  -0.00011   1.87631
   A13        3.11457   0.00001  -0.00008   0.00015   0.00007   3.11464
   A14        3.13810   0.00005   0.00034   0.00023   0.00057   3.13867
   A15        3.17816  -0.00000   0.00012  -0.00041  -0.00029   3.17787
   A16        3.12708  -0.00000   0.00003  -0.00002   0.00001   3.12710
   A17        3.14312   0.00001  -0.00002   0.00031   0.00029   3.14341
   A18        3.16946   0.00000   0.00003   0.00009   0.00012   3.16958
    D1        3.14140   0.00001   0.00001   0.00013   0.00013   3.14153
    D2       -1.04012  -0.00000   0.00000   0.00003   0.00003  -1.04009
    D3        1.03984   0.00000  -0.00001   0.00010   0.00009   1.03993
    D4       -1.04399   0.00001   0.00000   0.00014   0.00015  -1.04384
    D5        1.05768  -0.00000  -0.00000   0.00004   0.00004   1.05772
    D6        3.13764   0.00000  -0.00002   0.00012   0.00011   3.13774
    D7        1.04371  -0.00000   0.00002  -0.00000   0.00001   1.04373
    D8       -3.13780  -0.00001   0.00001  -0.00010  -0.00009  -3.13790
    D9       -1.05784  -0.00001  -0.00000  -0.00003  -0.00003  -1.05787
         Item               Value     Threshold  Converged?
 Maximum Force            0.000055     0.000450     YES
 RMS     Force            0.000018     0.000300     YES
 Maximum Displacement     0.001057     0.001800     YES
 RMS     Displacement     0.000390     0.001200     YES
 Predicted change in Energy=-4.122960D-08
 Optimization completed.
    -- Stationary point found.
                           ----------------------------
                           !   Optimized Parameters   !
                           ! (Angstroms and Degrees)  !
 --------------------------                            --------------------------
 ! Name  Definition              Value          Derivative Info.                !
 --------------------------------------------------------------------------------
 ! R1    R(1,2)                  1.1559         -DE/DX =    0.0                 !
 ! R2    R(2,3)                  1.4625         -DE/DX =    0.0                 !
 ! R3    R(3,4)                  1.5478         -DE/DX =    0.0                 !
 ! R4    R(3,9)                  1.0941         -DE/DX =    0.0                 !
 ! R5    R(3,10)                 1.0941         -DE/DX =    0.0                 !
 ! R6    R(4,5)                  1.4601         -DE/DX =    0.0                 !
 ! R7    R(4,7)                  1.0954         -DE/DX =    0.0                 !
 ! R8    R(4,8)                  1.0954         -DE/DX =    0.0                 !
 ! R9    R(5,6)                  1.1552         -DE/DX =    0.0                 !
 ! R10   R(6,11)                 1.9662         -DE/DX =    0.0                 !
 ! A1    A(2,3,4)              109.4025         -DE/DX =    0.0                 !
 ! A2    A(2,3,9)              109.083          -DE/DX =    0.0                 !
 ! A3    A(2,3,10)             109.0793         -DE/DX =    0.0                 !
 ! A4    A(4,3,9)              110.6269         -DE/DX =    0.0                 !
 ! A5    A(4,3,10)             110.6244         -DE/DX =    0.0                 !
 ! A6    A(9,3,10)             107.986          -DE/DX =    0.0                 !
 ! A7    A(3,4,5)              111.9168         -DE/DX =    0.0                 !
 ! A8    A(3,4,7)              110.7402         -DE/DX =    0.0                 !
 ! A9    A(3,4,8)              110.7422         -DE/DX =    0.0                 !
 ! A10   A(5,4,7)              107.883          -DE/DX =    0.0                 !
 ! A11   A(5,4,8)              107.8769         -DE/DX =    0.0                 !
 ! A12   A(7,4,8)              107.511          -DE/DX =    0.0                 !
 ! A13   L(1,2,3,7,-1)         178.4517         -DE/DX =    0.0                 !
 ! A14   L(4,5,6,9,-1)         179.8001         -DE/DX =    0.0001              !
 ! A15   L(5,6,11,10,-1)       182.0949         -DE/DX =    0.0                 !
 ! A16   L(1,2,3,7,-2)         179.1687         -DE/DX =    0.0                 !
 ! A17   L(4,5,6,9,-2)         180.0876         -DE/DX =    0.0                 !
 ! A18   L(5,6,11,10,-2)       181.5966         -DE/DX =    0.0                 !
 ! D1    D(2,3,4,5)            179.9889         -DE/DX =    0.0                 !
 ! D2    D(2,3,4,7)            -59.5943         -DE/DX =    0.0                 !
 ! D3    D(2,3,4,8)             59.5786         -DE/DX =    0.0                 !
 ! D4    D(9,3,4,5)            -59.8164         -DE/DX =    0.0                 !
 ! D5    D(9,3,4,7)             60.6005         -DE/DX =    0.0                 !
 ! D6    D(9,3,4,8)            179.7733         -DE/DX =    0.0                 !
 ! D7    D(10,3,4,5)            59.8004         -DE/DX =    0.0                 !
 ! D8    D(10,3,4,7)          -179.7828         -DE/DX =    0.0                 !
 ! D9    D(10,3,4,8)           -60.61           -DE/DX =    0.0                 !
 --------------------------------------------------------------------------------
 Lowest energy point so far.  Saving SCF results.
 Largest change from initial coordinates is atom   11       0.199 Angstoms.
 GradGradGradGradGradGradGradGradGradGradGradGradGradGradGradGradGradGrad

 Leave Link  103 at Wed Aug  6 20:06:38 2025, MaxMem=   104857600 cpu:               0.0 elap:               0.0
 (Enter /Applications/g16/l202.exe)
                          Input orientation:                          
 ---------------------------------------------------------------------
 Center     Atomic      Atomic             Coordinates (Angstroms)
 Number     Number       Type             X           Y           Z
 ---------------------------------------------------------------------
      1          7           0       -2.969964    0.260456   -0.000126
      2          6           0       -1.889151   -0.149488   -0.000053
      3          6           0       -0.506993   -0.627625   -0.000004
      4          6           0        0.456236    0.583977    0.000107
      5          6           0        1.855698    0.167629    0.000422
      6          7           0        2.961711   -0.165848    0.000303
      7          1           0        0.291840    1.210309   -0.883370
      8          1           0        0.291586    1.210390    0.883469
      9          1           0       -0.343675   -1.249794   -0.885095
     10          1           0       -0.343809   -1.249793    0.885109
     11          3           0        4.865461   -0.657493   -0.000281
 ---------------------------------------------------------------------
                    Distance matrix (angstroms):
                    1          2          3          4          5
     1  N    0.000000
     2  C    1.155946   0.000000
     3  C    2.618189   1.462524   0.000000
     4  C    3.441441   2.457399   1.547834   0.000000
     5  C    4.826555   3.758252   2.492938   1.460082   0.000000
     6  N    5.946975   4.850890   3.499307   2.615271   1.155193
     7  H    3.510229   2.717723   2.190085   1.095377   2.076998
     8  H    3.510103   2.717626   2.190103   1.095367   2.076913
     9  H    3.156172   2.093435   1.094145   2.187729   2.762331
    10  H    3.156134   2.093386   1.094142   2.187695   2.762171
    11  Li   7.889013   6.773689   5.372537   4.580668   3.120817
                    6          7          8          9         10
     6  N    0.000000
     7  H    3.130958   0.000000
     8  H    3.131067   1.766838   0.000000
     9  H    3.589491   2.540864   3.095784   0.000000
    10  H    3.589468   3.095750   2.540911   1.770204   0.000000
    11  Li   1.966209   5.018620   5.018997   5.316843   5.317070
                   11
    11  Li   0.000000
 Stoichiometry    C4H4LiN2(1+)
 Framework group  C1[X(C4H4LiN2)]
 Deg. of freedom    27
 Full point group                 C1      NOp   1
 RotChk:  IX=1 Diff= 3.53D-16
 Largest Abelian subgroup         C1      NOp   1
 Largest concise Abelian subgroup C1      NOp   1
                         Standard orientation:                         
 ---------------------------------------------------------------------
 Center     Atomic      Atomic             Coordinates (Angstroms)
 Number     Number       Type             X           Y           Z
 ---------------------------------------------------------------------
      1          7           0       -3.288969    0.157150   -0.000200
      2          6           0       -2.191938   -0.207179   -0.000128
      3          6           0       -0.790972   -0.627024   -0.000079
      4          6           0        0.120681    0.623847    0.000033
      5          6           0        1.536349    0.266462    0.000348
      6          7           0        2.655355   -0.020412    0.000229
      7          1           0       -0.069797    1.242747   -0.883444
      8          1           0       -0.070054    1.242816    0.883395
      9          1           0       -0.601746   -1.241809   -0.885169
     10          1           0       -0.601880   -1.241813    0.885035
     11          3           0        4.578021   -0.431913   -0.000355
 ---------------------------------------------------------------------
 Rotational constants (GHZ):          23.2206171           1.0221670           0.9911741
 Leave Link  202 at Wed Aug  6 20:06:38 2025, MaxMem=   104857600 cpu:               0.0 elap:               0.0
 (Enter /Applications/g16/l601.exe)
 Copying SCF densities to generalized density rwf, IOpCl= 0 IROHF=0.

 **********************************************************************

            Population analysis using the SCF Density.

 **********************************************************************

 Orbital symmetries:
       Occupied  (A) (A) (A) (A) (A) (A) (A) (A) (A) (A) (A) (A)
                 (A) (A) (A) (A) (A) (A) (A) (A) (A) (A)
       Virtual   (A) (A) (A) (A) (A) (A) (A) (A) (A) (A) (A) (A)
                 (A) (A) (A) (A) (A) (A) (A) (A) (A) (A) (A) (A)
                 (A) (A) (A) (A) (A) (A) (A) (A) (A) (A) (A) (A)
                 (A) (A) (A) (A) (A) (A) (A) (A) (A) (A) (A) (A)
                 (A) (A) (A) (A) (A) (A) (A) (A) (A) (A) (A) (A)
                 (A) (A) (A) (A) (A) (A) (A) (A) (A) (A) (A) (A)
                 (A) (A) (A) (A) (A) (A) (A) (A) (A) (A) (A) (A)
                 (A) (A) (A) (A) (A) (A) (A)
 The electronic state is 1-A.
 Alpha  occ. eigenvalues --  -14.66695 -14.57144 -10.56533 -10.52149 -10.50263
 Alpha  occ. eigenvalues --  -10.45755  -2.34363  -1.22081  -1.12650  -1.08340
 Alpha  occ. eigenvalues --   -0.96648  -0.79338  -0.74900  -0.73953  -0.70292
 Alpha  occ. eigenvalues --   -0.67979  -0.66339  -0.62040  -0.61028  -0.55770
 Alpha  occ. eigenvalues --   -0.53024  -0.52678
 Alpha virt. eigenvalues --   -0.13958  -0.11504  -0.11047  -0.06585  -0.06244
 Alpha virt. eigenvalues --   -0.06166  -0.00766   0.00156   0.04352   0.04728
 Alpha virt. eigenvalues --    0.04928   0.05852   0.07538   0.08379   0.11037
 Alpha virt. eigenvalues --    0.13341   0.14009   0.15445   0.15888   0.28588
 Alpha virt. eigenvalues --    0.34355   0.37094   0.37096   0.37388   0.39076
 Alpha virt. eigenvalues --    0.46944   0.47522   0.50314   0.50424   0.54017
 Alpha virt. eigenvalues --    0.55424   0.58940   0.60235   0.61070   0.64857
 Alpha virt. eigenvalues --    0.66519   0.70570   0.75178   0.77741   0.78563
 Alpha virt. eigenvalues --    0.80914   0.82207   0.84920   0.86207   0.91050
 Alpha virt. eigenvalues --    0.93003   0.99143   1.01030   1.04855   1.07196
 Alpha virt. eigenvalues --    1.11391   1.27995   1.29883   1.32558   1.39023
 Alpha virt. eigenvalues --    1.39604   1.43023   1.46257   1.48474   1.51786
 Alpha virt. eigenvalues --    1.63393   1.64195   1.70193   1.78064   1.79019
 Alpha virt. eigenvalues --    1.82760   1.85915   1.89664   1.89717   1.92211
 Alpha virt. eigenvalues --    1.94854   1.98086   2.14230   2.14764   2.17913
 Alpha virt. eigenvalues --    2.27104   2.37593   2.62676   2.68582   2.73549
 Alpha virt. eigenvalues --    2.76689   2.78074   2.83865   3.12301   3.24102
 Alpha virt. eigenvalues --    4.01961   4.02656   4.07070   4.17935   4.48807
 Alpha virt. eigenvalues --    4.69787
          Condensed to atoms (all electrons):
               1          2          3          4          5          6
     1  N    6.624735   0.860482  -0.081352  -0.000759  -0.000072  -0.000000
     2  C    0.860482   4.602865   0.278627  -0.039333   0.003943  -0.000042
     3  C   -0.081352   0.278627   5.221012   0.310890  -0.035146  -0.001602
     4  C   -0.000759  -0.039333   0.310890   5.218442   0.286018  -0.056323
     5  C   -0.000072   0.003943  -0.035146   0.286018   4.491244   0.831633
     6  N   -0.000000  -0.000042  -0.001602  -0.056323   0.831633   6.671161
     7  H    0.000304  -0.001809  -0.026470   0.377295  -0.032927  -0.001457
     8  H    0.000304  -0.001809  -0.026468   0.377284  -0.032925  -0.001453
     9  H   -0.000553  -0.027340   0.378033  -0.031407  -0.003659   0.000054
    10  H   -0.000553  -0.027350   0.378041  -0.031415  -0.003659   0.000054
    11  Li  -0.000003  -0.000113   0.000430  -0.000027  -0.007343   0.135028
               7          8          9         10         11
     1  N    0.000304   0.000304  -0.000553  -0.000553  -0.000003
     2  C   -0.001809  -0.001809  -0.027340  -0.027350  -0.000113
     3  C   -0.026470  -0.026468   0.378033   0.378041   0.000430
     4  C    0.377295   0.377284  -0.031407  -0.031415  -0.000027
     5  C   -0.032927  -0.032925  -0.003659  -0.003659  -0.007343
     6  N   -0.001457  -0.001453   0.000054   0.000054   0.135028
     7  H    0.410693  -0.016981  -0.002274   0.002712   0.000240
     8  H   -0.016981   0.410706   0.002712  -0.002273   0.000240
     9  H   -0.002274   0.002712   0.443851  -0.020688   0.000326
    10  H    0.002712  -0.002273  -0.020688   0.443863   0.000326
    11  Li   0.000240   0.000240   0.000326   0.000326   2.042645
 Mulliken charges:
               1
     1  N   -0.402532
     2  C    0.351879
     3  C   -0.395996
     4  C   -0.410665
     5  C    0.502893
     6  N   -0.577052
     7  H    0.290673
     8  H    0.290663
     9  H    0.260944
    10  H    0.260941
    11  Li   0.828251
 Sum of Mulliken charges =   1.00000
 Mulliken charges with hydrogens summed into heavy atoms:
               1
     1  N   -0.402532
     2  C    0.351879
     3  C    0.125890
     4  C    0.170671
     5  C    0.502893
     6  N   -0.577052
    11  Li   0.828251
 Electronic spatial extent (au):  <R**2>=            919.1825
 Charge=              1.0000 electrons
 Dipole moment (field-independent basis, Debye):
    X=             18.2113    Y=             -1.6545    Z=             -0.0014  Tot=             18.2863
 Quadrupole moment (field-independent basis, Debye-Ang):
   XX=             31.8347   YY=            -30.4097   ZZ=            -32.4819
   XY=             -5.9327   XZ=             -0.0090   YZ=              0.0011
 Traceless Quadrupole moment (field-independent basis, Debye-Ang):
   XX=             42.1870   YY=            -20.0574   ZZ=            -22.1296
   XY=             -5.9327   XZ=             -0.0090   YZ=              0.0011
 Octapole moment (field-independent basis, Debye-Ang**2):
  XXX=            459.8859  YYY=             -1.8133  ZZZ=             -0.0024  XYY=             10.3746
  XXY=            -45.7176  XXZ=             -0.0358  XZZ=              6.5799  YZZ=             -0.3427
  YYZ=             -0.0011  XYZ=              0.0034
 Hexadecapole moment (field-independent basis, Debye-Ang**3):
 XXXX=            737.6925 YYYY=            -79.5359 ZZZZ=            -41.4679 XXXY=           -183.3030
 XXXZ=             -0.2155 YYYX=            -10.6083 YYYZ=             -0.0020 ZZZX=             -0.0321
 ZZZY=             -0.0025 XXYY=           -156.8779 XXZZ=           -168.6597 YYZZ=            -16.7251
 XXYZ=              0.0163 YYXZ=             -0.0125 ZZXY=             -2.7319
 N-N= 1.956245011369D+02 E-N=-1.014932465425D+03  KE= 2.690342097669D+02
 No NMR shielding tensors so no spin-rotation constants.
 Leave Link  601 at Wed Aug  6 20:06:38 2025, MaxMem=   104857600 cpu:               0.0 elap:               0.0
 (Enter /Applications/g16/l9999.exe)
 Unable to Open any file for archive entry.
 1\1\GINC-MBPSRAK\FOpt\RwB97XD\6-31G(d)\C4H4Li1N2(1+)\SRAK\06-Aug-2025\
 0\\#p opt wb97xd/6-31g(d)\\Gaussian input prepared by ASE\\1,1\N,-2.96
 99641912,0.2604555789,-0.0001258679\C,-1.8891508788,-0.1494876652,-0.0
 000533719\C,-0.5069928056,-0.627625155,-0.0000042835\C,0.4562361597,0.
 5839769744,0.0001073867\C,1.8556984345,0.1676294809,0.0004220071\N,2.9
 617114213,-0.1658480566,0.0003028244\H,0.2918398839,1.2103092056,-0.88
 33696618\H,0.2915860422,1.2103895785,0.8834688079\H,-0.3436749505,-1.2
 497943435,-0.8850947546\H,-0.3438087596,-1.2497929027,0.8851087501\Li,
 4.8654614142,-0.657493265,-0.0002808128\\Version=Apple M1-G16RevC.02\S
 tate=1-A\HF=-271.5588484\RMSD=9.499e-09\RMSF=2.045e-05\Dipole=7.131327
 9,-0.9503533,-0.0005687\Quadrupole=30.9148042,-14.4619756,-16.4528286,
 -6.3313532,-0.0066569,0.0010961\PG=C01 [X(C4H4Li1N2)]\\@
 The archive entry for this job was punched.


 WHEN YOU REACH FOR THE STARS, YOU MAY NOT QUITE GET ONE,
 BUT YOU WON'T COME UP WITH A HANDFUL OF MUD, EITHER.

                                         -- LEO BURNETT (AD AGENCY HEAD)
 Job cpu time:       0 days  0 hours  1 minutes 25.9 seconds.
 Elapsed time:       0 days  0 hours  1 minutes 26.5 seconds.
 File lengths (MBytes):  RWF=     10 Int=      0 D2E=      0 Chk=      2 Scr=      1
 Normal termination of Gaussian 16 at Wed Aug  6 20:06:38 2025.
