#p opt wb97xd/6-31g(d)

Gaussian input prepared by ASE

1 1
 N                 -2.96815800    0.19967000   -0.00009400
 C                 -1.86836600   -0.15867700   -0.00001800
 C                 -0.46634900   -0.58748500    0.00008700
 C                  0.46627700    0.58733800    0.00009000
 C                  1.86836600    0.15865000   -0.00003900
 N                  2.96823400   -0.19947900   -0.00008600
 H                  0.29732500    1.21795100   -0.87913100
 H                  0.29746200    1.21782200    0.87942800
 H                 -0.29739600   -1.21807200   -0.87915200
 H                 -0.29748500   -1.21799400    0.87939600
 Li                 4.66903177   -0.66700457    0.00000002

