9

S      11.195415799999999      5.085527000000000      9.933154399999999
F      11.342962600000000      4.644096000000000      8.671402499999999
O      12.045624000000000      4.317557999999999     10.812861900000000
O       9.913451800000001      5.063757800000000     10.526328599999999
N      11.572748600000001      6.568251400000000     10.053800000000001
S      12.992584200000000      7.008473000000000      9.933154399999999
F      13.496904000000001      6.798037399999999     11.436197500000000
O      13.077242200000001      8.227548199999999      9.581271400000000
O      13.823442000000000      6.095375999999999      9.294738100000000
