 Entering Gaussian System, Link 0=g16
 Initial command:
 /Applications/g16/l1.exe "/Users/srak/g16_scratch/Gau-3811.inp" -scrdir="/Users/srak/g16_scratch/"
 Entering Link 1 = /Applications/g16/l1.exe PID=      3812.
  
 Copyright (c) 1988-2021, Gaussian, Inc.  All Rights Reserved.
  
 This is part of the Gaussian(R) 16 program.  It is based on
 the Gaussian(R) 09 system (copyright 2009, Gaussian, Inc.),
 the Gaussian(R) 03 system (copyright 2003, Gaussian, Inc.),
 the Gaussian(R) 98 system (copyright 1998, Gaussian, Inc.),
 the Gaussian(R) 94 system (copyright 1995, Gaussian, Inc.),
 the Gaussian 92(TM) system (copyright 1992, Gaussian, Inc.),
 the Gaussian 90(TM) system (copyright 1990, Gaussian, Inc.),
 the Gaussian 88(TM) system (copyright 1988, Gaussian, Inc.),
 the Gaussian 86(TM) system (copyright 1986, Carnegie Mellon
 University), and the Gaussian 82(TM) system (copyright 1983,
 Carnegie Mellon University). Gaussian is a federally registered
 trademark of Gaussian, Inc.
  
 This software contains proprietary and confidential information,
 including trade secrets, belonging to Gaussian, Inc.
  
 This software is provided under written license and may be
 used, copied, transmitted, or stored only in accord with that
 written license.
  
 The following legend is applicable only to US Government
 contracts under FAR:
  
                    RESTRICTED RIGHTS LEGEND
  
 Use, reproduction and disclosure by the US Government is
 subject to restrictions as set forth in subparagraphs (a)
 and (c) of the Commercial Computer Software - Restricted
 Rights clause in FAR 52.227-19.
  
 Gaussian, Inc.
 340 Quinnipiac St., Bldg. 40, Wallingford CT 06492
  
  
 ---------------------------------------------------------------
 Warning -- This program may not be used in any manner that
 competes with the business of Gaussian, Inc. or will provide
 assistance to any competitor of Gaussian, Inc.  The licensee
 of this program is prohibited from giving any competitor of
 Gaussian, Inc. access to this program.  By using this program,
 the user acknowledges that Gaussian, Inc. is engaged in the
 business of creating and licensing software in the field of
 computational chemistry and represents and warrants to the
 licensee that it is not a competitor of Gaussian, Inc. and that
 it will not use this program in any manner prohibited above.
 ---------------------------------------------------------------
  

 Cite this work as:
 Gaussian 16, Revision C.02,
 M. J. Frisch, G. W. Trucks, H. B. Schlegel, G. E. Scuseria, 
 M. A. Robb, J. R. Cheeseman, G. Scalmani, V. Barone, 
 G. A. Petersson, H. Nakatsuji, X. Li, M. Caricato, A. V. Marenich, 
 J. Bloino, B. G. Janesko, R. Gomperts, B. Mennucci, H. P. Hratchian, 
 J. V. Ortiz, A. F. Izmaylov, J. L. Sonnenberg, D. Williams-Young, 
 F. Ding, F. Lipparini, F. Egidi, J. Goings, B. Peng, A. Petrone, 
 T. Henderson, D. Ranasinghe, V. G. Zakrzewski, J. Gao, N. Rega, 
 G. Zheng, W. Liang, M. Hada, M. Ehara, K. Toyota, R. Fukuda, 
 J. Hasegawa, M. Ishida, T. Nakajima, Y. Honda, O. Kitao, H. Nakai, 
 T. Vreven, K. Throssell, J. A. Montgomery, Jr., J. E. Peralta, 
 F. Ogliaro, M. J. Bearpark, J. J. Heyd, E. N. Brothers, K. N. Kudin, 
 V. N. Staroverov, T. A. Keith, R. Kobayashi, J. Normand, 
 K. Raghavachari, A. P. Rendell, J. C. Burant, S. S. Iyengar, 
 J. Tomasi, M. Cossi, J. M. Millam, M. Klene, C. Adamo, R. Cammi, 
 J. W. Ochterski, R. L. Martin, K. Morokuma, O. Farkas, 
 J. B. Foresman, and D. J. Fox, Gaussian, Inc., Wallingford CT, 2019.
 
 *********************************************
 Gaussian 16:  Apple M1-G16RevC.02  7-Dec-2021
                  21-Dec-2024 
 *********************************************
 %mem=32GB
 %nprocshared=32
 Will use up to   32 processors via shared memory.
 ------------------------------------------
 #P hf/6-31g(d) pop(mk) IOP(6/33=2, 6/42=6)
 ------------------------------------------
 1/38=1,172=1/1;
 2/12=2,17=6,18=5,40=1/2;
 3/5=1,6=6,7=1,11=9,25=1,30=1/1,2,3;
 4//1;
 5/5=2,38=5/2;
 6/7=2,8=2,9=2,10=2,15=8,20=1,28=1,33=2,42=6/1,2;
 99/5=1,9=1/99;
 Leave Link    1 at Sat Dec 21 15:19:19 2024, MaxMem=  4294967296 cpu:               0.0 elap:               0.0
 (Enter /Applications/g16/l101.exe)
 ------------------------------
 Gaussian input prepared by ASE
 ------------------------------
 Symbolic Z-matrix:
 Charge = -1 Multiplicity = 1
 S                     0.9813    7.03629   5.17871 
 F                     0.81561   7.58856   3.64103 
 O                     0.12798   7.90648   5.9474 
 O                     2.40291   7.06337   5.39428 
 N                     0.51682   5.52343   5.05309 
 S                    -1.00128   5.07612   4.92857 
 F                    -1.55133   5.25064   6.46612 
 O                    -1.04468   3.65455   4.71549 
 O                    -1.86171   5.93792   4.15869 
 
 ITRead=  0  0  0  0  0  0  0  0  0
 MicOpt= -1 -1 -1 -1 -1 -1 -1 -1 -1
 NAtoms=      9 NQM=        9 NQMF=       0 NMMI=      0 NMMIF=      0
                NMic=       0 NMicF=      0.
                    Isotopes and Nuclear Properties:
 (Nuclear quadrupole moments (NQMom) in fm**2, nuclear magnetic moments (NMagM)
  in nuclear magnetons)

  Atom         1           2           3           4           5           6           7           8           9
 IAtWgt=          32          19          16          16          14          32          19          16          16
 AtmWgt=  31.9720718  18.9984032  15.9949146  15.9949146  14.0030740  31.9720718  18.9984032  15.9949146  15.9949146
 NucSpn=           0           1           0           0           2           0           1           0           0
 AtZEff=  -0.0000000  -0.0000000  -0.0000000  -0.0000000  -0.0000000  -0.0000000  -0.0000000  -0.0000000  -0.0000000
 NQMom=    0.0000000   0.0000000   0.0000000   0.0000000   2.0440000   0.0000000   0.0000000   0.0000000   0.0000000
 NMagM=    0.0000000   2.6288670   0.0000000   0.0000000   0.4037610   0.0000000   2.6288670   0.0000000   0.0000000
 AtZNuc=  16.0000000   9.0000000   8.0000000   8.0000000   7.0000000  16.0000000   9.0000000   8.0000000   8.0000000
 Leave Link  101 at Sat Dec 21 15:19:19 2024, MaxMem=  4294967296 cpu:               0.0 elap:               0.0
 (Enter /Applications/g16/l202.exe)
                          Input orientation:                          
 ---------------------------------------------------------------------
 Center     Atomic      Atomic             Coordinates (Angstroms)
 Number     Number       Type             X           Y           Z
 ---------------------------------------------------------------------
      1         16           0        0.981297    7.036295    5.178712
      2          9           0        0.815605    7.588563    3.641031
      3          8           0        0.127982    7.906477    5.947399
      4          8           0        2.402913    7.063371    5.394282
      5          7           0        0.516821    5.523433    5.053094
      6         16           0       -1.001281    5.076119    4.928570
      7          9           0       -1.551325    5.250644    6.466120
      8          8           0       -1.044675    3.654554    4.715495
      9          8           0       -1.861714    5.937920    4.158687
 ---------------------------------------------------------------------
                    Distance matrix (angstroms):
                    1          2          3          4          5
     1  S    0.000000
     2  F    1.642229   0.000000
     3  O    1.440917   2.427597   0.000000
     4  O    1.438122   2.422656   2.488388   0.000000
     5  N    1.587536   2.519515   2.574855   2.458691   0.000000
     6  S    2.799192   3.357262   3.213125   3.969206   1.587523
     7  F    3.355614   4.364556   3.184744   4.480046   2.519580
     8  O    3.969295   4.482359   4.579472   4.895574   2.458648
     9  O    3.213968   3.187574   3.321686   4.580434   2.574722
                    6          7          8          9
     6  S    0.000000
     7  F    1.642275   0.000000
     8  O    1.438100   2.422578   0.000000
     9  O    1.440752   2.427537   2.488242   0.000000
 Stoichiometry    F2NO4S2(1-)
 Framework group  C1[X(F2NO4S2)]
 Deg. of freedom    21
 Full point group                 C1      NOp   1
 Largest Abelian subgroup         C1      NOp   1
 Largest concise Abelian subgroup C1      NOp   1
                         Standard orientation:                         
 ---------------------------------------------------------------------
 Center     Atomic      Atomic             Coordinates (Angstroms)
 Number     Number       Type             X           Y           Z
 ---------------------------------------------------------------------
      1         16           0        1.391297   -0.151395   -0.086860
      2          9           0        1.690770    1.381144    0.421627
      3          8           0        1.381702   -0.919445    1.132259
      4          8           0        2.417047   -0.386885   -1.066950
      5          7           0        0.000003    0.000201   -0.836252
      6         16           0       -1.391466    0.151434   -0.087137
      7          9           0       -1.688962   -1.380514    0.424426
      8          8           0       -2.417535    0.383481   -1.067682
      9          8           0       -1.382912    0.921886    1.130277
 ---------------------------------------------------------------------
 Rotational constants (GHZ):           2.5247436           0.8791320           0.8622378
 Leave Link  202 at Sat Dec 21 15:19:19 2024, MaxMem=  4294967296 cpu:               0.0 elap:               0.0
 (Enter /Applications/g16/l301.exe)
 Standard basis: 6-31G(d) (6D, 7F)
 Ernie: Thresh=  0.10000D-02 Tol=  0.10000D-05 Strict=F.
 There are   143 symmetry adapted cartesian basis functions of A   symmetry.
 There are   143 symmetry adapted basis functions of A   symmetry.
   143 basis functions,   300 primitive gaussians,   143 cartesian basis functions
    45 alpha electrons       45 beta electrons
       nuclear repulsion energy       772.0747593540 Hartrees.
 IExCor=    0 DFT=F Ex=HF Corr=None ExCW=0 ScaHFX=  1.000000
 ScaDFX=  1.000000  1.000000  1.000000  1.000000 ScalE2=  1.000000  1.000000
 IRadAn=      5 IRanWt=     -1 IRanGd=            0 ICorTp=0 IEmpDi=  4
 NAtoms=    9 NActive=    9 NUniq=    9 SFac= 1.00D+00 NAtFMM=   60 NAOKFM=F Big=F
 Integral buffers will be    131072 words long.
 Raffenetti 1 integral format.
 Two-electron integral symmetry is turned on.
 Leave Link  301 at Sat Dec 21 15:19:19 2024, MaxMem=  4294967296 cpu:               0.0 elap:               0.0
 (Enter /Applications/g16/l302.exe)
 NPDir=0 NMtPBC=     1 NCelOv=     1 NCel=       1 NClECP=     1 NCelD=      1
         NCelK=      1 NCelE2=     1 NClLst=     1 CellRange=     0.0.
 One-electron integrals computed using PRISM.
 One-electron integral symmetry used in STVInt
 NBasis=   143 RedAO= T EigKep=  3.34D-03  NBF=   143
 NBsUse=   143 1.00D-06 EigRej= -1.00D+00 NBFU=   143
 Leave Link  302 at Sat Dec 21 15:19:21 2024, MaxMem=  4294967296 cpu:              13.6 elap:               1.5
 (Enter /Applications/g16/l303.exe)
 DipDrv:  MaxL=1.
 Leave Link  303 at Sat Dec 21 15:19:21 2024, MaxMem=  4294967296 cpu:               0.0 elap:               0.0
 (Enter /Applications/g16/l401.exe)
 ExpMin= 1.17D-01 ExpMax= 2.19D+04 ExpMxC= 3.30D+03 IAcc=3 IRadAn=         5 AccDes= 0.00D+00
 Harris functional with IExCor=  205 and IRadAn=       5 diagonalized for initial guess.
 HarFok:  IExCor=  205 AccDes= 0.00D+00 IRadAn=         5 IDoV= 1 UseB2=F ITyADJ=14
 ICtDFT=  3500011 ScaDFX=  1.000000  1.000000  1.000000  1.000000
 FoFCou: FMM=F IPFlag=           0 FMFlag=      100000 FMFlg1=           0
         NFxFlg=           0 DoJE=T BraDBF=F KetDBF=T FulRan=T
         wScrn=  0.000000 ICntrl=       500 IOpCl=  0 I1Cent=   200000004 NGrid=           0
         NMat0=    1 NMatS0=      1 NMatT0=    0 NMatD0=    1 NMtDS0=    0 NMtDT0=    0
 Petite list used in FoFCou.
 Harris En= -1347.31673446088    
 JPrj=0 DoOrth=F DoCkMO=F.
 Leave Link  401 at Sat Dec 21 15:19:22 2024, MaxMem=  4294967296 cpu:              13.2 elap:               1.4
 (Enter /Applications/g16/l502.exe)
 Keep R1 ints in memory in canonical form, NReq=59785493.
 FoFCou: FMM=F IPFlag=           0 FMFlag=           0 FMFlg1=           0
         NFxFlg=           0 DoJE=F BraDBF=F KetDBF=F FulRan=T
         wScrn=  0.000000 ICntrl=       600 IOpCl=  0 I1Cent=           0 NGrid=           0
         NMat0=    1 NMatS0=  10296 NMatT0=    0 NMatD0=    1 NMtDS0=    0 NMtDT0=    0
 Symmetry not used in FoFCou.
 Two-electron integral symmetry not used.
 Closed shell SCF:
 Using DIIS extrapolation, IDIIS=  1040.
 NGot=  4294967296 LenX=  4241911175 LenY=  4241890285
 Requested convergence on RMS density matrix=1.00D-08 within 128 cycles.
 Requested convergence on MAX density matrix=1.00D-06.
 Requested convergence on             energy=1.00D-06.
 No special actions if energy rises.

 Cycle   1  Pass 1  IDiag  1:
 E= -1347.26174914141    
 DIIS: error= 8.64D-02 at cycle   1 NSaved=   1.
 NSaved= 1 IEnMin= 1 EnMin= -1347.26174914141     IErMin= 1 ErrMin= 8.64D-02
 ErrMax= 8.64D-02  0.00D+00 EMaxC= 1.00D-01 BMatC= 9.97D-01 BMatP= 9.97D-01
 IDIUse=3 WtCom= 1.36D-01 WtEn= 8.64D-01
 Coeff-Com:  0.100D+01
 Coeff-En:   0.100D+01
 Coeff:      0.100D+01
 Gap=     0.586 Goal=   None    Shift=    0.000
 GapD=    0.586 DampG=2.000 DampE=0.500 DampFc=1.0000 IDamp=-1.
 RMSDP=6.62D-03 MaxDP=1.92D-01              OVMax= 1.31D-01

 Cycle   2  Pass 1  IDiag  1:
 E= -1347.51983981034     Delta-E=       -0.258090668930 Rises=F Damp=F
 DIIS: error= 3.22D-02 at cycle   2 NSaved=   2.
 NSaved= 2 IEnMin= 2 EnMin= -1347.51983981034     IErMin= 2 ErrMin= 3.22D-02
 ErrMax= 3.22D-02  0.00D+00 EMaxC= 1.00D-01 BMatC= 2.73D-01 BMatP= 9.97D-01
 IDIUse=3 WtCom= 6.78D-01 WtEn= 3.22D-01
 Coeff-Com:  0.313D+00 0.687D+00
 Coeff-En:   0.197D+00 0.803D+00
 Coeff:      0.276D+00 0.724D+00
 Gap=     0.681 Goal=   None    Shift=    0.000
 RMSDP=3.53D-03 MaxDP=1.48D-01 DE=-2.58D-01 OVMax= 8.20D-02

 Cycle   3  Pass 1  IDiag  1:
 E= -1347.69682780954     Delta-E=       -0.176987999201 Rises=F Damp=F
 DIIS: error= 9.40D-03 at cycle   3 NSaved=   3.
 NSaved= 3 IEnMin= 3 EnMin= -1347.69682780954     IErMin= 3 ErrMin= 9.40D-03
 ErrMax= 9.40D-03  0.00D+00 EMaxC= 1.00D-01 BMatC= 2.22D-02 BMatP= 2.73D-01
 IDIUse=3 WtCom= 9.06D-01 WtEn= 9.40D-02
 Coeff-Com: -0.164D-01 0.201D+00 0.815D+00
 Coeff-En:   0.000D+00 0.000D+00 0.100D+01
 Coeff:     -0.149D-01 0.182D+00 0.833D+00
 Gap=     0.652 Goal=   None    Shift=    0.000
 RMSDP=8.22D-04 MaxDP=2.68D-02 DE=-1.77D-01 OVMax= 1.93D-02

 Cycle   4  Pass 1  IDiag  1:
 E= -1347.71208426043     Delta-E=       -0.015256450891 Rises=F Damp=F
 DIIS: error= 1.70D-03 at cycle   4 NSaved=   4.
 NSaved= 4 IEnMin= 4 EnMin= -1347.71208426043     IErMin= 4 ErrMin= 1.70D-03
 ErrMax= 1.70D-03  0.00D+00 EMaxC= 1.00D-01 BMatC= 6.98D-04 BMatP= 2.22D-02
 IDIUse=3 WtCom= 9.83D-01 WtEn= 1.70D-02
 Coeff-Com: -0.112D-01 0.429D-01 0.263D+00 0.705D+00
 Coeff-En:   0.000D+00 0.000D+00 0.000D+00 0.100D+01
 Coeff:     -0.110D-01 0.421D-01 0.259D+00 0.710D+00
 Gap=     0.645 Goal=   None    Shift=    0.000
 RMSDP=1.65D-04 MaxDP=5.53D-03 DE=-1.53D-02 OVMax= 5.24D-03

 Cycle   5  Pass 1  IDiag  1:
 E= -1347.71270182231     Delta-E=       -0.000617561881 Rises=F Damp=F
 DIIS: error= 3.72D-04 at cycle   5 NSaved=   5.
 NSaved= 5 IEnMin= 5 EnMin= -1347.71270182231     IErMin= 5 ErrMin= 3.72D-04
 ErrMax= 3.72D-04  0.00D+00 EMaxC= 1.00D-01 BMatC= 4.20D-05 BMatP= 6.98D-04
 IDIUse=3 WtCom= 9.96D-01 WtEn= 3.72D-03
 Coeff-Com:  0.260D-02-0.233D-01-0.116D+00-0.174D-01 0.115D+01
 Coeff-En:   0.000D+00 0.000D+00 0.000D+00 0.000D+00 0.100D+01
 Coeff:      0.259D-02-0.232D-01-0.116D+00-0.173D-01 0.115D+01
 Gap=     0.643 Goal=   None    Shift=    0.000
 RMSDP=7.40D-05 MaxDP=1.61D-03 DE=-6.18D-04 OVMax= 2.12D-03

 Cycle   6  Pass 1  IDiag  1:
 E= -1347.71277598915     Delta-E=       -0.000074166840 Rises=F Damp=F
 DIIS: error= 1.19D-04 at cycle   6 NSaved=   6.
 NSaved= 6 IEnMin= 6 EnMin= -1347.71277598915     IErMin= 6 ErrMin= 1.19D-04
 ErrMax= 1.19D-04  0.00D+00 EMaxC= 1.00D-01 BMatC= 2.22D-06 BMatP= 4.20D-05
 IDIUse=3 WtCom= 9.99D-01 WtEn= 1.19D-03
 Coeff-Com:  0.615D-03-0.266D-02-0.178D-01-0.408D-01 0.734D-02 0.105D+01
 Coeff-En:   0.000D+00 0.000D+00 0.000D+00 0.000D+00 0.000D+00 0.100D+01
 Coeff:      0.614D-03-0.265D-02-0.178D-01-0.408D-01 0.733D-02 0.105D+01
 Gap=     0.643 Goal=   None    Shift=    0.000
 RMSDP=2.05D-05 MaxDP=4.69D-04 DE=-7.42D-05 OVMax= 6.50D-04

 Cycle   7  Pass 1  IDiag  1:
 E= -1347.71278069243     Delta-E=       -0.000004703278 Rises=F Damp=F
 DIIS: error= 4.43D-05 at cycle   7 NSaved=   7.
 NSaved= 7 IEnMin= 7 EnMin= -1347.71278069243     IErMin= 7 ErrMin= 4.43D-05
 ErrMax= 4.43D-05  0.00D+00 EMaxC= 1.00D-01 BMatC= 3.46D-07 BMatP= 2.22D-06
 IDIUse=1 WtCom= 1.00D+00 WtEn= 0.00D+00
 Coeff-Com: -0.150D-03 0.231D-02 0.104D-01-0.587D-02-0.140D+00 0.217D+00
 Coeff-Com:  0.916D+00
 Coeff:     -0.150D-03 0.231D-02 0.104D-01-0.587D-02-0.140D+00 0.217D+00
 Coeff:      0.916D+00
 Gap=     0.643 Goal=   None    Shift=    0.000
 RMSDP=6.45D-06 MaxDP=1.31D-04 DE=-4.70D-06 OVMax= 1.85D-04

 Cycle   8  Pass 1  IDiag  1:
 E= -1347.71278122534     Delta-E=       -0.000000532908 Rises=F Damp=F
 DIIS: error= 1.29D-05 at cycle   8 NSaved=   8.
 NSaved= 8 IEnMin= 8 EnMin= -1347.71278122534     IErMin= 8 ErrMin= 1.29D-05
 ErrMax= 1.29D-05  0.00D+00 EMaxC= 1.00D-01 BMatC= 3.76D-08 BMatP= 3.46D-07
 IDIUse=1 WtCom= 1.00D+00 WtEn= 0.00D+00
 Coeff-Com: -0.908D-04 0.757D-03 0.424D-02 0.444D-02-0.295D-01-0.762D-01
 Coeff-Com:  0.192D+00 0.904D+00
 Coeff:     -0.908D-04 0.757D-03 0.424D-02 0.444D-02-0.295D-01-0.762D-01
 Coeff:      0.192D+00 0.904D+00
 Gap=     0.643 Goal=   None    Shift=    0.000
 RMSDP=1.78D-06 MaxDP=3.98D-05 DE=-5.33D-07 OVMax= 6.72D-05

 Cycle   9  Pass 1  IDiag  1:
 E= -1347.71278127455     Delta-E=       -0.000000049207 Rises=F Damp=F
 DIIS: error= 2.37D-06 at cycle   9 NSaved=   9.
 NSaved= 9 IEnMin= 9 EnMin= -1347.71278127455     IErMin= 9 ErrMin= 2.37D-06
 ErrMax= 2.37D-06  0.00D+00 EMaxC= 1.00D-01 BMatC= 2.32D-09 BMatP= 3.76D-08
 IDIUse=1 WtCom= 1.00D+00 WtEn= 0.00D+00
 Coeff-Com:  0.588D-05-0.193D-03-0.754D-03 0.953D-03 0.110D-01-0.204D-01
 Coeff-Com: -0.749D-01 0.389D-01 0.105D+01
 Coeff:      0.588D-05-0.193D-03-0.754D-03 0.953D-03 0.110D-01-0.204D-01
 Coeff:     -0.749D-01 0.389D-01 0.105D+01
 Gap=     0.643 Goal=   None    Shift=    0.000
 RMSDP=6.09D-07 MaxDP=1.45D-05 DE=-4.92D-08 OVMax= 2.17D-05

 Cycle  10  Pass 1  IDiag  1:
 E= -1347.71278127904     Delta-E=       -0.000000004494 Rises=F Damp=F
 DIIS: error= 9.33D-07 at cycle  10 NSaved=  10.
 NSaved=10 IEnMin=10 EnMin= -1347.71278127904     IErMin=10 ErrMin= 9.33D-07
 ErrMax= 9.33D-07  0.00D+00 EMaxC= 1.00D-01 BMatC= 3.13D-10 BMatP= 2.32D-09
 IDIUse=1 WtCom= 1.00D+00 WtEn= 0.00D+00
 Coeff-Com:  0.701D-05-0.753D-04-0.389D-03-0.289D-03 0.312D-02 0.495D-02
 Coeff-Com: -0.232D-01-0.671D-01 0.129D+00 0.954D+00
 Coeff:      0.701D-05-0.753D-04-0.389D-03-0.289D-03 0.312D-02 0.495D-02
 Coeff:     -0.232D-01-0.671D-01 0.129D+00 0.954D+00
 Gap=     0.643 Goal=   None    Shift=    0.000
 RMSDP=2.09D-07 MaxDP=4.32D-06 DE=-4.49D-09 OVMax= 8.44D-06

 Cycle  11  Pass 1  IDiag  1:
 E= -1347.71278127960     Delta-E=       -0.000000000558 Rises=F Damp=F
 DIIS: error= 5.19D-07 at cycle  11 NSaved=  11.
 NSaved=11 IEnMin=11 EnMin= -1347.71278127960     IErMin=11 ErrMin= 5.19D-07
 ErrMax= 5.19D-07  0.00D+00 EMaxC= 1.00D-01 BMatC= 5.31D-11 BMatP= 3.13D-10
 IDIUse=1 WtCom= 1.00D+00 WtEn= 0.00D+00
 Coeff-Com:  0.599D-06 0.179D-04 0.489D-04-0.215D-03-0.119D-02 0.413D-02
 Coeff-Com:  0.713D-02-0.201D-01-0.152D+00 0.184D+00 0.978D+00
 Coeff:      0.599D-06 0.179D-04 0.489D-04-0.215D-03-0.119D-02 0.413D-02
 Coeff:      0.713D-02-0.201D-01-0.152D+00 0.184D+00 0.978D+00
 Gap=     0.643 Goal=   None    Shift=    0.000
 RMSDP=1.06D-07 MaxDP=2.71D-06 DE=-5.58D-10 OVMax= 4.47D-06

 Cycle  12  Pass 1  IDiag  1:
 E= -1347.71278127971     Delta-E=       -0.000000000115 Rises=F Damp=F
 DIIS: error= 1.21D-07 at cycle  12 NSaved=  12.
 NSaved=12 IEnMin=12 EnMin= -1347.71278127971     IErMin=12 ErrMin= 1.21D-07
 ErrMax= 1.21D-07  0.00D+00 EMaxC= 1.00D-01 BMatC= 3.86D-12 BMatP= 5.31D-11
 IDIUse=1 WtCom= 1.00D+00 WtEn= 0.00D+00
 Coeff-Com: -0.882D-06 0.318D-05 0.252D-04 0.877D-04-0.208D-04-0.146D-02
 Coeff-Com:  0.809D-03 0.120D-01 0.200D-01-0.156D+00-0.187D+00 0.131D+01
 Coeff:     -0.882D-06 0.318D-05 0.252D-04 0.877D-04-0.208D-04-0.146D-02
 Coeff:      0.809D-03 0.120D-01 0.200D-01-0.156D+00-0.187D+00 0.131D+01
 Gap=     0.643 Goal=   None    Shift=    0.000
 RMSDP=4.10D-08 MaxDP=6.54D-07 DE=-1.15D-10 OVMax= 1.51D-06

 Cycle  13  Pass 1  IDiag  1:
 E= -1347.71278127971     Delta-E=        0.000000000006 Rises=F Damp=F
 DIIS: error= 2.41D-08 at cycle  13 NSaved=  13.
 NSaved=13 IEnMin=12 EnMin= -1347.71278127971     IErMin=13 ErrMin= 2.41D-08
 ErrMax= 2.41D-08  0.00D+00 EMaxC= 1.00D-01 BMatC= 1.20D-13 BMatP= 3.86D-12
 IDIUse=1 WtCom= 1.00D+00 WtEn= 0.00D+00
 Coeff-Com:  0.123D-06-0.107D-05-0.501D-05-0.547D-05 0.409D-04 0.659D-04
 Coeff-Com: -0.390D-03-0.118D-02 0.320D-02 0.191D-01-0.843D-02-0.238D+00
 Coeff-Com:  0.123D+01
 Coeff:      0.123D-06-0.107D-05-0.501D-05-0.547D-05 0.409D-04 0.659D-04
 Coeff:     -0.390D-03-0.118D-02 0.320D-02 0.191D-01-0.843D-02-0.238D+00
 Coeff:      0.123D+01
 Gap=     0.643 Goal=   None    Shift=    0.000
 RMSDP=6.82D-09 MaxDP=1.08D-07 DE= 6.37D-12 OVMax= 2.39D-07

 SCF Done:  E(RHF) =  -1347.71278128     A.U. after   13 cycles
            NFock= 13  Conv=0.68D-08     -V/T= 2.0022
 KE= 1.344729229046D+03 PE=-4.759788846711D+03 EE= 1.295272077031D+03
 Leave Link  502 at Sat Dec 21 15:19:45 2024, MaxMem=  4294967296 cpu:             218.3 elap:              22.6
 (Enter /Applications/g16/l601.exe)
 Copying SCF densities to generalized density rwf, IOpCl= 0 IROHF=0.
 SCF density gives NOpUse=  1 NOpAll=  1.

 **********************************************************************

            Population analysis using the SCF Density.

 **********************************************************************

 Orbital symmetries:
 BldTbl:  Degeneracy threshold= 1.00D-02
       Occupied  (A) (A) (A) (A) (A) (A) (A) (A) (A) (A) (A) (A)
                 (A) (A) (A) (A) (A) (A) (A) (A) (A) (A) (A) (A)
                 (A) (A) (A) (A) (A) (A) (A) (A) (A) (A) (A) (A)
                 (A) (A) (A) (A) (A) (A) (A) (A) (A)
       Virtual   (A) (A) (A) (A) (A) (A) (A) (A) (A) (A) (A) (A)
                 (A) (A) (A) (A) (A) (A) (A) (A) (A) (A) (A) (A)
                 (A) (A) (A) (A) (A) (A) (A) (A) (A) (A) (A) (A)
                 (A) (A) (A) (A) (A) (A) (A) (A) (A) (A) (A) (A)
                 (A) (A) (A) (A) (A) (A) (A) (A) (A) (A) (A) (A)
                 (A) (A) (A) (A) (A) (A) (A) (A) (A) (A) (A) (A)
                 (A) (A) (A) (A) (A) (A) (A) (A) (A) (A) (A) (A)
                 (A) (A) (A) (A) (A) (A) (A) (A) (A) (A) (A) (A)
                 (A) (A)
 The electronic state is 1-A.
 Alpha  occ. eigenvalues --  -92.13419 -92.13418 -26.18906 -26.18901 -20.44097
 Alpha  occ. eigenvalues --  -20.44096 -20.43797 -20.43795 -15.45003  -9.09651
 Alpha  occ. eigenvalues --   -9.09649  -6.78363  -6.78361  -6.78243  -6.78241
 Alpha  occ. eigenvalues --   -6.78199  -6.78197  -1.49586  -1.49189  -1.33690
 Alpha  occ. eigenvalues --   -1.32453  -1.22972  -1.22733  -1.09893  -0.81438
 Alpha  occ. eigenvalues --   -0.70305  -0.65704  -0.59246  -0.58733  -0.57783
 Alpha  occ. eigenvalues --   -0.56636  -0.54527  -0.52231  -0.50671  -0.49683
 Alpha  occ. eigenvalues --   -0.44482  -0.41435  -0.40621  -0.39930  -0.39007
 Alpha  occ. eigenvalues --   -0.36433  -0.35715  -0.34593  -0.31030  -0.30721
 Alpha virt. eigenvalues --    0.33613   0.37760   0.38922   0.43432   0.44022
 Alpha virt. eigenvalues --    0.45464   0.49077   0.56066   0.58099   0.61756
 Alpha virt. eigenvalues --    0.64117   0.66403   0.72099   0.75867   0.77367
 Alpha virt. eigenvalues --    0.82264   0.97689   1.00920   1.01508   1.03108
 Alpha virt. eigenvalues --    1.13241   1.14213   1.16470   1.18213   1.22704
 Alpha virt. eigenvalues --    1.26541   1.30917   1.31974   1.36949   1.37123
 Alpha virt. eigenvalues --    1.37950   1.41724   1.43387   1.43774   1.45285
 Alpha virt. eigenvalues --    1.47829   1.49575   1.58101   1.61013   1.63512
 Alpha virt. eigenvalues --    1.64183   1.65277   1.65643   1.70810   1.73018
 Alpha virt. eigenvalues --    1.74558   1.77186   1.83465   1.84595   1.85184
 Alpha virt. eigenvalues --    1.96222   1.97158   2.14395   2.15606   2.18686
 Alpha virt. eigenvalues --    2.19233   2.20266   2.22575   2.22692   2.22970
 Alpha virt. eigenvalues --    2.23328   2.24042   2.24545   2.25220   2.28031
 Alpha virt. eigenvalues --    2.29793   2.30450   2.31431   2.31710   2.35477
 Alpha virt. eigenvalues --    2.35820   2.40585   2.47505   2.54356   2.57434
 Alpha virt. eigenvalues --    2.59207   2.62855   2.65490   2.66225   2.74866
 Alpha virt. eigenvalues --    2.79557   2.92188   2.95404   3.11912   3.13093
 Alpha virt. eigenvalues --    3.26819   3.29613   3.33303   3.33949   4.23749
 Alpha virt. eigenvalues --    4.25312   4.35817   4.38816   4.43905   4.53754
 Alpha virt. eigenvalues --    4.58168   5.07844   5.19082
          Condensed to atoms (all electrons):
               1          2          3          4          5          6
     1  S   12.675531   0.217259   0.504458   0.533930   0.361193   0.013587
     2  F    0.217259   9.345259  -0.034046  -0.035935  -0.039148  -0.001390
     3  O    0.504458  -0.034046   8.285453  -0.044639  -0.056395   0.005775
     4  O    0.533930  -0.035935  -0.044639   8.259626  -0.062896  -0.001731
     5  N    0.361193  -0.039148  -0.056395  -0.062896   7.456125   0.361198
     6  S    0.013587  -0.001390   0.005775  -0.001731   0.361198  12.675383
     7  F   -0.001383  -0.000001   0.000281  -0.000002  -0.039143   0.217221
     8  O   -0.001730  -0.000002  -0.000013  -0.000004  -0.062895   0.533968
     9  O    0.005766   0.000279  -0.000884  -0.000012  -0.056409   0.504597
               7          8          9
     1  S   -0.001383  -0.001730   0.005766
     2  F   -0.000001  -0.000002   0.000279
     3  O    0.000281  -0.000013  -0.000884
     4  O   -0.000002  -0.000004  -0.000012
     5  N   -0.039143  -0.062895  -0.056409
     6  S    0.217221   0.533968   0.504597
     7  F    9.345348  -0.035941  -0.034047
     8  O   -0.035941   8.259614  -0.044649
     9  O   -0.034047  -0.044649   8.285230
 Mulliken charges:
               1
     1  S    1.691389
     2  F   -0.452276
     3  O   -0.659991
     4  O   -0.648336
     5  N   -0.861628
     6  S    1.691393
     7  F   -0.452334
     8  O   -0.648348
     9  O   -0.659870
 Sum of Mulliken charges =  -1.00000
 Mulliken charges with hydrogens summed into heavy atoms:
               1
     1  S    1.691389
     2  F   -0.452276
     3  O   -0.659991
     4  O   -0.648336
     5  N   -0.861628
     6  S    1.691393
     7  F   -0.452334
     8  O   -0.648348
     9  O   -0.659870
 DipInt: DoE/N= T F RetVal/Mat= T F Init=T NMatP=  1 IDeriv=0 Min/MaxMlt=  0  4
 Entering OneElI...
 OneElI was handed  4294912582 working-precision words.
 Multipole integrals L=0 to 4 MinM= 0 MaxM= 0.
 Requested accuracy = 0.1000D-12
 ShPair: Thresh= 1.00D-13 NBox=     0 BxSize= 0.00D+00 RnKept= 9.25D+00
         NSMCal=                  741 NSMKep=                 667
 PrmmSu-InSpLW:  IPartL=    0 NPrtUS=    1 NPrtUL=    1 DoSpLW=F IThBeg=    0 IThEnd=    0 NThAct=    1.
 PrSmSu:  IncTry=   512 NBBP=            667 NTPThr=   100 NPartT=    1 Incr=           6 LDynOK=F GPUOK=F.
 PrsmSu:  NPrtUS=   1 ThrOK=F IAlg=2 LenDen=           0 ISkipM=0 DoSpLW=F IThBeg=    0 IThEnd=    0.
 Prism:   IPart=     0 DynPar=F LinDyn=F Incr=           6.
 PRISM was handed  4294827115 working-precision words and   667 shell-pairs
 IPart=  0 NShTot=         667 NBatch=          39 AvBLen=        17.1
 PrsmSu-ThDecC:  IPartSL=    0    0 NPrtUSL=    1    1 IThBeg=    0 IThEnd=    0 CPU=   -1 GPU=   -1 NThAct=    1.
 PrSmSu:  NxtVal=              7.
 Electronic moments (au):
        -90.00000000          0.00044752          0.00075196          0.16595814
       -911.86675426       -233.30364923       -224.04896993          2.50049933
         -0.00224685         -0.00500322          0.03528519         -0.48977062
          6.60021284         -0.33724674         -0.00368838        355.21570747
          0.22041405          0.43735858       -188.98565923        -75.09942545
     -14205.98255324      -1625.34355624      -1375.78090270        355.73383981
         -1.22709836       -726.03872687         -0.11829989         -1.44285793
          0.23205379      -2385.69412341      -2652.14941556       -566.04200511
         -1.79165124          2.05701051        503.55231382
 Electronic spatial extent (au):  <R**2>=           1369.2194
 DipInt: DoE/N= F T RetVal/Mat= T F Init=T NMatP=  1 IDeriv=0 Min/MaxMlt=  0  4
 Nuclear    moments (au):
         89.00000000          0.00000000          0.00000000          0.00000000
        847.83135040        182.08843193        168.05961161          0.00000000
         -0.00000000          0.00000000         -0.00141768          0.47231445
          6.46901599          0.33309133          0.03091150       -329.63004813
         -0.21381220         -0.41542707        183.98074954         75.71254212
      11113.04160607        985.80638708        649.99121168       -243.17125429
          1.09151844        771.00505957          0.04783747          1.29824193
         -0.27378430       1775.31049663       1980.41736903        334.21364578
          1.64729427         -1.97727679       -453.53534911
 Total      moments (au):
         -1.00000000          0.00044752          0.00075196          0.16595814
        -64.03540385        -51.21521730        -55.98935832          2.50049933
         -0.00224685         -0.00500322          0.03386750         -0.01745617
         13.06922883         -0.00415542          0.02722312         25.58565934
          0.00660186          0.02193151         -5.00490969          0.61311667
      -3092.94094717       -639.53716916       -725.78969102        112.56258552
         -0.13557992         44.96633270         -0.07046242         -0.14461601
         -0.04173051       -610.38362678       -671.73204653       -231.82835932
         -0.14435697          0.07973372         50.01696472
 Traceless Quadrup. (au):
         -6.95541070          5.86477586          1.09063484          2.50049933
         -0.00224685         -0.00500322
 Charge=             -1.0000 electrons
 Dipole moment (field-independent basis, Debye):
    X=              0.0011    Y=              0.0019    Z=              0.4218  Tot=              0.4218
 Quadrupole moment (field-independent basis, Debye-Ang):
   XX=            -86.1298   YY=            -68.8862   ZZ=            -75.3076
   XY=              3.3633   XZ=             -0.0030   YZ=             -0.0067
 Traceless Quadrupole moment (field-independent basis, Debye-Ang):
   XX=             -9.3553   YY=              7.8883   ZZ=              1.4669
   XY=              3.3633   XZ=             -0.0030   YZ=             -0.0067
 Octapole moment (field-independent basis, Debye-Ang**2):
  XXX=              0.0241  YYY=             -0.0124  ZZZ=              9.3022  XYY=             -0.0030
  XXY=              0.0194  XXZ=             18.2109  XZZ=              0.0047  YZZ=              0.0156
  YYZ=             -3.5623  XYZ=              0.4364
 Hexadecapole moment (field-independent basis, Debye-Ang**3):
 XXXX=          -1164.9499 YYYY=           -240.8804 ZZZZ=           -273.3672 XXXY=             42.3965
 XXXZ=             -0.0511 YYYX=             16.9365 YYYZ=             -0.0265 ZZZX=             -0.0545
 ZZZY=             -0.0157 XXYY=           -229.8997 XXZZ=           -253.0065 YYZZ=            -87.3177
 XXYZ=             -0.0544 YYXZ=              0.0300 ZZXY=             18.8388
 N-N= 7.720747593540D+02 E-N=-4.759788845751D+03  KE= 1.344729229046D+03
 Entering OneElI...
 OneElI was handed  4294922501 working-precision words.
 Calculate electrostatic properties
    NBasis =   143  MinDer = 0  MaxDer = 0
    NGrid  =     9  NMatD  =   1
 Requested accuracy = 0.1000D-12
 ShPair: Thresh= 1.00D-13 NBox=     0 BxSize= 0.00D+00 RnKept= 9.25D+00
         NSMCal=                  741 NSMKep=                 630
 PrmmSu-InSpLW:  IPartL=    0 NPrtUS=   32 NPrtUL=    1 DoSpLW=F IThBeg=    0 IThEnd=   31 NThAct=   32.
 PrSmSu:  IncTry=   512 NBBP=           5670 NTPThr=   100 NPartT=   32 Incr=           1 LDynOK=F GPUOK=F.
 PrsmSu:  NPrtUS=  32 ThrOK=T IAlg=2 LenDen=           0 ISkipM=0 DoSpLW=F IThBeg=    0 IThEnd=   31.
 PRISM was handed   134183180 working-precision words and   630 shell-pairs
 PRISM was handed   134183180 working-precision words and   630 shell-pairs
 PRISM was handed   134183180 working-precision words and   630 shell-pairs
 PRISM was handed   134183180 working-precision words and   630 shell-pairs
 PRISM was handed   134183180 working-precision words and   630 shell-pairs
 PRISM was handed   134183180 working-precision words and   630 shell-pairs
 PRISM was handed   134183180 working-precision words and   630 shell-pairs
 PRISM was handed   134183180 working-precision words and   630 shell-pairs
 PRISM was handed   134183180 working-precision words and   630 shell-pairs
 PRISM was handed   134183180 working-precision words and   630 shell-pairs
 PRISM was handed   134183180 working-precision words and   630 shell-pairs
 PRISM was handed   134183180 working-precision words and   630 shell-pairs
 PRISM was handed   134183180 working-precision words and   630 shell-pairs
 Prism:   IPart=     0 DynPar=F LinDyn=F Incr=           1.
 PRISM was handed   134183180 working-precision words and   630 shell-pairs
 PRISM was handed   134183180 working-precision words and   630 shell-pairs
 PRISM was handed   134183180 working-precision words and   630 shell-pairs
 PRISM was handed   134183180 working-precision words and   630 shell-pairs
 PRISM was handed   134183180 working-precision words and   630 shell-pairs
 PRISM was handed   134183180 working-precision words and   630 shell-pairs
 PRISM was handed   134183180 working-precision words and   630 shell-pairs
 PRISM was handed   134183180 working-precision words and   630 shell-pairs
 PRISM was handed   134183180 working-precision words and   630 shell-pairs
 PRISM was handed   134183180 working-precision words and   630 shell-pairs
 PRISM was handed   134183180 working-precision words and   630 shell-pairs
 PRISM was handed   134183180 working-precision words and   630 shell-pairs
 PRISM was handed   134183180 working-precision words and   630 shell-pairs
 PRISM was handed   134183180 working-precision words and   630 shell-pairs
 PRISM was handed   134183180 working-precision words and   630 shell-pairs
 PRISM was handed   134183180 working-precision words and   630 shell-pairs
 PRISM was handed   134183180 working-precision words and   630 shell-pairs
 PRISM was handed   134183180 working-precision words and   630 shell-pairs
 PRISM was handed   134183180 working-precision words and   630 shell-pairs
 IPart=  1 NShTot=         432 NBatch=          48 AvBLen=         9.0
 PrsmSu-ThDecC:  IPartSL=    1    0 NPrtUSL=   32    1 IThBeg=    0 IThEnd=   31 CPU=   -1 GPU=   -1 NThAct=   32.
 IPart=  0 NShTot=         450 NBatch=          50 AvBLen=         9.0
 PrsmSu-ThDecC:  IPartSL=    0    0 NPrtUSL=   32    1 IThBeg=    0 IThEnd=   31 CPU=   -1 GPU=   -1 NThAct=   31.
 IPart= 27 NShTot=         108 NBatch=          12 AvBLen=         9.0
 PrsmSu-ThDecC:  IPartSL=   27    0 NPrtUSL=   32    1 IThBeg=    0 IThEnd=   31 CPU=   -1 GPU=   -1 NThAct=   30.
 IPart= 12 NShTot=         189 NBatch=          21 AvBLen=         9.0
 PrsmSu-ThDecC:  IPartSL=   12    0 NPrtUSL=   32    1 IThBeg=    0 IThEnd=   31 CPU=   -1 GPU=   -1 NThAct=   29.
 IPart= 30 NShTot=          99 NBatch=          11 AvBLen=         9.0
 PrsmSu-ThDecC:  IPartSL=   30    0 NPrtUSL=   32    1 IThBeg=    0 IThEnd=   31 CPU=   -1 GPU=   -1 NThAct=   28.
 IPart=  3 NShTot=         270 NBatch=          30 AvBLen=         9.0
 PrsmSu-ThDecC:  IPartSL=    3    0 NPrtUSL=   32    1 IThBeg=    0 IThEnd=   31 CPU=   -1 GPU=   -1 NThAct=   27.
 IPart= 26 NShTot=         108 NBatch=          12 AvBLen=         9.0
 PrsmSu-ThDecC:  IPartSL=   26    0 NPrtUSL=   32    1 IThBeg=    0 IThEnd=   31 CPU=   -1 GPU=   -1 NThAct=   26.
 IPart= 16 NShTot=         153 NBatch=          17 AvBLen=         9.0
 PrsmSu-ThDecC:  IPartSL=   16    0 NPrtUSL=   32    1 IThBeg=    0 IThEnd=   31 CPU=   -1 GPU=   -1 NThAct=   25.
 IPart= 21 NShTot=         108 NBatch=          12 AvBLen=         9.0
 PrsmSu-ThDecC:  IPartSL=   21    0 NPrtUSL=   32    1 IThBeg=    0 IThEnd=   31 CPU=   -1 GPU=   -1 NThAct=   24.
 IPart=  7 NShTot=         225 NBatch=          25 AvBLen=         9.0
 PrsmSu-ThDecC:  IPartSL=    7    0 NPrtUSL=   32    1 IThBeg=    0 IThEnd=   31 CPU=   -1 GPU=   -1 NThAct=   23.
 IPart= 23 NShTot=         108 NBatch=          12 AvBLen=         9.0
 PrsmSu-ThDecC:  IPartSL=   23    0 NPrtUSL=   32    1 IThBeg=    0 IThEnd=   31 CPU=   -1 GPU=   -1 NThAct=   22.
 IPart= 20 NShTot=         117 NBatch=          13 AvBLen=         9.0
 PrsmSu-ThDecC:  IPartSL=   20    0 NPrtUSL=   32    1 IThBeg=    0 IThEnd=   31 CPU=   -1 GPU=   -1 NThAct=   21.
 IPart= 11 NShTot=         198 NBatch=          22 AvBLen=         9.0
 PrsmSu-ThDecC:  IPartSL=   11    0 NPrtUSL=   32    1 IThBeg=    0 IThEnd=   31 CPU=   -1 GPU=   -1 NThAct=   20.
 IPart= 24 NShTot=         108 NBatch=          12 AvBLen=         9.0
 PrsmSu-ThDecC:  IPartSL=   24    0 NPrtUSL=   32    1 IThBeg=    0 IThEnd=   31 CPU=   -1 GPU=   -1 NThAct=   19.
 IPart= 29 NShTot=          99 NBatch=          11 AvBLen=         9.0
 PrsmSu-ThDecC:  IPartSL=   29    0 NPrtUSL=   32    1 IThBeg=    0 IThEnd=   31 CPU=   -1 GPU=   -1 NThAct=   18.
 IPart= 15 NShTot=         153 NBatch=          17 AvBLen=         9.0
 PrsmSu-ThDecC:  IPartSL=   15    0 NPrtUSL=   32    1 IThBeg=    0 IThEnd=   31 CPU=   -1 GPU=   -1 NThAct=   17.
 IPart= 19 NShTot=         126 NBatch=          14 AvBLen=         9.0
 PrsmSu-ThDecC:  IPartSL=   19    0 NPrtUSL=   32    1 IThBeg=    0 IThEnd=   31 CPU=   -1 GPU=   -1 NThAct=   16.
 IPart=  6 NShTot=         225 NBatch=          25 AvBLen=         9.0
 PrsmSu-ThDecC:  IPartSL=    6    0 NPrtUSL=   32    1 IThBeg=    0 IThEnd=   31 CPU=   -1 GPU=   -1 NThAct=   15.
 IPart=  4 NShTot=         243 NBatch=          27 AvBLen=         9.0
 PrsmSu-ThDecC:  IPartSL=    4    0 NPrtUSL=   32    1 IThBeg=    0 IThEnd=   31 CPU=   -1 GPU=   -1 NThAct=   14.
 IPart= 22 NShTot=         108 NBatch=          12 AvBLen=         9.0
 PrsmSu-ThDecC:  IPartSL=   22    0 NPrtUSL=   32    1 IThBeg=    0 IThEnd=   31 CPU=   -1 GPU=   -1 NThAct=   13.
 IPart= 10 NShTot=         198 NBatch=          22 AvBLen=         9.0
 PrsmSu-ThDecC:  IPartSL=   10    0 NPrtUSL=   32    1 IThBeg=    0 IThEnd=   31 CPU=   -1 GPU=   -1 NThAct=   12.
 IPart= 14 NShTot=         153 NBatch=          17 AvBLen=         9.0
 PrsmSu-ThDecC:  IPartSL=   14    0 NPrtUSL=   32    1 IThBeg=    0 IThEnd=   31 CPU=   -1 GPU=   -1 NThAct=   11.
 IPart= 31 NShTot=          99 NBatch=          11 AvBLen=         9.0
 PrsmSu-ThDecC:  IPartSL=   31    0 NPrtUSL=   32    1 IThBeg=    0 IThEnd=   31 CPU=   -1 GPU=   -1 NThAct=   10.
 IPart=  8 NShTot=         207 NBatch=          23 AvBLen=         9.0
 PrsmSu-ThDecC:  IPartSL=    8    0 NPrtUSL=   32    1 IThBeg=    0 IThEnd=   31 CPU=   -1 GPU=   -1 NThAct=    9.
 IPart= 18 NShTot=         135 NBatch=          15 AvBLen=         9.0
 PrsmSu-ThDecC:  IPartSL=   18    0 NPrtUSL=   32    1 IThBeg=    0 IThEnd=   31 CPU=   -1 GPU=   -1 NThAct=    8.
 IPart= 17 NShTot=         144 NBatch=          16 AvBLen=         9.0
 PrsmSu-ThDecC:  IPartSL=   17    0 NPrtUSL=   32    1 IThBeg=    0 IThEnd=   31 CPU=   -1 GPU=   -1 NThAct=    7.
 IPart= 25 NShTot=         108 NBatch=          12 AvBLen=         9.0
 PrsmSu-ThDecC:  IPartSL=   25    0 NPrtUSL=   32    1 IThBeg=    0 IThEnd=   31 CPU=   -1 GPU=   -1 NThAct=    6.
 IPart=  5 NShTot=         243 NBatch=          27 AvBLen=         9.0
 PrsmSu-ThDecC:  IPartSL=    5    0 NPrtUSL=   32    1 IThBeg=    0 IThEnd=   31 CPU=   -1 GPU=   -1 NThAct=    5.
 IPart= 28 NShTot=         108 NBatch=          12 AvBLen=         9.0
 PrsmSu-ThDecC:  IPartSL=   28    0 NPrtUSL=   32    1 IThBeg=    0 IThEnd=   31 CPU=   -1 GPU=   -1 NThAct=    4.
 IPart=  9 NShTot=         198 NBatch=          22 AvBLen=         9.0
 PrsmSu-ThDecC:  IPartSL=    9    0 NPrtUSL=   32    1 IThBeg=    0 IThEnd=   31 CPU=   -1 GPU=   -1 NThAct=    3.
 IPart=  2 NShTot=         270 NBatch=          30 AvBLen=         9.0
 PrsmSu-ThDecC:  IPartSL=    2    0 NPrtUSL=   32    1 IThBeg=    0 IThEnd=   31 CPU=   -1 GPU=   -1 NThAct=    2.
 IPart= 13 NShTot=         180 NBatch=          20 AvBLen=         9.0
 PrsmSu-ThDecC:  IPartSL=   13    0 NPrtUSL=   32    1 IThBeg=    0 IThEnd=   31 CPU=   -1 GPU=   -1 NThAct=    1.
 PrSmSu:  NxtVal=             33.
 --------------------------------------------------------
       Center         ----      EFG at Nuclei      ----
                      3XX-RR        3YY-RR        3ZZ-RR
 --------------------------------------------------------
     1   Atom        0.523839     -1.151497      0.627658
     2   Atom        1.142048     -2.120900      0.978852
     3   Atom        0.898234     -0.027292     -0.870941
     4   Atom       -0.394237      0.619674     -0.225437
     5   Atom       -1.071161      0.839213      0.231947
     6   Atom        0.524619     -1.149637      0.625018
     7   Atom        1.143683     -2.118147      0.974464
     8   Atom       -0.395206      0.621960     -0.226754
     9   Atom        0.898057     -0.031775     -0.866281
 --------------------------------------------------------
                        XY            XZ            YZ
 --------------------------------------------------------
     1   Atom       -0.382003     -0.419036     -0.675619
     2   Atom       -0.715229     -0.257978     -1.143952
     3   Atom       -0.043039     -0.026446      1.016250
     4   Atom        0.215418      1.200706     -0.361176
     5   Atom        0.164496     -0.000130      0.000321
     6   Atom       -0.379160      0.418978      0.680062
     7   Atom       -0.710710      0.258127      1.150316
     8   Atom        0.211121     -1.201508      0.357738
     9   Atom       -0.041690      0.027797     -1.017231
 --------------------------------------------------------


 ---------------------------------------------------------------------------------
              Nuclear Quadrupole Coupling Constant in Principal Axis System
 ---------------------------------------------------------------------------------

       Atom             a.u.   MegaHertz   Gauss  10(-4) cm-1        Axes

              Baa    -1.0852     5.212     1.860     1.739  0.9964 -0.0852  0.0001
     5 N(14)  Bbb     0.2319    -1.114    -0.397    -0.372 -0.0002 -0.0005  1.0000
              Bcc     0.8533    -4.098    -1.462    -1.367  0.0852  0.9964  0.0005
 

 ---------------------------------------------------------------------------------

 No NMR shielding tensors so no spin-rotation constants.
 Leave Link  601 at Sat Dec 21 15:19:45 2024, MaxMem=  4294967296 cpu:               2.0 elap:               0.2
 (Enter /Applications/g16/l602.exe)
 FitSet:  NAtFit=     9 NAtPot=     9 NAtFrz=     0 MDM=    13 TotChg=  -1.00000
 Merz-Kollman atomic radii used.
 Atom Element Radius
    1    16    1.75
    2     9    1.35
    3     8    1.40
    4     8    1.40
    5     7    1.50
    6    16    1.75
    7     9    1.35
    8     8    1.40
    9     8    1.40
 Generate VDW surfaces: Layer= 4 Dens= 6 Start= 1.400 Inc= 0.200

 **********************************************************************

            Electrostatic Properties Using The SCF Density.

 **********************************************************************

       Atomic Center    1 is at   1.391297 -0.151395 -0.086860
       Atomic Center    2 is at   1.690770  1.381144  0.421627
       Atomic Center    3 is at   1.381702 -0.919445  1.132259
       Atomic Center    4 is at   2.417047 -0.386885 -1.066950
       Atomic Center    5 is at   0.000003  0.000201 -0.836252
       Atomic Center    6 is at  -1.391466  0.151434 -0.087137
       Atomic Center    7 is at  -1.688962 -1.380514  0.424426
       Atomic Center    8 is at  -2.417535  0.383481 -1.067682
       Atomic Center    9 is at  -1.382912  0.921886  1.130277
      ESP Fit Center   10 is at   0.778797  0.909486  2.034903
      ESP Fit Center   11 is at   0.452892  0.636020  2.034903
      ESP Fit Center   12 is at   2.907728  0.273489  1.789949
      ESP Fit Center   13 is at   3.268106 -0.151395  1.487970
      ESP Fit Center   14 is at   3.221050  0.266234  1.487970
      ESP Fit Center   15 is at   3.082243  0.662922  1.487970
      ESP Fit Center   16 is at   3.513059 -0.151395  1.138140
      ESP Fit Center   17 is at   3.472290  0.262540  1.138140
      ESP Fit Center   18 is at   3.351550  0.660568  1.138140
      ESP Fit Center   19 is at   3.351550 -0.963358  1.138140
      ESP Fit Center   20 is at   3.472290 -0.565330  1.138140
      ESP Fit Center   21 is at   3.693544 -0.151395  0.751090
      ESP Fit Center   22 is at   3.654344  0.271642  0.751090
      ESP Fit Center   23 is at   3.538078  0.680273  0.751090
      ESP Fit Center   24 is at   3.348707 -1.363372  0.751090
      ESP Fit Center   25 is at   3.538078 -0.983062  0.751090
      ESP Fit Center   26 is at   3.654344 -0.574432  0.751090
      ESP Fit Center   27 is at   3.804076 -0.151395  0.338578
      ESP Fit Center   28 is at   3.767420  0.267580  0.338578
      ESP Fit Center   29 is at   3.658568  0.673824  0.338578
      ESP Fit Center   30 is at   2.597686 -2.240923  0.338578
      ESP Fit Center   31 is at   2.942201 -1.999691  0.338578
      ESP Fit Center   32 is at   3.239593 -1.702299  0.338578
      ESP Fit Center   33 is at   3.480825 -1.357784  0.338578
      ESP Fit Center   34 is at   3.658568 -0.976614  0.338578
      ESP Fit Center   35 is at   3.530181  1.043458 -0.086860
      ESP Fit Center   36 is at   0.288298 -2.339063 -0.086860
      ESP Fit Center   37 is at   0.673881 -2.494003 -0.086860
      ESP Fit Center   38 is at   1.080103 -2.581551 -0.086860
      ESP Fit Center   39 is at   1.495278 -2.599187 -0.086860
      ESP Fit Center   40 is at   1.907461 -2.546405 -0.086860
      ESP Fit Center   41 is at   2.304795 -2.424723 -0.086860
      ESP Fit Center   42 is at   2.675850 -2.237641 -0.086860
      ESP Fit Center   43 is at   3.009950 -1.990542 -0.086860
      ESP Fit Center   44 is at   0.184907 -2.240923 -0.512298
      ESP Fit Center   45 is at   0.566078 -2.418665 -0.512298
      ESP Fit Center   46 is at   0.972322 -2.527518 -0.512298
      ESP Fit Center   47 is at   1.391297 -2.564174 -0.512298
      ESP Fit Center   48 is at   1.810272 -2.527518 -0.512298
      ESP Fit Center   49 is at   2.216516 -2.418665 -0.512298
      ESP Fit Center   50 is at   0.365097 -2.212282 -0.924809
      ESP Fit Center   51 is at   0.761257 -2.365755 -0.924809
      ESP Fit Center   52 is at   1.178872 -2.443821 -0.924809
      ESP Fit Center   53 is at   1.603721 -2.443821 -0.924809
      ESP Fit Center   54 is at   2.021337 -2.365755 -0.924809
      ESP Fit Center   55 is at   2.570085  1.612786 -1.311860
      ESP Fit Center   56 is at   0.977362  1.929598 -1.311860
      ESP Fit Center   57 is at   0.579334 -2.111648 -1.311860
      ESP Fit Center   58 is at   0.977362 -2.232388 -1.311860
      ESP Fit Center   59 is at   1.391297 -2.273157 -1.311860
      ESP Fit Center   60 is at   2.205614  1.539552 -1.661689
      ESP Fit Center   61 is at   1.808926  1.678358 -1.661689
      ESP Fit Center   62 is at   1.391297  1.725414 -1.661689
      ESP Fit Center   63 is at   0.973668  1.678358 -1.661689
      ESP Fit Center   64 is at   0.973668 -1.981148 -1.661689
      ESP Fit Center   65 is at   1.391297 -2.028204 -1.661689
      ESP Fit Center   66 is at   1.711705  1.390496 -1.963669
      ESP Fit Center   67 is at   1.283827  1.419763 -1.963669
      ESP Fit Center   68 is at   0.863919 -1.635295 -1.963669
      ESP Fit Center   69 is at   1.283827 -1.722553 -1.963669
      ESP Fit Center   70 is at   1.604016  1.054995 -2.208622
      ESP Fit Center   71 is at   1.391297  0.686554 -2.389107
      ESP Fit Center   72 is at   1.690770  1.381144  2.311627
      ESP Fit Center   73 is at   2.111335  1.381144  2.264240
      ESP Fit Center   74 is at   1.901052  1.745363  2.264240
      ESP Fit Center   75 is at   1.480488  1.745363  2.264240
      ESP Fit Center   76 is at   1.270206  1.381144  2.264240
      ESP Fit Center   77 is at   1.480488  1.016924  2.264240
      ESP Fit Center   78 is at   1.901052  1.016924  2.264240
      ESP Fit Center   79 is at   2.510810  1.381144  2.124458
      ESP Fit Center   80 is at   2.400946  1.791164  2.124458
      ESP Fit Center   81 is at   2.100790  2.091319  2.124458
      ESP Fit Center   82 is at   1.690770  2.201184  2.124458
      ESP Fit Center   83 is at   1.280750  2.091319  2.124458
      ESP Fit Center   84 is at   0.980594  1.791164  2.124458
      ESP Fit Center   85 is at   0.870730  1.381144  2.124458
      ESP Fit Center   86 is at   0.980594  0.971123  2.124458
      ESP Fit Center   87 is at   2.100790  0.670968  2.124458
      ESP Fit Center   88 is at   2.400946  0.971123  2.124458
      ESP Fit Center   89 is at   2.869166  1.381144  1.899288
      ESP Fit Center   90 is at   2.798100  1.784179  1.899288
      ESP Fit Center   91 is at   2.593474  2.138602  1.899288
      ESP Fit Center   92 is at   2.279968  2.401664  1.899288
      ESP Fit Center   93 is at   1.895396  2.541637  1.899288
      ESP Fit Center   94 is at   1.486144  2.541637  1.899288
      ESP Fit Center   95 is at   1.101572  2.401664  1.899288
      ESP Fit Center   96 is at   0.788067  2.138602  1.899288
      ESP Fit Center   97 is at   0.583440  1.784179  1.899288
      ESP Fit Center   98 is at   0.512374  1.381144  1.899288
      ESP Fit Center   99 is at   2.798100  0.978109  1.899288
      ESP Fit Center  100 is at   3.168432  1.381144  1.600022
      ESP Fit Center  101 is at   3.108576  1.797449  1.600022
      ESP Fit Center  102 is at   2.933858  2.180028  1.600022
      ESP Fit Center  103 is at   2.658433  2.497886  1.600022
      ESP Fit Center  104 is at   2.304613  2.725272  1.600022
      ESP Fit Center  105 is at   1.901063  2.843765  1.600022
      ESP Fit Center  106 is at   1.480477  2.843765  1.600022
      ESP Fit Center  107 is at   1.076927  2.725272  1.600022
      ESP Fit Center  108 is at   0.723108  2.497886  1.600022
      ESP Fit Center  109 is at   0.447682  2.180028  1.600022
      ESP Fit Center  110 is at   3.108576  0.964838  1.600022
      ESP Fit Center  111 is at   3.393601  1.381144  1.241667
      ESP Fit Center  112 is at   3.344120  1.788658  1.241667
      ESP Fit Center  113 is at   3.198552  2.172489  1.241667
      ESP Fit Center  114 is at   2.965358  2.510330  1.241667
      ESP Fit Center  115 is at   2.658088  2.782546  1.241667
      ESP Fit Center  116 is at   2.294602  2.973318  1.241667
      ESP Fit Center  117 is at   1.896024  3.071559  1.241667
      ESP Fit Center  118 is at   1.485516  3.071559  1.241667
      ESP Fit Center  119 is at   1.086938  2.973318  1.241667
      ESP Fit Center  120 is at   0.723452  2.782546  1.241667
      ESP Fit Center  121 is at   0.416183  2.510330  1.241667
      ESP Fit Center  122 is at   0.182988  2.172489  1.241667
      ESP Fit Center  123 is at   3.344120  0.973629  1.241667
      ESP Fit Center  124 is at   3.533384  1.381144  0.842191
      ESP Fit Center  125 is at   3.487186  1.791164  0.842191
      ESP Fit Center  126 is at   3.350908  2.180624  0.842191
      ESP Fit Center  127 is at   3.131384  2.529994  0.842191
      ESP Fit Center  128 is at   2.839621  2.821757  0.842191
      ESP Fit Center  129 is at   2.490250  3.041281  0.842191
      ESP Fit Center  130 is at   2.100790  3.177559  0.842191
      ESP Fit Center  131 is at   1.690770  3.223757  0.842191
      ESP Fit Center  132 is at   1.280750  3.177559  0.842191
      ESP Fit Center  133 is at   0.891290  3.041281  0.842191
      ESP Fit Center  134 is at   0.541919  2.821757  0.842191
      ESP Fit Center  135 is at   0.250157  2.529994  0.842191
      ESP Fit Center  136 is at   3.487186  0.971123  0.842191
      ESP Fit Center  137 is at   3.580770  1.381144  0.421627
      ESP Fit Center  138 is at   3.536583  1.787438  0.421627
      ESP Fit Center  139 is at   3.406088  2.174734  0.421627
      ESP Fit Center  140 is at   3.195386  2.524923  0.421627
      ESP Fit Center  141 is at   2.914330  2.821630  0.421627
      ESP Fit Center  142 is at   2.576062  3.050981  0.421627
      ESP Fit Center  143 is at   2.196399  3.202253  0.421627
      ESP Fit Center  144 is at   1.793093  3.268372  0.421627
      ESP Fit Center  145 is at   1.385002  3.246246  0.421627
      ESP Fit Center  146 is at   0.991209  3.136910  0.421627
      ESP Fit Center  147 is at   0.630127  2.945476  0.421627
      ESP Fit Center  148 is at   0.318639  2.680896  0.421627
      ESP Fit Center  149 is at   0.071310  2.355540  0.421627
      ESP Fit Center  150 is at   3.536583  0.974849  0.421627
      ESP Fit Center  151 is at   3.533384  1.381144  0.001062
      ESP Fit Center  152 is at   3.487186  1.791164  0.001062
      ESP Fit Center  153 is at   3.350908  2.180624  0.001062
      ESP Fit Center  154 is at   3.131384  2.529994  0.001062
      ESP Fit Center  155 is at   2.839621  2.821757  0.001062
      ESP Fit Center  156 is at   2.490250  3.041281  0.001062
      ESP Fit Center  157 is at   2.100790  3.177559  0.001062
      ESP Fit Center  158 is at   1.690770  3.223757  0.001062
      ESP Fit Center  159 is at   1.280750  3.177559  0.001062
      ESP Fit Center  160 is at   0.891290  3.041281  0.001062
      ESP Fit Center  161 is at   0.541919  2.821757  0.001062
      ESP Fit Center  162 is at   0.250157  2.529994  0.001062
      ESP Fit Center  163 is at   0.030632  2.180624  0.001062
      ESP Fit Center  164 is at   3.393601  1.381144 -0.398414
      ESP Fit Center  165 is at   3.344120  1.788658 -0.398414
      ESP Fit Center  166 is at   3.198552  2.172489 -0.398414
      ESP Fit Center  167 is at   2.965358  2.510330 -0.398414
      ESP Fit Center  168 is at   2.658088  2.782546 -0.398414
      ESP Fit Center  169 is at   2.294602  2.973318 -0.398414
      ESP Fit Center  170 is at   1.896024  3.071559 -0.398414
      ESP Fit Center  171 is at   1.485516  3.071559 -0.398414
      ESP Fit Center  172 is at   1.086938  2.973318 -0.398414
      ESP Fit Center  173 is at   0.723452  2.782546 -0.398414
      ESP Fit Center  174 is at   0.416183  2.510330 -0.398414
      ESP Fit Center  175 is at   0.182988  2.172489 -0.398414
      ESP Fit Center  176 is at   3.108576  1.797449 -0.756769
      ESP Fit Center  177 is at   2.933858  2.180028 -0.756769
      ESP Fit Center  178 is at   2.658433  2.497886 -0.756769
      ESP Fit Center  179 is at   2.304613  2.725272 -0.756769
      ESP Fit Center  180 is at   1.901063  2.843765 -0.756769
      ESP Fit Center  181 is at   1.480477  2.843765 -0.756769
      ESP Fit Center  182 is at   1.076927  2.725272 -0.756769
      ESP Fit Center  183 is at   0.723108  2.497886 -0.756769
      ESP Fit Center  184 is at   0.447682  2.180028 -0.756769
      ESP Fit Center  185 is at   2.798100  1.784179 -1.056035
      ESP Fit Center  186 is at   2.593474  2.138602 -1.056035
      ESP Fit Center  187 is at   2.279968  2.401664 -1.056035
      ESP Fit Center  188 is at   1.895396  2.541637 -1.056035
      ESP Fit Center  189 is at   1.486144  2.541637 -1.056035
      ESP Fit Center  190 is at   1.101572  2.401664 -1.056035
      ESP Fit Center  191 is at   0.788067  2.138602 -1.056035
      ESP Fit Center  192 is at   2.400946  1.791164 -1.281205
      ESP Fit Center  193 is at   2.100790  2.091319 -1.281205
      ESP Fit Center  194 is at   1.690770  2.201184 -1.281205
      ESP Fit Center  195 is at   1.280750  2.091319 -1.281205
      ESP Fit Center  196 is at   1.381702 -0.919445  3.092259
      ESP Fit Center  197 is at   1.789209 -0.919445  3.049428
      ESP Fit Center  198 is at   1.585456 -0.566533  3.049428
      ESP Fit Center  199 is at   1.177949 -0.566533  3.049428
      ESP Fit Center  200 is at   0.974196 -0.919445  3.049428
      ESP Fit Center  201 is at   1.177949 -1.272356  3.049428
      ESP Fit Center  202 is at   1.585456 -1.272356  3.049428
      ESP Fit Center  203 is at   2.178906 -0.919445  2.922808
      ESP Fit Center  204 is at   2.072101 -0.520843  2.922808
      ESP Fit Center  205 is at   1.780304 -0.229046  2.922808
      ESP Fit Center  206 is at   1.381702 -0.122241  2.922808
      ESP Fit Center  207 is at   0.983101 -0.229046  2.922808
      ESP Fit Center  208 is at   0.691304 -0.520843  2.922808
      ESP Fit Center  209 is at   0.584499 -0.919445  2.922808
      ESP Fit Center  210 is at   0.691304 -1.318047  2.922808
      ESP Fit Center  211 is at   0.983101 -1.609844  2.922808
      ESP Fit Center  212 is at   1.381702 -1.716649  2.922808
      ESP Fit Center  213 is at   1.780304 -1.609844  2.922808
      ESP Fit Center  214 is at   2.072101 -1.318047  2.922808
      ESP Fit Center  215 is at   2.533762 -0.919445  2.717932
      ESP Fit Center  216 is at   2.455966 -0.503273  2.717932
      ESP Fit Center  217 is at   2.233084 -0.143308  2.717932
      ESP Fit Center  218 is at   1.895219  0.111836  2.717932
      ESP Fit Center  219 is at   1.488001  0.227700  2.717932
      ESP Fit Center  220 is at   1.066427  0.188635  2.717932
      ESP Fit Center  221 is at   0.687432 -0.000082  2.717932
      ESP Fit Center  222 is at   0.402202 -0.312964  2.717932
      ESP Fit Center  223 is at   0.249259 -0.707754  2.717932
      ESP Fit Center  224 is at   0.249259 -1.131135  2.717932
      ESP Fit Center  225 is at   0.402202 -1.525926  2.717932
      ESP Fit Center  226 is at   0.687432 -1.838808  2.717932
      ESP Fit Center  227 is at   1.066427 -2.027525  2.717932
      ESP Fit Center  228 is at   1.488001 -2.066589  2.717932
      ESP Fit Center  229 is at   1.895219 -1.950726  2.717932
      ESP Fit Center  230 is at   2.233084 -1.695582  2.717932
      ESP Fit Center  231 is at   2.455966 -1.335617  2.717932
      ESP Fit Center  232 is at   2.838266 -0.919445  2.443755
      ESP Fit Center  233 is at   2.779265 -0.509083  2.443755
      ESP Fit Center  234 is at   2.607042 -0.131967  2.443755
      ESP Fit Center  235 is at   2.335549  0.181353  2.443755
      ESP Fit Center  236 is at   1.986781  0.405492  2.443755
      ESP Fit Center  237 is at   1.588993  0.522293  2.443755
      ESP Fit Center  238 is at   1.174412  0.522293  2.443755
      ESP Fit Center  239 is at   0.776624  0.405492  2.443755
      ESP Fit Center  240 is at   0.427856  0.181353  2.443755
      ESP Fit Center  241 is at   0.156363 -0.131967  2.443755
      ESP Fit Center  242 is at  -0.015860 -0.509083  2.443755
      ESP Fit Center  243 is at  -0.074861 -0.919445  2.443755
      ESP Fit Center  244 is at  -0.015860 -1.329806  2.443755
      ESP Fit Center  245 is at   0.156363 -1.706923  2.443755
      ESP Fit Center  246 is at   0.427856 -2.020242  2.443755
      ESP Fit Center  247 is at   0.776624 -2.244382  2.443755
      ESP Fit Center  248 is at   1.174412 -2.361183  2.443755
      ESP Fit Center  249 is at   1.588993 -2.361183  2.443755
      ESP Fit Center  250 is at   1.986781 -2.244382  2.443755
      ESP Fit Center  251 is at   2.335549 -2.020242  2.443755
      ESP Fit Center  252 is at   2.607042 -1.706923  2.443755
      ESP Fit Center  253 is at   2.779265 -1.329806  2.443755
      ESP Fit Center  254 is at   3.079112 -0.919445  2.112259
      ESP Fit Center  255 is at   3.025785 -0.497316  2.112259
      ESP Fit Center  256 is at   2.869154 -0.101711  2.112259
      ESP Fit Center  257 is at   2.619061  0.242512  2.112259
      ESP Fit Center  258 is at   2.291220  0.513726  2.112259
      ESP Fit Center  259 is at   0.299733  0.388432  2.112259
      ESP Fit Center  260 is at  -0.196509 -0.294587  2.112259
      ESP Fit Center  261 is at  -0.302323 -0.706703  2.112259
      ESP Fit Center  262 is at  -0.302323 -1.132187  2.112259
      ESP Fit Center  263 is at  -0.196509 -1.544303  2.112259
      ESP Fit Center  264 is at   0.008469 -1.917157  2.112259
      ESP Fit Center  265 is at   0.299733 -2.227321  2.112259
      ESP Fit Center  266 is at   0.658981 -2.455307  2.112259
      ESP Fit Center  267 is at   1.063640 -2.586789  2.112259
      ESP Fit Center  268 is at   1.488284 -2.613505  2.112259
      ESP Fit Center  269 is at   1.906231 -2.533777  2.112259
      ESP Fit Center  270 is at   2.291220 -2.352615  2.112259
      ESP Fit Center  271 is at   2.619061 -2.081402  2.112259
      ESP Fit Center  272 is at   2.869154 -1.737178  2.112259
      ESP Fit Center  273 is at   3.025785 -1.341573  2.112259
      ESP Fit Center  274 is at   3.245773 -0.919445  1.737932
      ESP Fit Center  275 is at   3.199037 -0.504650  1.737932
      ESP Fit Center  276 is at   3.061172 -0.110655  1.737932
      ESP Fit Center  277 is at  -0.297767 -1.728235  1.737932
      ESP Fit Center  278 is at  -0.075687 -2.081674  1.737932
      ESP Fit Center  279 is at   0.219473 -2.376834  1.737932
      ESP Fit Center  280 is at   0.572912 -2.598914  1.737932
      ESP Fit Center  281 is at   0.966908 -2.736779  1.737932
      ESP Fit Center  282 is at   1.381702 -2.783516  1.737932
      ESP Fit Center  283 is at   1.796497 -2.736779  1.737932
      ESP Fit Center  284 is at   2.190492 -2.598914  1.737932
      ESP Fit Center  285 is at   2.543932 -2.376834  1.737932
      ESP Fit Center  286 is at   2.839092 -2.081674  1.737932
      ESP Fit Center  287 is at   3.061172 -1.728235  1.737932
      ESP Fit Center  288 is at   3.199037 -1.334240  1.737932
      ESP Fit Center  289 is at   3.330965 -0.919445  1.337135
      ESP Fit Center  290 is at  -0.033454 -2.259952  1.337135
      ESP Fit Center  291 is at   0.287801 -2.532828  1.337135
      ESP Fit Center  292 is at   0.660206 -2.730265  1.337135
      ESP Fit Center  293 is at   1.066347 -2.843029  1.337135
      ESP Fit Center  294 is at   1.487233 -2.865849  1.337135
      ESP Fit Center  295 is at   1.903186 -2.797657  1.337135
      ESP Fit Center  296 is at   2.294754 -2.641642  1.337135
      ESP Fit Center  297 is at   2.643629 -2.405099  1.337135
      ESP Fit Center  298 is at   2.933497 -2.099088  1.337135
      ESP Fit Center  299 is at   3.150806 -1.737919  1.337135
      ESP Fit Center  300 is at   3.285393 -1.338479  1.337135
      ESP Fit Center  301 is at  -0.033454 -2.259952  0.927383
      ESP Fit Center  302 is at   0.287801 -2.532828  0.927383
      ESP Fit Center  303 is at   0.660206 -2.730265  0.927383
      ESP Fit Center  304 is at   1.066347 -2.843029  0.927383
      ESP Fit Center  305 is at   1.487233 -2.865849  0.927383
      ESP Fit Center  306 is at   1.903186 -2.797657  0.927383
      ESP Fit Center  307 is at   2.294754 -2.641642  0.927383
      ESP Fit Center  308 is at   2.643629 -2.405099  0.927383
      ESP Fit Center  309 is at   2.933497 -2.099088  0.927383
      ESP Fit Center  310 is at   3.150806 -1.737919  0.927383
      ESP Fit Center  311 is at   3.285393 -1.338479  0.927383
      ESP Fit Center  312 is at   0.219473 -2.376834  0.526586
      ESP Fit Center  313 is at   0.572912 -2.598914  0.526586
      ESP Fit Center  314 is at   0.966908 -2.736779  0.526586
      ESP Fit Center  315 is at   1.381702 -2.783516  0.526586
      ESP Fit Center  316 is at   1.796497 -2.736779  0.526586
      ESP Fit Center  317 is at   2.190492 -2.598914  0.526586
      ESP Fit Center  318 is at   2.543932 -2.376834  0.526586
      ESP Fit Center  319 is at   2.839092 -2.081674  0.526586
      ESP Fit Center  320 is at   1.063640 -2.586789  0.152259
      ESP Fit Center  321 is at   1.488284 -2.613505  0.152259
      ESP Fit Center  322 is at   3.873611 -0.386885  0.244546
      ESP Fit Center  323 is at   3.814610  0.023477  0.244546
      ESP Fit Center  324 is at   3.642387 -1.174363  0.244546
      ESP Fit Center  325 is at   3.814610 -0.797246  0.244546
      ESP Fit Center  326 is at   4.114457 -0.386885 -0.086950
      ESP Fit Center  327 is at   4.061130  0.035244 -0.086950
      ESP Fit Center  328 is at   3.904499  0.430848 -0.086950
      ESP Fit Center  329 is at   3.326565 -1.820055 -0.086950
      ESP Fit Center  330 is at   3.654406 -1.548842 -0.086950
      ESP Fit Center  331 is at   3.904499 -1.204618 -0.086950
      ESP Fit Center  332 is at   4.061130 -0.809014 -0.086950
      ESP Fit Center  333 is at   4.281118 -0.386885 -0.461276
      ESP Fit Center  334 is at   4.234382  0.027910 -0.461276
      ESP Fit Center  335 is at   4.096517  0.421905 -0.461276
      ESP Fit Center  336 is at   3.874436  0.775344 -0.461276
      ESP Fit Center  337 is at   3.579276  1.070504 -0.461276
      ESP Fit Center  338 is at   2.831842 -2.204220 -0.461276
      ESP Fit Center  339 is at   3.225837 -2.066355 -0.461276
      ESP Fit Center  340 is at   3.579276 -1.844274 -0.461276
      ESP Fit Center  341 is at   3.874436 -1.549114 -0.461276
      ESP Fit Center  342 is at   4.096517 -1.195675 -0.461276
      ESP Fit Center  343 is at   4.234382 -0.801680 -0.461276
      ESP Fit Center  344 is at   4.366310 -0.386885 -0.862074
      ESP Fit Center  345 is at   4.320737  0.032149 -0.862074
      ESP Fit Center  346 is at   4.186150  0.431589 -0.862074
      ESP Fit Center  347 is at   3.968842  0.792759 -0.862074
      ESP Fit Center  348 is at   3.678973  1.098769 -0.862074
      ESP Fit Center  349 is at   3.330098  1.335312 -0.862074
      ESP Fit Center  350 is at   2.522578 -2.333289 -0.862074
      ESP Fit Center  351 is at   2.938530 -2.265097 -0.862074
      ESP Fit Center  352 is at   3.330098 -2.109082 -0.862074
      ESP Fit Center  353 is at   3.678973 -1.872539 -0.862074
      ESP Fit Center  354 is at   3.968842 -1.566529 -0.862074
      ESP Fit Center  355 is at   4.186150 -1.205359 -0.862074
      ESP Fit Center  356 is at   4.320737 -0.805919 -0.862074
      ESP Fit Center  357 is at   4.366310 -0.386885 -1.271825
      ESP Fit Center  358 is at   4.320737  0.032149 -1.271825
      ESP Fit Center  359 is at   4.186150  0.431589 -1.271825
      ESP Fit Center  360 is at   3.968842  0.792759 -1.271825
      ESP Fit Center  361 is at   3.678973  1.098769 -1.271825
      ESP Fit Center  362 is at   3.330098  1.335312 -1.271825
      ESP Fit Center  363 is at   2.938530  1.491327 -1.271825
      ESP Fit Center  364 is at   2.101692 -2.310469 -1.271825
      ESP Fit Center  365 is at   2.522578 -2.333289 -1.271825
      ESP Fit Center  366 is at   2.938530 -2.265097 -1.271825
      ESP Fit Center  367 is at   3.330098 -2.109082 -1.271825
      ESP Fit Center  368 is at   3.678973 -1.872539 -1.271825
      ESP Fit Center  369 is at   3.968842 -1.566529 -1.271825
      ESP Fit Center  370 is at   4.186150 -1.205359 -1.271825
      ESP Fit Center  371 is at   4.320737 -0.805919 -1.271825
      ESP Fit Center  372 is at   4.281118 -0.386885 -1.672623
      ESP Fit Center  373 is at   4.234382  0.027910 -1.672623
      ESP Fit Center  374 is at   4.096517  0.421905 -1.672623
      ESP Fit Center  375 is at   3.874436  0.775344 -1.672623
      ESP Fit Center  376 is at   3.579276  1.070504 -1.672623
      ESP Fit Center  377 is at   3.225837  1.292585 -1.672623
      ESP Fit Center  378 is at   2.831842  1.430450 -1.672623
      ESP Fit Center  379 is at   2.417047  1.477186 -1.672623
      ESP Fit Center  380 is at   1.608257 -2.066355 -1.672623
      ESP Fit Center  381 is at   2.002252 -2.204220 -1.672623
      ESP Fit Center  382 is at   2.417047 -2.250956 -1.672623
      ESP Fit Center  383 is at   2.831842 -2.204220 -1.672623
      ESP Fit Center  384 is at   3.225837 -2.066355 -1.672623
      ESP Fit Center  385 is at   3.579276 -1.844274 -1.672623
      ESP Fit Center  386 is at   3.874436 -1.549114 -1.672623
      ESP Fit Center  387 is at   4.096517 -1.195675 -1.672623
      ESP Fit Center  388 is at   4.234382 -0.801680 -1.672623
      ESP Fit Center  389 is at   4.114457 -0.386885 -2.046950
      ESP Fit Center  390 is at   4.061130  0.035244 -2.046950
      ESP Fit Center  391 is at   3.904499  0.430848 -2.046950
      ESP Fit Center  392 is at   3.654406  0.775072 -2.046950
      ESP Fit Center  393 is at   3.326565  1.046286 -2.046950
      ESP Fit Center  394 is at   2.941576  1.227448 -2.046950
      ESP Fit Center  395 is at   2.523628  1.307175 -2.046950
      ESP Fit Center  396 is at   2.098984  1.280459 -2.046950
      ESP Fit Center  397 is at   1.335077 -1.694762 -2.046950
      ESP Fit Center  398 is at   1.694325 -1.922747 -2.046950
      ESP Fit Center  399 is at   2.098984 -2.054229 -2.046950
      ESP Fit Center  400 is at   2.523628 -2.080945 -2.046950
      ESP Fit Center  401 is at   2.941576 -2.001218 -2.046950
      ESP Fit Center  402 is at   3.326565 -1.820055 -2.046950
      ESP Fit Center  403 is at   3.654406 -1.548842 -2.046950
      ESP Fit Center  404 is at   3.904499 -1.204618 -2.046950
      ESP Fit Center  405 is at   4.061130 -0.809014 -2.046950
      ESP Fit Center  406 is at   3.873611 -0.386885 -2.378446
      ESP Fit Center  407 is at   3.814610  0.023477 -2.378446
      ESP Fit Center  408 is at   3.642387  0.400593 -2.378446
      ESP Fit Center  409 is at   3.370894  0.713913 -2.378446
      ESP Fit Center  410 is at   3.022126  0.938052 -2.378446
      ESP Fit Center  411 is at   2.624338  1.054853 -2.378446
      ESP Fit Center  412 is at   2.209757  1.054853 -2.378446
      ESP Fit Center  413 is at   1.811969  0.938052 -2.378446
      ESP Fit Center  414 is at   1.463201  0.713913 -2.378446
      ESP Fit Center  415 is at   1.191708 -1.174363 -2.378446
      ESP Fit Center  416 is at   1.463201 -1.487682 -2.378446
      ESP Fit Center  417 is at   1.811969 -1.711822 -2.378446
      ESP Fit Center  418 is at   2.209757 -1.828623 -2.378446
      ESP Fit Center  419 is at   2.624338 -1.828623 -2.378446
      ESP Fit Center  420 is at   3.022126 -1.711822 -2.378446
      ESP Fit Center  421 is at   3.370894 -1.487682 -2.378446
      ESP Fit Center  422 is at   3.642387 -1.174363 -2.378446
      ESP Fit Center  423 is at   3.814610 -0.797246 -2.378446
      ESP Fit Center  424 is at   3.569106 -0.386885 -2.652623
      ESP Fit Center  425 is at   3.491310  0.029287 -2.652623
      ESP Fit Center  426 is at   3.268429  0.389252 -2.652623
      ESP Fit Center  427 is at   2.930564  0.644396 -2.652623
      ESP Fit Center  428 is at   2.523346  0.760260 -2.652623
      ESP Fit Center  429 is at   2.101771  0.721195 -2.652623
      ESP Fit Center  430 is at   1.722777  0.532478 -2.652623
      ESP Fit Center  431 is at   1.437547  0.219596 -2.652623
      ESP Fit Center  432 is at   1.284604 -0.175195 -2.652623
      ESP Fit Center  433 is at   1.284604 -0.598575 -2.652623
      ESP Fit Center  434 is at   1.437547 -0.993366 -2.652623
      ESP Fit Center  435 is at   1.722777 -1.306248 -2.652623
      ESP Fit Center  436 is at   2.101771 -1.494965 -2.652623
      ESP Fit Center  437 is at   2.523346 -1.534030 -2.652623
      ESP Fit Center  438 is at   2.930564 -1.418166 -2.652623
      ESP Fit Center  439 is at   3.268429 -1.163022 -2.652623
      ESP Fit Center  440 is at   3.491310 -0.803057 -2.652623
      ESP Fit Center  441 is at   3.214251 -0.386885 -2.857499
      ESP Fit Center  442 is at   3.107446  0.011717 -2.857499
      ESP Fit Center  443 is at   2.815649  0.303514 -2.857499
      ESP Fit Center  444 is at   2.417047  0.410319 -2.857499
      ESP Fit Center  445 is at   2.018445  0.303514 -2.857499
      ESP Fit Center  446 is at   1.726648  0.011717 -2.857499
      ESP Fit Center  447 is at   1.619843 -0.386885 -2.857499
      ESP Fit Center  448 is at   1.726648 -0.785487 -2.857499
      ESP Fit Center  449 is at   2.018445 -1.077284 -2.857499
      ESP Fit Center  450 is at   2.417047 -1.184089 -2.857499
      ESP Fit Center  451 is at   2.815649 -1.077284 -2.857499
      ESP Fit Center  452 is at   3.107446 -0.785487 -2.857499
      ESP Fit Center  453 is at   2.824554 -0.386885 -2.984119
      ESP Fit Center  454 is at   2.620801 -0.033974 -2.984119
      ESP Fit Center  455 is at   2.213294 -0.033974 -2.984119
      ESP Fit Center  456 is at   2.009540 -0.386885 -2.984119
      ESP Fit Center  457 is at   2.213294 -0.739796 -2.984119
      ESP Fit Center  458 is at   2.620801 -0.739796 -2.984119
      ESP Fit Center  459 is at   2.417047 -0.386885 -3.026950
      ESP Fit Center  460 is at   0.409692  2.059850 -0.836252
      ESP Fit Center  461 is at   0.000003  2.100201 -0.836252
      ESP Fit Center  462 is at  -0.409687 -2.059448 -0.836252
      ESP Fit Center  463 is at   0.000003 -2.099799 -0.836252
      ESP Fit Center  464 is at   0.715330  1.931641 -1.245941
      ESP Fit Center  465 is at   0.311891  2.036099 -1.245941
      ESP Fit Center  466 is at  -0.104317  2.057206 -1.245941
      ESP Fit Center  467 is at  -0.516254 -1.993699 -1.245941
      ESP Fit Center  468 is at  -0.104317 -2.056805 -1.245941
      ESP Fit Center  469 is at   0.311891 -2.035697 -1.245941
      ESP Fit Center  470 is at   0.908784  1.714344 -1.639887
      ESP Fit Center  471 is at   0.519047  1.869629 -1.639887
      ESP Fit Center  472 is at   0.105040  1.937502 -1.639887
      ESP Fit Center  473 is at  -0.313878  1.914789 -1.639887
      ESP Fit Center  474 is at  -0.718120 -1.802151 -1.639887
      ESP Fit Center  475 is at  -0.313878 -1.914388 -1.639887
      ESP Fit Center  476 is at   0.105040 -1.937101 -1.639887
      ESP Fit Center  477 is at   0.519047 -1.869228 -1.639887
      ESP Fit Center  478 is at   0.991893  1.437201 -2.002949
      ESP Fit Center  479 is at   0.619173  1.632820 -2.002949
      ESP Fit Center  480 is at   0.210470  1.733556 -2.002949
      ESP Fit Center  481 is at  -0.210465  1.733556 -2.002949
      ESP Fit Center  482 is at  -0.619168  1.632820 -2.002949
      ESP Fit Center  483 is at  -0.991887 -1.436800 -2.002949
      ESP Fit Center  484 is at  -0.619168 -1.632418 -2.002949
      ESP Fit Center  485 is at  -0.210465 -1.733155 -2.002949
      ESP Fit Center  486 is at   0.210470 -1.733155 -2.002949
      ESP Fit Center  487 is at   0.619173 -1.632418 -2.002949
      ESP Fit Center  488 is at   0.972421  1.122431 -2.321176
      ESP Fit Center  489 is at   0.616862  1.350935 -2.321176
      ESP Fit Center  490 is at   0.211329  1.470010 -2.321176
      ESP Fit Center  491 is at  -0.211324  1.470010 -2.321176
      ESP Fit Center  492 is at  -0.616857  1.350935 -2.321176
      ESP Fit Center  493 is at  -0.972416  1.122431 -2.321176
      ESP Fit Center  494 is at  -0.972416 -1.122030 -2.321176
      ESP Fit Center  495 is at  -0.616857 -1.350534 -2.321176
      ESP Fit Center  496 is at  -0.211324 -1.469609 -2.321176
      ESP Fit Center  497 is at   0.211329 -1.469609 -2.321176
      ESP Fit Center  498 is at   0.616862 -1.350534 -2.321176
      ESP Fit Center  499 is at   0.972421 -1.122030 -2.321176
      ESP Fit Center  500 is at   1.166700  0.000201 -2.582338
      ESP Fit Center  501 is at   1.087916  0.421660 -2.582338
      ESP Fit Center  502 is at   0.862202  0.786200 -2.582338
      ESP Fit Center  503 is at   0.520044  1.044585 -2.582338
      ESP Fit Center  504 is at   0.107652  1.161921 -2.582338
      ESP Fit Center  505 is at  -0.319279  1.122360 -2.582338
      ESP Fit Center  506 is at  -0.703090  0.931245 -2.582338
      ESP Fit Center  507 is at  -0.991944  0.614388 -2.582338
      ESP Fit Center  508 is at  -1.146830  0.214581 -2.582338
      ESP Fit Center  509 is at  -1.146830 -0.214179 -2.582338
      ESP Fit Center  510 is at  -0.991944 -0.613986 -2.582338
      ESP Fit Center  511 is at  -0.703090 -0.930844 -2.582338
      ESP Fit Center  512 is at  -0.319279 -1.121959 -2.582338
      ESP Fit Center  513 is at   0.107652 -1.161520 -2.582338
      ESP Fit Center  514 is at   0.520044 -1.044184 -2.582338
      ESP Fit Center  515 is at   0.862202 -0.785798 -2.582338
      ESP Fit Center  516 is at   1.087916 -0.421259 -2.582338
      ESP Fit Center  517 is at   0.803638  0.000201 -2.776399
      ESP Fit Center  518 is at   0.695971  0.402018 -2.776399
      ESP Fit Center  519 is at   0.401820  0.696169 -2.776399
      ESP Fit Center  520 is at   0.000003  0.803836 -2.776399
      ESP Fit Center  521 is at  -0.401815  0.696169 -2.776399
      ESP Fit Center  522 is at  -0.695966  0.402018 -2.776399
      ESP Fit Center  523 is at  -0.803633  0.000201 -2.776399
      ESP Fit Center  524 is at  -0.695966 -0.401617 -2.776399
      ESP Fit Center  525 is at  -0.401815 -0.695768 -2.776399
      ESP Fit Center  526 is at   0.000003 -0.803435 -2.776399
      ESP Fit Center  527 is at   0.401820 -0.695768 -2.776399
      ESP Fit Center  528 is at   0.695971 -0.401617 -2.776399
      ESP Fit Center  529 is at   0.409692  0.000201 -2.895901
      ESP Fit Center  530 is at   0.204847  0.355002 -2.895901
      ESP Fit Center  531 is at  -0.204842  0.355002 -2.895901
      ESP Fit Center  532 is at  -0.409687  0.000201 -2.895901
      ESP Fit Center  533 is at  -0.204842 -0.354601 -2.895901
      ESP Fit Center  534 is at   0.204847 -0.354601 -2.895901
      ESP Fit Center  535 is at   0.000003  0.000201 -2.936252
      ESP Fit Center  536 is at  -0.778966 -0.909447  2.034625
      ESP Fit Center  537 is at  -0.453062 -0.635980  2.034625
      ESP Fit Center  538 is at  -2.951628 -0.063005  1.789672
      ESP Fit Center  539 is at  -2.835918 -0.475979  1.789672
      ESP Fit Center  540 is at  -3.268275  0.151434  1.487692
      ESP Fit Center  541 is at  -3.221220 -0.266195  1.487692
      ESP Fit Center  542 is at  -3.082413 -0.662882  1.487692
      ESP Fit Center  543 is at  -3.351719  0.963398  1.137863
      ESP Fit Center  544 is at  -3.472459  0.565370  1.137863
      ESP Fit Center  545 is at  -3.513228  0.151434  1.137863
      ESP Fit Center  546 is at  -3.472459 -0.262501  1.137863
      ESP Fit Center  547 is at  -3.351719 -0.660529  1.137863
      ESP Fit Center  548 is at  -3.348876  1.363411  0.750812
      ESP Fit Center  549 is at  -3.538248  0.983102  0.750812
      ESP Fit Center  550 is at  -3.654513  0.574471  0.750812
      ESP Fit Center  551 is at  -3.693713  0.151434  0.750812
      ESP Fit Center  552 is at  -3.654513 -0.271602  0.750812
      ESP Fit Center  553 is at  -3.538248 -0.680233  0.750812
      ESP Fit Center  554 is at  -2.597856  2.240962  0.338301
      ESP Fit Center  555 is at  -2.942371  1.999730  0.338301
      ESP Fit Center  556 is at  -3.239762  1.702339  0.338301
      ESP Fit Center  557 is at  -3.480994  1.357824  0.338301
      ESP Fit Center  558 is at  -3.658737  0.976653  0.338301
      ESP Fit Center  559 is at  -3.804245  0.151434  0.338301
      ESP Fit Center  560 is at  -3.767590 -0.267540  0.338301
      ESP Fit Center  561 is at  -3.658737 -0.673785  0.338301
      ESP Fit Center  562 is at  -0.106913  2.237681 -0.087137
      ESP Fit Center  563 is at  -0.477968  2.424763 -0.087137
      ESP Fit Center  564 is at  -0.875302  2.546445 -0.087137
      ESP Fit Center  565 is at  -1.287485  2.599227 -0.087137
      ESP Fit Center  566 is at  -1.702660  2.581590 -0.087137
      ESP Fit Center  567 is at  -2.108882  2.494043 -0.087137
      ESP Fit Center  568 is at  -2.494465  2.339103 -0.087137
      ESP Fit Center  569 is at  -2.848318  2.121227 -0.087137
      ESP Fit Center  570 is at  -3.623976 -0.857724 -0.087137
      ESP Fit Center  571 is at  -0.185077  2.240962 -0.512575
      ESP Fit Center  572 is at  -0.566247  2.418705 -0.512575
      ESP Fit Center  573 is at  -0.972492  2.527558 -0.512575
      ESP Fit Center  574 is at  -1.391466  2.564213 -0.512575
      ESP Fit Center  575 is at  -1.810441  2.527558 -0.512575
      ESP Fit Center  576 is at  -2.216685  2.418705 -0.512575
      ESP Fit Center  577 is at  -0.365267  2.212321 -0.925087
      ESP Fit Center  578 is at  -0.761426  2.365795 -0.925087
      ESP Fit Center  579 is at  -1.179042  2.443860 -0.925087
      ESP Fit Center  580 is at  -1.603891  2.443860 -0.925087
      ESP Fit Center  581 is at  -2.021506  2.365795 -0.925087
      ESP Fit Center  582 is at  -0.579503  2.111687 -1.312137
      ESP Fit Center  583 is at  -0.977531  2.232428 -1.312137
      ESP Fit Center  584 is at  -1.391466  2.273197 -1.312137
      ESP Fit Center  585 is at  -1.805402  2.232428 -1.312137
      ESP Fit Center  586 is at  -2.570254 -1.612746 -1.312137
      ESP Fit Center  587 is at  -0.977531 -1.929559 -1.312137
      ESP Fit Center  588 is at  -0.973837  1.981188 -1.661967
      ESP Fit Center  589 is at  -1.391466  2.028243 -1.661967
      ESP Fit Center  590 is at  -2.205783 -1.539512 -1.661967
      ESP Fit Center  591 is at  -1.809096 -1.678319 -1.661967
      ESP Fit Center  592 is at  -1.391466 -1.725374 -1.661967
      ESP Fit Center  593 is at  -0.973837 -1.678319 -1.661967
      ESP Fit Center  594 is at  -1.071058  1.693325 -1.963946
      ESP Fit Center  595 is at  -1.918845 -1.332466 -1.963946
      ESP Fit Center  596 is at  -1.498936 -1.419724 -1.963946
      ESP Fit Center  597 is at  -1.604185 -1.054955 -2.208899
      ESP Fit Center  598 is at  -1.391466 -0.686515 -2.389384
      ESP Fit Center  599 is at  -1.688962 -1.380514  2.314426
      ESP Fit Center  600 is at  -1.268398 -1.380514  2.267040
      ESP Fit Center  601 is at  -1.478680 -1.016294  2.267040
      ESP Fit Center  602 is at  -1.899244 -1.016294  2.267040
      ESP Fit Center  603 is at  -2.109527 -1.380514  2.267040
      ESP Fit Center  604 is at  -1.899244 -1.744734  2.267040
      ESP Fit Center  605 is at  -1.478680 -1.744734  2.267040
      ESP Fit Center  606 is at  -0.868922 -1.380514  2.127258
      ESP Fit Center  607 is at  -0.978786 -0.970494  2.127258
      ESP Fit Center  608 is at  -2.098982 -0.670338  2.127258
      ESP Fit Center  609 is at  -2.399138 -0.970494  2.127258
      ESP Fit Center  610 is at  -2.509002 -1.380514  2.127258
      ESP Fit Center  611 is at  -2.399138 -1.790534  2.127258
      ESP Fit Center  612 is at  -2.098982 -2.090690  2.127258
      ESP Fit Center  613 is at  -1.688962 -2.200554  2.127258
      ESP Fit Center  614 is at  -1.278942 -2.090690  2.127258
      ESP Fit Center  615 is at  -0.978786 -1.790534  2.127258
      ESP Fit Center  616 is at  -0.510566 -1.380514  1.902088
      ESP Fit Center  617 is at  -2.796292 -0.977479  1.902088
      ESP Fit Center  618 is at  -2.867358 -1.380514  1.902088
      ESP Fit Center  619 is at  -2.796292 -1.783549  1.902088
      ESP Fit Center  620 is at  -2.591666 -2.137972  1.902088
      ESP Fit Center  621 is at  -2.278160 -2.401035  1.902088
      ESP Fit Center  622 is at  -1.893588 -2.541007  1.902088
      ESP Fit Center  623 is at  -1.484336 -2.541007  1.902088
      ESP Fit Center  624 is at  -1.099764 -2.401035  1.902088
      ESP Fit Center  625 is at  -0.786259 -2.137972  1.902088
      ESP Fit Center  626 is at  -0.581632 -1.783549  1.902088
      ESP Fit Center  627 is at  -3.106768 -0.964209  1.602822
      ESP Fit Center  628 is at  -3.166624 -1.380514  1.602822
      ESP Fit Center  629 is at  -3.106768 -1.796819  1.602822
      ESP Fit Center  630 is at  -2.932050 -2.179398  1.602822
      ESP Fit Center  631 is at  -2.656625 -2.497256  1.602822
      ESP Fit Center  632 is at  -2.302805 -2.724642  1.602822
      ESP Fit Center  633 is at  -1.899255 -2.843135  1.602822
      ESP Fit Center  634 is at  -1.478669 -2.843135  1.602822
      ESP Fit Center  635 is at  -1.075119 -2.724642  1.602822
      ESP Fit Center  636 is at  -0.721300 -2.497256  1.602822
      ESP Fit Center  637 is at  -0.445874 -2.179398  1.602822
      ESP Fit Center  638 is at  -3.342312 -0.973000  1.244467
      ESP Fit Center  639 is at  -3.391793 -1.380514  1.244467
      ESP Fit Center  640 is at  -3.342312 -1.788028  1.244467
      ESP Fit Center  641 is at  -3.196744 -2.171859  1.244467
      ESP Fit Center  642 is at  -2.963550 -2.509700  1.244467
      ESP Fit Center  643 is at  -2.656280 -2.781917  1.244467
      ESP Fit Center  644 is at  -2.292794 -2.972689  1.244467
      ESP Fit Center  645 is at  -1.894216 -3.070930  1.244467
      ESP Fit Center  646 is at  -1.483708 -3.070930  1.244467
      ESP Fit Center  647 is at  -1.085130 -2.972689  1.244467
      ESP Fit Center  648 is at  -0.721644 -2.781917  1.244467
      ESP Fit Center  649 is at  -0.414375 -2.509700  1.244467
      ESP Fit Center  650 is at  -0.181180 -2.171859  1.244467
      ESP Fit Center  651 is at  -3.485378 -0.970494  0.844991
      ESP Fit Center  652 is at  -3.531576 -1.380514  0.844991
      ESP Fit Center  653 is at  -3.485378 -1.790534  0.844991
      ESP Fit Center  654 is at  -3.349100 -2.179994  0.844991
      ESP Fit Center  655 is at  -3.129576 -2.529365  0.844991
      ESP Fit Center  656 is at  -2.837813 -2.821128  0.844991
      ESP Fit Center  657 is at  -2.488442 -3.040652  0.844991
      ESP Fit Center  658 is at  -2.098982 -3.176930  0.844991
      ESP Fit Center  659 is at  -1.688962 -3.223128  0.844991
      ESP Fit Center  660 is at  -1.278942 -3.176930  0.844991
      ESP Fit Center  661 is at  -0.889482 -3.040652  0.844991
      ESP Fit Center  662 is at  -0.540111 -2.821128  0.844991
      ESP Fit Center  663 is at  -0.248349 -2.529365  0.844991
      ESP Fit Center  664 is at  -3.567883 -1.176169  0.424426
      ESP Fit Center  665 is at  -3.567883 -1.584859  0.424426
      ESP Fit Center  666 is at  -3.480027 -1.983994  0.424426
      ESP Fit Center  667 is at  -3.308422 -2.354911  0.424426
      ESP Fit Center  668 is at  -3.061094 -2.680266  0.424426
      ESP Fit Center  669 is at  -2.749606 -2.944846  0.424426
      ESP Fit Center  670 is at  -2.388523 -3.136280  0.424426
      ESP Fit Center  671 is at  -1.994730 -3.245616  0.424426
      ESP Fit Center  672 is at  -1.586640 -3.267742  0.424426
      ESP Fit Center  673 is at  -1.183334 -3.201624  0.424426
      ESP Fit Center  674 is at  -0.803670 -3.050352  0.424426
      ESP Fit Center  675 is at  -0.465402 -2.821000  0.424426
      ESP Fit Center  676 is at  -0.184346 -2.524293  0.424426
      ESP Fit Center  677 is at   0.026355 -2.174104  0.424426
      ESP Fit Center  678 is at  -3.531576 -1.380514  0.003862
      ESP Fit Center  679 is at  -3.485378 -1.790534  0.003862
      ESP Fit Center  680 is at  -3.349100 -2.179994  0.003862
      ESP Fit Center  681 is at  -3.129576 -2.529365  0.003862
      ESP Fit Center  682 is at  -2.837813 -2.821128  0.003862
      ESP Fit Center  683 is at  -2.488442 -3.040652  0.003862
      ESP Fit Center  684 is at  -2.098982 -3.176930  0.003862
      ESP Fit Center  685 is at  -1.688962 -3.223128  0.003862
      ESP Fit Center  686 is at  -1.278942 -3.176930  0.003862
      ESP Fit Center  687 is at  -0.889482 -3.040652  0.003862
      ESP Fit Center  688 is at  -0.540111 -2.821128  0.003862
      ESP Fit Center  689 is at  -0.248349 -2.529365  0.003862
      ESP Fit Center  690 is at  -0.028824 -2.179994  0.003862
      ESP Fit Center  691 is at  -3.391793 -1.380514 -0.395614
      ESP Fit Center  692 is at  -3.342312 -1.788028 -0.395614
      ESP Fit Center  693 is at  -3.196744 -2.171859 -0.395614
      ESP Fit Center  694 is at  -2.963550 -2.509700 -0.395614
      ESP Fit Center  695 is at  -2.656280 -2.781917 -0.395614
      ESP Fit Center  696 is at  -2.292794 -2.972689 -0.395614
      ESP Fit Center  697 is at  -1.894216 -3.070930 -0.395614
      ESP Fit Center  698 is at  -1.483708 -3.070930 -0.395614
      ESP Fit Center  699 is at  -1.085130 -2.972689 -0.395614
      ESP Fit Center  700 is at  -0.721644 -2.781917 -0.395614
      ESP Fit Center  701 is at  -0.414375 -2.509700 -0.395614
      ESP Fit Center  702 is at  -0.181180 -2.171859 -0.395614
      ESP Fit Center  703 is at  -3.106768 -1.796819 -0.753969
      ESP Fit Center  704 is at  -2.932050 -2.179398 -0.753969
      ESP Fit Center  705 is at  -2.656625 -2.497256 -0.753969
      ESP Fit Center  706 is at  -2.302805 -2.724642 -0.753969
      ESP Fit Center  707 is at  -1.899255 -2.843135 -0.753969
      ESP Fit Center  708 is at  -1.478669 -2.843135 -0.753969
      ESP Fit Center  709 is at  -1.075119 -2.724642 -0.753969
      ESP Fit Center  710 is at  -0.721300 -2.497256 -0.753969
      ESP Fit Center  711 is at  -0.445874 -2.179398 -0.753969
      ESP Fit Center  712 is at  -2.796292 -1.783549 -1.053235
      ESP Fit Center  713 is at  -2.591666 -2.137972 -1.053235
      ESP Fit Center  714 is at  -2.278160 -2.401035 -1.053235
      ESP Fit Center  715 is at  -1.893588 -2.541007 -1.053235
      ESP Fit Center  716 is at  -1.484336 -2.541007 -1.053235
      ESP Fit Center  717 is at  -1.099764 -2.401035 -1.053235
      ESP Fit Center  718 is at  -0.786259 -2.137972 -1.053235
      ESP Fit Center  719 is at  -2.399138 -1.790534 -1.278405
      ESP Fit Center  720 is at  -2.098982 -2.090690 -1.278405
      ESP Fit Center  721 is at  -1.688962 -2.200554 -1.278405
      ESP Fit Center  722 is at  -1.278942 -2.090690 -1.278405
      ESP Fit Center  723 is at  -3.642874  1.170959  0.243814
      ESP Fit Center  724 is at  -3.815098  0.793842  0.243814
      ESP Fit Center  725 is at  -3.874099  0.383481  0.243814
      ESP Fit Center  726 is at  -3.815098 -0.026880  0.243814
      ESP Fit Center  727 is at  -3.140257  1.919343 -0.087682
      ESP Fit Center  728 is at  -3.499505  1.691358 -0.087682
      ESP Fit Center  729 is at  -3.790768  1.381193 -0.087682
      ESP Fit Center  730 is at  -3.995747  1.008339 -0.087682
      ESP Fit Center  731 is at  -4.101560  0.596223 -0.087682
      ESP Fit Center  732 is at  -4.101560  0.170739 -0.087682
      ESP Fit Center  733 is at  -3.995747 -0.241377 -0.087682
      ESP Fit Center  734 is at  -3.790768 -0.614231 -0.087682
      ESP Fit Center  735 is at  -2.832330  2.200816 -0.462009
      ESP Fit Center  736 is at  -3.226325  2.062951 -0.462009
      ESP Fit Center  737 is at  -3.579764  1.840870 -0.462009
      ESP Fit Center  738 is at  -3.874924  1.545710 -0.462009
      ESP Fit Center  739 is at  -4.097005  1.192271 -0.462009
      ESP Fit Center  740 is at  -4.234870  0.798276 -0.462009
      ESP Fit Center  741 is at  -4.281606  0.383481 -0.462009
      ESP Fit Center  742 is at  -4.234870 -0.031314 -0.462009
      ESP Fit Center  743 is at  -4.097005 -0.425309 -0.462009
      ESP Fit Center  744 is at  -3.874924 -0.778748 -0.462009
      ESP Fit Center  745 is at  -3.579764 -1.073908 -0.462009
      ESP Fit Center  746 is at  -2.312004  2.329885 -0.862806
      ESP Fit Center  747 is at  -2.732891  2.307065 -0.862806
      ESP Fit Center  748 is at  -3.139031  2.194301 -0.862806
      ESP Fit Center  749 is at  -3.511436  1.996864 -0.862806
      ESP Fit Center  750 is at  -3.832691  1.723988 -0.862806
      ESP Fit Center  751 is at  -4.087775  1.388431 -0.862806
      ESP Fit Center  752 is at  -4.264760  1.005884 -0.862806
      ESP Fit Center  753 is at  -4.355371  0.594233 -0.862806
      ESP Fit Center  754 is at  -4.355371  0.172729 -0.862806
      ESP Fit Center  755 is at  -4.264760 -0.238922 -0.862806
      ESP Fit Center  756 is at  -4.087775 -0.621469 -0.862806
      ESP Fit Center  757 is at  -3.832691 -0.957026 -0.862806
      ESP Fit Center  758 is at  -3.511436 -1.229902 -0.862806
      ESP Fit Center  759 is at  -3.139031 -1.427339 -0.862806
      ESP Fit Center  760 is at  -1.896052  2.261693 -1.272558
      ESP Fit Center  761 is at  -2.312004  2.329885 -1.272558
      ESP Fit Center  762 is at  -2.732891  2.307065 -1.272558
      ESP Fit Center  763 is at  -3.139031  2.194301 -1.272558
      ESP Fit Center  764 is at  -3.511436  1.996864 -1.272558
      ESP Fit Center  765 is at  -3.832691  1.723988 -1.272558
      ESP Fit Center  766 is at  -4.087775  1.388431 -1.272558
      ESP Fit Center  767 is at  -4.264760  1.005884 -1.272558
      ESP Fit Center  768 is at  -4.355371  0.594233 -1.272558
      ESP Fit Center  769 is at  -4.355371  0.172729 -1.272558
      ESP Fit Center  770 is at  -4.264760 -0.238922 -1.272558
      ESP Fit Center  771 is at  -4.087775 -0.621469 -1.272558
      ESP Fit Center  772 is at  -3.832691 -0.957026 -1.272558
      ESP Fit Center  773 is at  -3.511436 -1.229902 -1.272558
      ESP Fit Center  774 is at  -3.139031 -1.427339 -1.272558
      ESP Fit Center  775 is at  -2.732891 -1.540103 -1.272558
      ESP Fit Center  776 is at  -1.608745  2.062951 -1.673356
      ESP Fit Center  777 is at  -2.002740  2.200816 -1.673356
      ESP Fit Center  778 is at  -2.417535  2.247552 -1.673356
      ESP Fit Center  779 is at  -2.832330  2.200816 -1.673356
      ESP Fit Center  780 is at  -3.226325  2.062951 -1.673356
      ESP Fit Center  781 is at  -3.579764  1.840870 -1.673356
      ESP Fit Center  782 is at  -3.874924  1.545710 -1.673356
      ESP Fit Center  783 is at  -4.097005  1.192271 -1.673356
      ESP Fit Center  784 is at  -4.234870  0.798276 -1.673356
      ESP Fit Center  785 is at  -4.281606  0.383481 -1.673356
      ESP Fit Center  786 is at  -4.234870 -0.031314 -1.673356
      ESP Fit Center  787 is at  -4.097005 -0.425309 -1.673356
      ESP Fit Center  788 is at  -3.874924 -0.778748 -1.673356
      ESP Fit Center  789 is at  -3.579764 -1.073908 -1.673356
      ESP Fit Center  790 is at  -3.226325 -1.295989 -1.673356
      ESP Fit Center  791 is at  -2.832330 -1.433854 -1.673356
      ESP Fit Center  792 is at  -2.417535 -1.480590 -1.673356
      ESP Fit Center  793 is at  -1.508017  1.816651 -2.047682
      ESP Fit Center  794 is at  -1.893006  1.997814 -2.047682
      ESP Fit Center  795 is at  -2.310954  2.077541 -2.047682
      ESP Fit Center  796 is at  -2.735598  2.050825 -2.047682
      ESP Fit Center  797 is at  -3.140257  1.919343 -2.047682
      ESP Fit Center  798 is at  -3.499505  1.691358 -2.047682
      ESP Fit Center  799 is at  -3.790768  1.381193 -2.047682
      ESP Fit Center  800 is at  -3.995747  1.008339 -2.047682
      ESP Fit Center  801 is at  -4.101560  0.596223 -2.047682
      ESP Fit Center  802 is at  -4.101560  0.170739 -2.047682
      ESP Fit Center  803 is at  -3.995747 -0.241377 -2.047682
      ESP Fit Center  804 is at  -3.790768 -0.614231 -2.047682
      ESP Fit Center  805 is at  -3.499505 -0.924396 -2.047682
      ESP Fit Center  806 is at  -3.140257 -1.152381 -2.047682
      ESP Fit Center  807 is at  -2.735598 -1.283863 -2.047682
      ESP Fit Center  808 is at  -2.310954 -1.310579 -2.047682
      ESP Fit Center  809 is at  -1.893006 -1.230852 -2.047682
      ESP Fit Center  810 is at  -1.192195  1.170959 -2.379178
      ESP Fit Center  811 is at  -1.463688  1.484278 -2.379178
      ESP Fit Center  812 is at  -1.812456  1.708418 -2.379178
      ESP Fit Center  813 is at  -2.210244  1.825219 -2.379178
      ESP Fit Center  814 is at  -2.624826  1.825219 -2.379178
      ESP Fit Center  815 is at  -3.022613  1.708418 -2.379178
      ESP Fit Center  816 is at  -3.371381  1.484278 -2.379178
      ESP Fit Center  817 is at  -3.642874  1.170959 -2.379178
      ESP Fit Center  818 is at  -3.815098  0.793842 -2.379178
      ESP Fit Center  819 is at  -3.874099  0.383481 -2.379178
      ESP Fit Center  820 is at  -3.815098 -0.026880 -2.379178
      ESP Fit Center  821 is at  -3.642874 -0.403997 -2.379178
      ESP Fit Center  822 is at  -3.371381 -0.717317 -2.379178
      ESP Fit Center  823 is at  -3.022613 -0.941456 -2.379178
      ESP Fit Center  824 is at  -2.624826 -1.058257 -2.379178
      ESP Fit Center  825 is at  -2.210244 -1.058257 -2.379178
      ESP Fit Center  826 is at  -1.812456 -0.941456 -2.379178
      ESP Fit Center  827 is at  -1.463688 -0.717317 -2.379178
      ESP Fit Center  828 is at  -1.265476  0.383481 -2.653356
      ESP Fit Center  829 is at  -1.343272  0.799653 -2.653356
      ESP Fit Center  830 is at  -1.566153  1.159618 -2.653356
      ESP Fit Center  831 is at  -1.904018  1.414762 -2.653356
      ESP Fit Center  832 is at  -2.311236  1.530626 -2.653356
      ESP Fit Center  833 is at  -2.732811  1.491561 -2.653356
      ESP Fit Center  834 is at  -3.111806  1.302844 -2.653356
      ESP Fit Center  835 is at  -3.397035  0.989962 -2.653356
      ESP Fit Center  836 is at  -3.549978  0.595171 -2.653356
      ESP Fit Center  837 is at  -3.549978  0.171791 -2.653356
      ESP Fit Center  838 is at  -3.397035 -0.223000 -2.653356
      ESP Fit Center  839 is at  -3.111806 -0.535882 -2.653356
      ESP Fit Center  840 is at  -2.732811 -0.724599 -2.653356
      ESP Fit Center  841 is at  -2.311236 -0.763664 -2.653356
      ESP Fit Center  842 is at  -1.904018 -0.647800 -2.653356
      ESP Fit Center  843 is at  -1.566153 -0.392656 -2.653356
      ESP Fit Center  844 is at  -1.343272 -0.032691 -2.653356
      ESP Fit Center  845 is at  -1.620331  0.383481 -2.858231
      ESP Fit Center  846 is at  -1.727136  0.782083 -2.858231
      ESP Fit Center  847 is at  -2.018933  1.073880 -2.858231
      ESP Fit Center  848 is at  -2.417535  1.180685 -2.858231
      ESP Fit Center  849 is at  -2.816137  1.073880 -2.858231
      ESP Fit Center  850 is at  -3.107934  0.782083 -2.858231
      ESP Fit Center  851 is at  -3.214739  0.383481 -2.858231
      ESP Fit Center  852 is at  -3.107934 -0.015121 -2.858231
      ESP Fit Center  853 is at  -2.816137 -0.306918 -2.858231
      ESP Fit Center  854 is at  -2.417535 -0.413723 -2.858231
      ESP Fit Center  855 is at  -2.018933 -0.306918 -2.858231
      ESP Fit Center  856 is at  -1.727136 -0.015121 -2.858231
      ESP Fit Center  857 is at  -2.010028  0.383481 -2.984852
      ESP Fit Center  858 is at  -2.213781  0.736392 -2.984852
      ESP Fit Center  859 is at  -2.621288  0.736392 -2.984852
      ESP Fit Center  860 is at  -2.825042  0.383481 -2.984852
      ESP Fit Center  861 is at  -2.621288  0.030570 -2.984852
      ESP Fit Center  862 is at  -2.213781  0.030570 -2.984852
      ESP Fit Center  863 is at  -2.417535  0.383481 -3.027682
      ESP Fit Center  864 is at  -1.382912  0.921886  3.090277
      ESP Fit Center  865 is at  -0.975405  0.921886  3.047446
      ESP Fit Center  866 is at  -1.179159  1.274797  3.047446
      ESP Fit Center  867 is at  -1.586666  1.274797  3.047446
      ESP Fit Center  868 is at  -1.790419  0.921886  3.047446
      ESP Fit Center  869 is at  -1.586666  0.568974  3.047446
      ESP Fit Center  870 is at  -1.179159  0.568974  3.047446
      ESP Fit Center  871 is at  -0.585709  0.921886  2.920826
      ESP Fit Center  872 is at  -0.692514  1.320488  2.920826
      ESP Fit Center  873 is at  -0.984310  1.612285  2.920826
      ESP Fit Center  874 is at  -1.382912  1.719090  2.920826
      ESP Fit Center  875 is at  -1.781514  1.612285  2.920826
      ESP Fit Center  876 is at  -2.073311  1.320488  2.920826
      ESP Fit Center  877 is at  -2.180116  0.921886  2.920826
      ESP Fit Center  878 is at  -2.073311  0.523284  2.920826
      ESP Fit Center  879 is at  -1.781514  0.231487  2.920826
      ESP Fit Center  880 is at  -1.382912  0.124682  2.920826
      ESP Fit Center  881 is at  -0.984310  0.231487  2.920826
      ESP Fit Center  882 is at  -0.692514  0.523284  2.920826
      ESP Fit Center  883 is at  -0.230853  0.921886  2.715950
      ESP Fit Center  884 is at  -0.308649  1.338058  2.715950
      ESP Fit Center  885 is at  -0.531530  1.698023  2.715950
      ESP Fit Center  886 is at  -0.869395  1.953167  2.715950
      ESP Fit Center  887 is at  -1.276614  2.069030  2.715950
      ESP Fit Center  888 is at  -1.698188  2.029966  2.715950
      ESP Fit Center  889 is at  -2.077183  1.841249  2.715950
      ESP Fit Center  890 is at  -2.362413  1.528367  2.715950
      ESP Fit Center  891 is at  -2.515355  1.133576  2.715950
      ESP Fit Center  892 is at  -2.515355  0.710196  2.715950
      ESP Fit Center  893 is at  -2.362413  0.315405  2.715950
      ESP Fit Center  894 is at  -2.077183  0.002523  2.715950
      ESP Fit Center  895 is at  -1.698188 -0.186194  2.715950
      ESP Fit Center  896 is at  -1.276614 -0.225259  2.715950
      ESP Fit Center  897 is at  -0.869395 -0.109395  2.715950
      ESP Fit Center  898 is at  -0.531530  0.145749  2.715950
      ESP Fit Center  899 is at  -0.308649  0.505714  2.715950
      ESP Fit Center  900 is at   0.073651  0.921886  2.441773
      ESP Fit Center  901 is at   0.014650  1.332247  2.441773
      ESP Fit Center  902 is at  -0.157573  1.709364  2.441773
      ESP Fit Center  903 is at  -0.429066  2.022683  2.441773
      ESP Fit Center  904 is at  -0.777834  2.246823  2.441773
      ESP Fit Center  905 is at  -1.175622  2.363624  2.441773
      ESP Fit Center  906 is at  -1.590203  2.363624  2.441773
      ESP Fit Center  907 is at  -1.987991  2.246823  2.441773
      ESP Fit Center  908 is at  -2.336759  2.022683  2.441773
      ESP Fit Center  909 is at  -2.608252  1.709364  2.441773
      ESP Fit Center  910 is at  -2.780475  1.332247  2.441773
      ESP Fit Center  911 is at  -2.839476  0.921886  2.441773
      ESP Fit Center  912 is at  -2.780475  0.511524  2.441773
      ESP Fit Center  913 is at  -2.608252  0.134408  2.441773
      ESP Fit Center  914 is at  -2.336759 -0.178912  2.441773
      ESP Fit Center  915 is at  -1.987991 -0.403051  2.441773
      ESP Fit Center  916 is at  -1.590203 -0.519852  2.441773
      ESP Fit Center  917 is at  -1.175622 -0.519852  2.441773
      ESP Fit Center  918 is at  -0.777834 -0.403051  2.441773
      ESP Fit Center  919 is at  -0.429066 -0.178912  2.441773
      ESP Fit Center  920 is at  -0.157573  0.134408  2.441773
      ESP Fit Center  921 is at   0.014650  0.511524  2.441773
      ESP Fit Center  922 is at   0.314497  0.921886  2.110277
      ESP Fit Center  923 is at   0.261170  1.344014  2.110277
      ESP Fit Center  924 is at   0.104539  1.739619  2.110277
      ESP Fit Center  925 is at  -0.145554  2.083843  2.110277
      ESP Fit Center  926 is at  -0.473395  2.355056  2.110277
      ESP Fit Center  927 is at  -0.858384  2.536218  2.110277
      ESP Fit Center  928 is at  -1.276331  2.615946  2.110277
      ESP Fit Center  929 is at  -1.700975  2.589230  2.110277
      ESP Fit Center  930 is at  -2.105634  2.457748  2.110277
      ESP Fit Center  931 is at  -2.464882  2.229763  2.110277
      ESP Fit Center  932 is at  -2.756146  1.919598  2.110277
      ESP Fit Center  933 is at  -2.961124  1.546744  2.110277
      ESP Fit Center  934 is at  -3.066938  1.134628  2.110277
      ESP Fit Center  935 is at  -3.066938  0.709144  2.110277
      ESP Fit Center  936 is at  -2.961124  0.297028  2.110277
      ESP Fit Center  937 is at  -2.756146 -0.075827  2.110277
      ESP Fit Center  938 is at  -2.464882 -0.385991  2.110277
      ESP Fit Center  939 is at  -0.473395 -0.511285  2.110277
      ESP Fit Center  940 is at   0.261170  0.499757  2.110277
      ESP Fit Center  941 is at   0.296557  1.730676  1.735950
      ESP Fit Center  942 is at   0.074477  2.084115  1.735950
      ESP Fit Center  943 is at  -0.220683  2.379275  1.735950
      ESP Fit Center  944 is at  -0.574122  2.601356  1.735950
      ESP Fit Center  945 is at  -0.968118  2.739220  1.735950
      ESP Fit Center  946 is at  -1.382912  2.785957  1.735950
      ESP Fit Center  947 is at  -1.797707  2.739220  1.735950
      ESP Fit Center  948 is at  -2.191702  2.601356  1.735950
      ESP Fit Center  949 is at  -2.545142  2.379275  1.735950
      ESP Fit Center  950 is at  -2.840302  2.084115  1.735950
      ESP Fit Center  951 is at  -3.062382  1.730676  1.735950
      ESP Fit Center  952 is at  -3.200247  1.336681  1.735950
      ESP Fit Center  953 is at  -3.246983  0.921886  1.735950
      ESP Fit Center  954 is at  -3.200247  0.507091  1.735950
      ESP Fit Center  955 is at  -3.062382  0.113096  1.735950
      ESP Fit Center  956 is at   0.168882  2.101529  1.335153
      ESP Fit Center  957 is at  -0.120986  2.407540  1.335153
      ESP Fit Center  958 is at  -0.469861  2.644083  1.335153
      ESP Fit Center  959 is at  -0.861429  2.800098  1.335153
      ESP Fit Center  960 is at  -1.277381  2.868290  1.335153
      ESP Fit Center  961 is at  -1.698268  2.845470  1.335153
      ESP Fit Center  962 is at  -2.104409  2.732706  1.335153
      ESP Fit Center  963 is at  -2.476814  2.535269  1.335153
      ESP Fit Center  964 is at  -2.798068  2.262393  1.335153
      ESP Fit Center  965 is at  -3.053152  1.926836  1.335153
      ESP Fit Center  966 is at  -3.230138  1.544288  1.335153
      ESP Fit Center  967 is at  -3.320749  1.132638  1.335153
      ESP Fit Center  968 is at  -3.320749  0.711133  1.335153
      ESP Fit Center  969 is at  -0.120986  2.407540  0.925401
      ESP Fit Center  970 is at  -0.469861  2.644083  0.925401
      ESP Fit Center  971 is at  -0.861429  2.800098  0.925401
      ESP Fit Center  972 is at  -1.277381  2.868290  0.925401
      ESP Fit Center  973 is at  -1.698268  2.845470  0.925401
      ESP Fit Center  974 is at  -2.104409  2.732706  0.925401
      ESP Fit Center  975 is at  -2.476814  2.535269  0.925401
      ESP Fit Center  976 is at  -2.798068  2.262393  0.925401
      ESP Fit Center  977 is at  -3.053152  1.926836  0.925401
      ESP Fit Center  978 is at  -3.230138  1.544288  0.925401
      ESP Fit Center  979 is at  -0.220683  2.379275  0.524604
      ESP Fit Center  980 is at  -0.574122  2.601356  0.524604
      ESP Fit Center  981 is at  -0.968118  2.739220  0.524604
      ESP Fit Center  982 is at  -1.382912  2.785957  0.524604
      ESP Fit Center  983 is at  -1.797707  2.739220  0.524604
      ESP Fit Center  984 is at  -2.191702  2.601356  0.524604
      ESP Fit Center  985 is at  -2.545142  2.379275  0.524604
      ESP Fit Center  986 is at  -2.840302  2.084115  0.524604
      ESP Fit Center  987 is at  -0.858384  2.536218  0.150277
      ESP Fit Center  988 is at  -1.276331  2.615946  0.150277
      ESP Fit Center  989 is at  -1.700975  2.589230  0.150277
      ESP Fit Center  990 is at   0.783860  0.900717  2.435853
      ESP Fit Center  991 is at   2.757275  0.637253  2.226609
      ESP Fit Center  992 is at   3.251255  0.258013  1.965686
      ESP Fit Center  993 is at   3.119759  0.648277  1.965686
      ESP Fit Center  994 is at   3.580425 -0.151395  1.658912
      ESP Fit Center  995 is at   3.540865  0.262900  1.658912
      ESP Fit Center  996 is at   3.423613  0.662222  1.658912
      ESP Fit Center  997 is at   3.540865 -0.565690  1.658912
      ESP Fit Center  998 is at   3.816168 -0.151395  1.313140
      ESP Fit Center  999 is at   3.781288  0.258410  1.313140
      ESP Fit Center 1000 is at   3.677653  0.656426  1.313140
      ESP Fit Center 1001 is at   3.677653 -0.959216  1.313140
      ESP Fit Center 1002 is at   3.781288 -0.561200  1.313140
      ESP Fit Center 1003 is at   3.997743 -0.151395  0.936095
      ESP Fit Center 1004 is at   3.965654  0.256343  0.936095
      ESP Fit Center 1005 is at   3.870175  0.654041  0.936095
      ESP Fit Center 1006 is at   3.499956 -1.683426  0.936095
      ESP Fit Center 1007 is at   3.713658 -1.334697  0.936095
      ESP Fit Center 1008 is at   3.870175 -0.956831  0.936095
      ESP Fit Center 1009 is at   3.965654 -0.559133  0.936095
      ESP Fit Center 1010 is at   4.121095 -0.151395  0.536199
      ESP Fit Center 1011 is at   4.089103  0.265307  0.536199
      ESP Fit Center 1012 is at   3.993877  0.672241  0.536199
      ESP Fit Center 1013 is at   3.837648  1.059871  0.536199
      ESP Fit Center 1014 is at   3.046170 -2.322384  0.536199
      ESP Fit Center 1015 is at   3.358175 -2.044326  0.536199
      ESP Fit Center 1016 is at   3.624079 -1.721899  0.536199
      ESP Fit Center 1017 is at   3.837648 -1.362660  0.536199
      ESP Fit Center 1018 is at   3.993877 -0.975031  0.536199
      ESP Fit Center 1019 is at   4.089103 -0.568097  0.536199
      ESP Fit Center 1020 is at   4.059419  0.671612  0.122385
      ESP Fit Center 1021 is at   3.906956  1.060083  0.122385
      ESP Fit Center 1022 is at   0.371202 -2.750553  0.122385
      ESP Fit Center 1023 is at   0.769980 -2.873560  0.122385
      ESP Fit Center 1024 is at   1.182638 -2.935758  0.122385
      ESP Fit Center 1025 is at   1.599956 -2.935758  0.122385
      ESP Fit Center 1026 is at   2.012613 -2.873560  0.122385
      ESP Fit Center 1027 is at   2.411391 -2.750553  0.122385
      ESP Fit Center 1028 is at   2.787382 -2.569486  0.122385
      ESP Fit Center 1029 is at   3.132187 -2.334402  0.122385
      ESP Fit Center 1030 is at   3.438103 -2.050553  0.122385
      ESP Fit Center 1031 is at  -0.004788 -2.569486 -0.296104
      ESP Fit Center 1032 is at   0.371202 -2.750553 -0.296104
      ESP Fit Center 1033 is at   0.769980 -2.873560 -0.296104
      ESP Fit Center 1034 is at   1.182638 -2.935758 -0.296104
      ESP Fit Center 1035 is at   1.599956 -2.935758 -0.296104
      ESP Fit Center 1036 is at   2.012613 -2.873560 -0.296104
      ESP Fit Center 1037 is at   2.411391 -2.750553 -0.296104
      ESP Fit Center 1038 is at   2.787382 -2.569486 -0.296104
      ESP Fit Center 1039 is at  -0.092533 -2.442693 -0.709918
      ESP Fit Center 1040 is at   0.274622 -2.642346 -0.709918
      ESP Fit Center 1041 is at   0.667951 -2.783612 -0.709918
      ESP Fit Center 1042 is at   1.078234 -2.863182 -0.709918
      ESP Fit Center 1043 is at   1.495856 -2.879190 -0.709918
      ESP Fit Center 1044 is at   1.911026 -2.831260 -0.709918
      ESP Fit Center 1045 is at   2.314015 -2.720517 -0.709918
      ESP Fit Center 1046 is at   0.207995 -2.473756 -1.109815
      ESP Fit Center 1047 is at   0.585861 -2.630273 -1.109815
      ESP Fit Center 1048 is at   0.983559 -2.725752 -1.109815
      ESP Fit Center 1049 is at   1.391297 -2.757841 -1.109815
      ESP Fit Center 1050 is at   1.799035 -2.725752 -1.109815
      ESP Fit Center 1051 is at   2.196733 -2.630273 -1.109815
      ESP Fit Center 1052 is at   2.662675  1.913454 -1.486860
      ESP Fit Center 1053 is at   1.083295  2.253836 -1.486860
      ESP Fit Center 1054 is at   0.299611 -2.316625 -1.486860
      ESP Fit Center 1055 is at   0.681239 -2.469976 -1.486860
      ESP Fit Center 1056 is at   1.083295 -2.556626 -1.486860
      ESP Fit Center 1057 is at   1.494211 -2.574081 -1.486860
      ESP Fit Center 1058 is at   2.300694  1.839906 -1.832631
      ESP Fit Center 1059 is at   1.907403  1.976025 -1.832631
      ESP Fit Center 1060 is at   1.495460  2.035254 -1.832631
      ESP Fit Center 1061 is at   1.079751  2.015451 -1.832631
      ESP Fit Center 1062 is at   0.675303 -2.220123 -1.832631
      ESP Fit Center 1063 is at   1.079751 -2.318241 -1.832631
      ESP Fit Center 1064 is at   1.495460 -2.338043 -1.832631
      ESP Fit Center 1065 is at   1.900800  1.683670 -2.139405
      ESP Fit Center 1066 is at   1.494404  1.750296 -2.139405
      ESP Fit Center 1067 is at   1.083186  1.728000 -2.139405
      ESP Fit Center 1068 is at   0.686375 -1.920616 -2.139405
      ESP Fit Center 1069 is at   1.083186 -2.030790 -2.139405
      ESP Fit Center 1070 is at   1.799531  1.372156 -2.400328
      ESP Fit Center 1071 is at   1.391297  1.425901 -2.400328
      ESP Fit Center 1072 is at   0.983063 -1.674946 -2.400328
      ESP Fit Center 1073 is at   1.602258  1.045023 -2.609572
      ESP Fit Center 1074 is at   1.391297  0.673920 -2.762463
      ESP Fit Center 1075 is at   1.690770  1.381144  2.581627
      ESP Fit Center 1076 is at   2.112165  1.381144  2.540123
      ESP Fit Center 1077 is at   1.901468  1.746082  2.540123
      ESP Fit Center 1078 is at   1.480073  1.746082  2.540123
      ESP Fit Center 1079 is at   1.269375  1.381144  2.540123
      ESP Fit Center 1080 is at   1.480073  1.016205  2.540123
      ESP Fit Center 1081 is at   1.901468  1.016205  2.540123
      ESP Fit Center 1082 is at   2.517366  1.381144  2.417206
      ESP Fit Center 1083 is at   2.406623  1.794442  2.417206
      ESP Fit Center 1084 is at   2.104068  2.096997  2.417206
      ESP Fit Center 1085 is at   1.690770  2.207740  2.417206
      ESP Fit Center 1086 is at   1.277472  2.096997  2.417206
      ESP Fit Center 1087 is at   0.974917  1.794442  2.417206
      ESP Fit Center 1088 is at   0.864174  1.381144  2.417206
      ESP Fit Center 1089 is at   2.406623  0.967846  2.417206
      ESP Fit Center 1090 is at   2.890802  1.381144  2.217601
      ESP Fit Center 1091 is at   2.818431  1.791579  2.217601
      ESP Fit Center 1092 is at   2.610048  2.152509  2.217601
      ESP Fit Center 1093 is at   2.290786  2.420402  2.217601
      ESP Fit Center 1094 is at   1.899153  2.562944  2.217601
      ESP Fit Center 1095 is at   1.482387  2.562944  2.217601
      ESP Fit Center 1096 is at   1.090754  2.420402  2.217601
      ESP Fit Center 1097 is at   0.771492  2.152509  2.217601
      ESP Fit Center 1098 is at   0.563109  1.791579  2.217601
      ESP Fit Center 1099 is at   2.818431  0.970709  2.217601
      ESP Fit Center 1100 is at   3.218121  1.381144  1.948977
      ESP Fit Center 1101 is at   3.161482  1.793218  1.948977
      ESP Fit Center 1102 is at   2.995768  2.174730  1.948977
      ESP Fit Center 1103 is at   2.733268  2.497386  1.948977
      ESP Fit Center 1104 is at   2.393451  2.737256  1.948977
      ESP Fit Center 1105 is at   2.001519  2.876548  1.948977
      ESP Fit Center 1106 is at   1.586540  2.904934  1.948977
      ESP Fit Center 1107 is at   1.179292  2.820306  1.948977
      ESP Fit Center 1108 is at   0.809977  2.628943  1.948977
      ESP Fit Center 1109 is at   0.505987  2.345036  1.948977
      ESP Fit Center 1110 is at   3.161482  0.969069  1.948977
      ESP Fit Center 1111 is at   3.486744  1.381144  1.621658
      ESP Fit Center 1112 is at   3.438334  1.795324  1.621658
      ESP Fit Center 1113 is at   3.295711  2.187175  1.621658
      ESP Fit Center 1114 is at   3.066566  2.535574  1.621658
      ESP Fit Center 1115 is at   2.763252  2.821736  1.621658
      ESP Fit Center 1116 is at   2.402119  3.030236  1.621658
      ESP Fit Center 1117 is at   2.002638  3.149833  1.621658
      ESP Fit Center 1118 is at   1.586343  3.174079  1.621658
      ESP Fit Center 1119 is at   1.175679  3.101668  1.621658
      ESP Fit Center 1120 is at   0.792783  2.936503  1.621658
      ESP Fit Center 1121 is at   0.458298  2.687488  1.621658
      ESP Fit Center 1122 is at   3.438334  0.966963  1.621658
      ESP Fit Center 1123 is at   3.686350  1.381144  1.248223
      ESP Fit Center 1124 is at   3.642742  1.796048  1.248223
      ESP Fit Center 1125 is at   3.513823  2.192819  1.248223
      ESP Fit Center 1126 is at   3.305228  2.554116  1.248223
      ESP Fit Center 1127 is at   3.026074  2.864148  1.248223
      ESP Fit Center 1128 is at   2.688560  3.109366  1.248223
      ESP Fit Center 1129 is at   2.307438  3.279053  1.248223
      ESP Fit Center 1130 is at   1.899365  3.365791  1.248223
      ESP Fit Center 1131 is at   1.482175  3.365791  1.248223
      ESP Fit Center 1132 is at   1.074102  3.279053  1.248223
      ESP Fit Center 1133 is at   0.692980  3.109366  1.248223
      ESP Fit Center 1134 is at   0.355467  2.864148  1.248223
      ESP Fit Center 1135 is at   3.642742  0.966239  1.248223
      ESP Fit Center 1136 is at   3.809266  1.381144  0.843022
      ESP Fit Center 1137 is at   3.768560  1.794442  0.843022
      ESP Fit Center 1138 is at   3.648005  2.191857  0.843022
      ESP Fit Center 1139 is at   3.452235  2.558117  0.843022
      ESP Fit Center 1140 is at   3.188773  2.879147  0.843022
      ESP Fit Center 1141 is at   2.867744  3.142609  0.843022
      ESP Fit Center 1142 is at   2.501483  3.338379  0.843022
      ESP Fit Center 1143 is at   2.104068  3.458934  0.843022
      ESP Fit Center 1144 is at   1.690770  3.499640  0.843022
      ESP Fit Center 1145 is at   1.277472  3.458934  0.843022
      ESP Fit Center 1146 is at   0.880057  3.338379  0.843022
      ESP Fit Center 1147 is at   0.513797  3.142609  0.843022
      ESP Fit Center 1148 is at   0.192767  2.879147  0.843022
      ESP Fit Center 1149 is at   3.850770  1.381144  0.421627
      ESP Fit Center 1150 is at   3.811736  1.789926  0.421627
      ESP Fit Center 1151 is at   3.696045  2.183935  0.421627
      ESP Fit Center 1152 is at   3.507878  2.548928  0.421627
      ESP Fit Center 1153 is at   3.254036  2.871714  0.421627
      ESP Fit Center 1154 is at   2.943693  3.140628  0.421627
      ESP Fit Center 1155 is at   2.588067  3.345949  0.421627
      ESP Fit Center 1156 is at   2.200009  3.480257  0.421627
      ESP Fit Center 1157 is at   1.793547  3.538697  0.421627
      ESP Fit Center 1158 is at   1.383370  3.519158  0.421627
      ESP Fit Center 1159 is at   0.984303  3.422345  0.421627
      ESP Fit Center 1160 is at   0.610770  3.251758  0.421627
      ESP Fit Center 1161 is at   0.276271  3.013563  0.421627
      ESP Fit Center 1162 is at  -0.007105  2.716367  0.421627
      ESP Fit Center 1163 is at   3.809266  1.381144  0.000232
      ESP Fit Center 1164 is at   3.768560  1.794442  0.000232
      ESP Fit Center 1165 is at   3.648005  2.191857  0.000232
      ESP Fit Center 1166 is at   3.452235  2.558117  0.000232
      ESP Fit Center 1167 is at   3.188773  2.879147  0.000232
      ESP Fit Center 1168 is at   2.867744  3.142609  0.000232
      ESP Fit Center 1169 is at   2.501483  3.338379  0.000232
      ESP Fit Center 1170 is at   2.104068  3.458934  0.000232
      ESP Fit Center 1171 is at   1.690770  3.499640  0.000232
      ESP Fit Center 1172 is at   1.277472  3.458934  0.000232
      ESP Fit Center 1173 is at   0.880057  3.338379  0.000232
      ESP Fit Center 1174 is at   0.513797  3.142609  0.000232
      ESP Fit Center 1175 is at   0.192767  2.879147  0.000232
      ESP Fit Center 1176 is at   3.642742  1.796048 -0.404970
      ESP Fit Center 1177 is at   3.513823  2.192819 -0.404970
      ESP Fit Center 1178 is at   3.305228  2.554116 -0.404970
      ESP Fit Center 1179 is at   3.026074  2.864148 -0.404970
      ESP Fit Center 1180 is at   2.688560  3.109366 -0.404970
      ESP Fit Center 1181 is at   2.307438  3.279053 -0.404970
      ESP Fit Center 1182 is at   1.899365  3.365791 -0.404970
      ESP Fit Center 1183 is at   1.482175  3.365791 -0.404970
      ESP Fit Center 1184 is at   1.074102  3.279053 -0.404970
      ESP Fit Center 1185 is at   0.692980  3.109366 -0.404970
      ESP Fit Center 1186 is at   0.355467  2.864148 -0.404970
      ESP Fit Center 1187 is at   0.076312  2.554116 -0.404970
      ESP Fit Center 1188 is at   3.438334  1.795324 -0.778405
      ESP Fit Center 1189 is at   3.295711  2.187175 -0.778405
      ESP Fit Center 1190 is at   3.066566  2.535574 -0.778405
      ESP Fit Center 1191 is at   2.763252  2.821736 -0.778405
      ESP Fit Center 1192 is at   2.402119  3.030236 -0.778405
      ESP Fit Center 1193 is at   2.002638  3.149833 -0.778405
      ESP Fit Center 1194 is at   1.586343  3.174079 -0.778405
      ESP Fit Center 1195 is at   1.175679  3.101668 -0.778405
      ESP Fit Center 1196 is at   0.792783  2.936503 -0.778405
      ESP Fit Center 1197 is at   0.458298  2.687488 -0.778405
      ESP Fit Center 1198 is at   3.161482  1.793218 -1.105724
      ESP Fit Center 1199 is at   2.995768  2.174730 -1.105724
      ESP Fit Center 1200 is at   2.733268  2.497386 -1.105724
      ESP Fit Center 1201 is at   2.393451  2.737256 -1.105724
      ESP Fit Center 1202 is at   2.001519  2.876548 -1.105724
      ESP Fit Center 1203 is at   1.586540  2.904934 -1.105724
      ESP Fit Center 1204 is at   1.179292  2.820306 -1.105724
      ESP Fit Center 1205 is at   0.809977  2.628943 -1.105724
      ESP Fit Center 1206 is at   0.505987  2.345036 -1.105724
      ESP Fit Center 1207 is at   2.610048  2.152509 -1.374348
      ESP Fit Center 1208 is at   2.290786  2.420402 -1.374348
      ESP Fit Center 1209 is at   1.899153  2.562944 -1.374348
      ESP Fit Center 1210 is at   1.482387  2.562944 -1.374348
      ESP Fit Center 1211 is at   1.090754  2.420402 -1.374348
      ESP Fit Center 1212 is at   1.690770  2.207740 -1.573953
      ESP Fit Center 1213 is at   1.381702 -0.919445  3.372259
      ESP Fit Center 1214 is at   1.793301 -0.919445  3.334119
      ESP Fit Center 1215 is at   1.587502 -0.562990  3.334119
      ESP Fit Center 1216 is at   1.175903 -0.562990  3.334119
      ESP Fit Center 1217 is at   0.970104 -0.919445  3.334119
      ESP Fit Center 1218 is at   1.175903 -1.275900  3.334119
      ESP Fit Center 1219 is at   1.587502 -1.275900  3.334119
      ESP Fit Center 1220 is at   2.190884 -0.919445  3.220997
      ESP Fit Center 1221 is at   2.082474 -0.514854  3.220997
      ESP Fit Center 1222 is at   1.786293 -0.218673  3.220997
      ESP Fit Center 1223 is at   1.381702 -0.110263  3.220997
      ESP Fit Center 1224 is at   0.977112 -0.218673  3.220997
      ESP Fit Center 1225 is at   0.680931 -0.514854  3.220997
      ESP Fit Center 1226 is at   0.572521 -0.919445  3.220997
      ESP Fit Center 1227 is at   0.680931 -1.324035  3.220997
      ESP Fit Center 1228 is at   0.977112 -1.620216  3.220997
      ESP Fit Center 1229 is at   1.381702 -1.728626  3.220997
      ESP Fit Center 1230 is at   1.786293 -1.620216  3.220997
      ESP Fit Center 1231 is at   2.082474 -1.324035  3.220997
      ESP Fit Center 1232 is at   2.560910 -0.919445  3.036745
      ESP Fit Center 1233 is at   2.481281 -0.493466  3.036745
      ESP Fit Center 1234 is at   2.253148 -0.125017  3.036745
      ESP Fit Center 1235 is at   1.907321  0.136139  3.036745
      ESP Fit Center 1236 is at   1.490506  0.254733  3.036745
      ESP Fit Center 1237 is at   1.058997  0.214748  3.036745
      ESP Fit Center 1238 is at   0.671071  0.021584  3.036745
      ESP Fit Center 1239 is at   0.379120 -0.298672  3.036745
      ESP Fit Center 1240 is at   0.222573 -0.702766  3.036745
      ESP Fit Center 1241 is at   0.222573 -1.136124  3.036745
      ESP Fit Center 1242 is at   0.379120 -1.540218  3.036745
      ESP Fit Center 1243 is at   0.671071 -1.860473  3.036745
      ESP Fit Center 1244 is at   1.058997 -2.053637  3.036745
      ESP Fit Center 1245 is at   1.490506 -2.093623  3.036745
      ESP Fit Center 1246 is at   1.907321 -1.975029  3.036745
      ESP Fit Center 1247 is at   2.253148 -1.713872  3.036745
      ESP Fit Center 1248 is at   2.481281 -1.345424  3.036745
      ESP Fit Center 1249 is at   2.890781 -0.919445  2.787639
      ESP Fit Center 1250 is at   2.829652 -0.494288  2.787639
      ESP Fit Center 1251 is at   2.651220 -0.103575  2.787639
      ESP Fit Center 1252 is at   2.369939  0.221040  2.787639
      ESP Fit Center 1253 is at   2.008596  0.453261  2.787639
      ESP Fit Center 1254 is at   1.596467  0.574273  2.787639
      ESP Fit Center 1255 is at   1.166938  0.574273  2.787639
      ESP Fit Center 1256 is at   0.754809  0.453261  2.787639
      ESP Fit Center 1257 is at   0.393466  0.221040  2.787639
      ESP Fit Center 1258 is at   0.112185 -0.103575  2.787639
      ESP Fit Center 1259 is at  -0.066248 -0.494288  2.787639
      ESP Fit Center 1260 is at  -0.127376 -0.919445  2.787639
      ESP Fit Center 1261 is at  -0.066248 -1.344601  2.787639
      ESP Fit Center 1262 is at   0.112185 -1.735314  2.787639
      ESP Fit Center 1263 is at   0.393466 -2.059930  2.787639
      ESP Fit Center 1264 is at   0.754809 -2.292151  2.787639
      ESP Fit Center 1265 is at   1.166938 -2.413163  2.787639
      ESP Fit Center 1266 is at   1.596467 -2.413163  2.787639
      ESP Fit Center 1267 is at   2.008596 -2.292151  2.787639
      ESP Fit Center 1268 is at   2.369939 -2.059930  2.787639
      ESP Fit Center 1269 is at   2.651220 -1.735314  2.787639
      ESP Fit Center 1270 is at   2.829652 -1.344601  2.787639
      ESP Fit Center 1271 is at   3.169261 -0.919445  2.482161
      ESP Fit Center 1272 is at   3.121077 -0.507205  2.482161
      ESP Fit Center 1273 is at   2.979123 -0.117190  2.482161
      ESP Fit Center 1274 is at   2.751052  0.229576  2.482161
      ESP Fit Center 1275 is at   2.449158  0.514397  2.482161
      ESP Fit Center 1276 is at   2.089718  0.721920  2.482161
      ESP Fit Center 1277 is at   0.487923  0.628626  2.482161
      ESP Fit Center 1278 is at  -0.393769 -0.711922  2.482161
      ESP Fit Center 1279 is at  -0.393769 -1.126968  2.482161
      ESP Fit Center 1280 is at  -0.298053 -1.530826  2.482161
      ESP Fit Center 1281 is at  -0.111781 -1.901724  2.482161
      ESP Fit Center 1282 is at   0.155005 -2.219668  2.482161
      ESP Fit Center 1283 is at   0.487923 -2.467516  2.482161
      ESP Fit Center 1284 is at   0.869025 -2.631907  2.482161
      ESP Fit Center 1285 is at   1.277765 -2.703979  2.482161
      ESP Fit Center 1286 is at   1.692109 -2.679846  2.482161
      ESP Fit Center 1287 is at   2.089718 -2.560810  2.482161
      ESP Fit Center 1288 is at   2.449158 -2.353287  2.482161
      ESP Fit Center 1289 is at   2.751052 -2.068465  2.482161
      ESP Fit Center 1290 is at   2.979123 -1.721700  2.482161
      ESP Fit Center 1291 is at   3.121077 -1.331684  2.482161
      ESP Fit Center 1292 is at   3.386868 -0.919445  2.130713
      ESP Fit Center 1293 is at   3.343051 -0.502547  2.130713
      ESP Fit Center 1294 is at   3.213513 -0.103870  2.130713
      ESP Fit Center 1295 is at  -0.240511 -2.098052  2.130713
      ESP Fit Center 1296 is at   0.039985 -2.409573  2.130713
      ESP Fit Center 1297 is at   0.379120 -2.655969  2.130713
      ESP Fit Center 1298 is at   0.762072 -2.826471  2.130713
      ESP Fit Center 1299 is at   1.172106 -2.913626  2.130713
      ESP Fit Center 1300 is at   1.591299 -2.913626  2.130713
      ESP Fit Center 1301 is at   2.001333 -2.826471  2.130713
      ESP Fit Center 1302 is at   2.384285 -2.655969  2.130713
      ESP Fit Center 1303 is at   2.723420 -2.409573  2.130713
      ESP Fit Center 1304 is at   3.003916 -2.098052  2.130713
      ESP Fit Center 1305 is at   3.213513 -1.735019  2.130713
      ESP Fit Center 1306 is at   3.343051 -1.336342  2.130713
      ESP Fit Center 1307 is at   3.536192 -0.919445  1.745264
      ESP Fit Center 1308 is at   3.494794 -0.499125  1.745264
      ESP Fit Center 1309 is at  -0.141752 -2.442899  1.745264
      ESP Fit Center 1310 is at   0.184732 -2.710837  1.745264
      ESP Fit Center 1311 is at   0.557215 -2.909933  1.745264
      ESP Fit Center 1312 is at   0.961382 -3.032536  1.745264
      ESP Fit Center 1313 is at   1.381702 -3.073934  1.745264
      ESP Fit Center 1314 is at   1.802022 -3.032536  1.745264
      ESP Fit Center 1315 is at   2.206190 -2.909933  1.745264
      ESP Fit Center 1316 is at   2.578673 -2.710837  1.745264
      ESP Fit Center 1317 is at   2.905157 -2.442899  1.745264
      ESP Fit Center 1318 is at   3.173095 -2.116415  1.745264
      ESP Fit Center 1319 is at   3.372191 -1.743932  1.745264
      ESP Fit Center 1320 is at   3.494794 -1.339765  1.745264
      ESP Fit Center 1321 is at  -0.078928 -2.605102  1.338940
      ESP Fit Center 1322 is at   0.266480 -2.851066  1.338940
      ESP Fit Center 1323 is at   0.652195 -3.027217  1.338940
      ESP Fit Center 1324 is at   1.064277 -3.127187  1.338940
      ESP Fit Center 1325 is at   1.487831 -3.147363  1.338940
      ESP Fit Center 1326 is at   1.907550 -3.087017  1.338940
      ESP Fit Center 1327 is at   2.308263 -2.948328  1.338940
      ESP Fit Center 1328 is at   2.675487 -2.736311  1.338940
      ESP Fit Center 1329 is at   2.995951 -2.458628  1.338940
      ESP Fit Center 1330 is at   3.258072 -2.125314  1.338940
      ESP Fit Center 1331 is at   3.452376 -1.748417  1.338940
      ESP Fit Center 1332 is at   3.571840 -1.341559  1.338940
      ESP Fit Center 1333 is at   0.266480 -2.851066  0.925578
      ESP Fit Center 1334 is at   0.652195 -3.027217  0.925578
      ESP Fit Center 1335 is at   1.064277 -3.127187  0.925578
      ESP Fit Center 1336 is at   1.487831 -3.147363  0.925578
      ESP Fit Center 1337 is at   1.907550 -3.087017  0.925578
      ESP Fit Center 1338 is at   2.308263 -2.948328  0.925578
      ESP Fit Center 1339 is at   2.675487 -2.736311  0.925578
      ESP Fit Center 1340 is at   2.995951 -2.458628  0.925578
      ESP Fit Center 1341 is at   3.258072 -2.125314  0.925578
      ESP Fit Center 1342 is at   0.184732 -2.710837  0.519254
      ESP Fit Center 1343 is at   0.557215 -2.909933  0.519254
      ESP Fit Center 1344 is at   0.961382 -3.032536  0.519254
      ESP Fit Center 1345 is at   1.381702 -3.073934  0.519254
      ESP Fit Center 1346 is at   1.802022 -3.032536  0.519254
      ESP Fit Center 1347 is at   2.206190 -2.909933  0.519254
      ESP Fit Center 1348 is at   2.578673 -2.710837  0.519254
      ESP Fit Center 1349 is at   2.905157 -2.442899  0.519254
      ESP Fit Center 1350 is at   4.204606 -0.386885  0.282952
      ESP Fit Center 1351 is at   4.014468 -1.189140  0.282952
      ESP Fit Center 1352 is at   4.156422 -0.799124  0.282952
      ESP Fit Center 1353 is at   4.422213 -0.386885 -0.068496
      ESP Fit Center 1354 is at   4.378395  0.030013 -0.068496
      ESP Fit Center 1355 is at   4.248857  0.428689 -0.068496
      ESP Fit Center 1356 is at   4.039260  0.791722 -0.068496
      ESP Fit Center 1357 is at   3.419630 -2.123409 -0.068496
      ESP Fit Center 1358 is at   3.758765 -1.877013 -0.068496
      ESP Fit Center 1359 is at   4.039260 -1.565492 -0.068496
      ESP Fit Center 1360 is at   4.248857 -1.202459 -0.068496
      ESP Fit Center 1361 is at   4.378395 -0.803782 -0.068496
      ESP Fit Center 1362 is at   4.571537 -0.386885 -0.453945
      ESP Fit Center 1363 is at   4.530139  0.033435 -0.453945
      ESP Fit Center 1364 is at   4.407536  0.437603 -0.453945
      ESP Fit Center 1365 is at   4.208440  0.810085 -0.453945
      ESP Fit Center 1366 is at   3.940501  1.136569 -0.453945
      ESP Fit Center 1367 is at   3.241535 -2.377374 -0.453945
      ESP Fit Center 1368 is at   3.614017 -2.178277 -0.453945
      ESP Fit Center 1369 is at   3.940501 -1.910339 -0.453945
      ESP Fit Center 1370 is at   4.208440 -1.583855 -0.453945
      ESP Fit Center 1371 is at   4.407536 -1.211372 -0.453945
      ESP Fit Center 1372 is at   4.530139 -0.807205 -0.453945
      ESP Fit Center 1373 is at   4.647492 -0.386885 -0.860268
      ESP Fit Center 1374 is at   4.607185  0.035230 -0.860268
      ESP Fit Center 1375 is at   4.487720  0.442088 -0.860268
      ESP Fit Center 1376 is at   4.293417  0.818984 -0.860268
      ESP Fit Center 1377 is at   4.031296  1.152298 -0.860268
      ESP Fit Center 1378 is at   3.710832  1.429982 -0.860268
      ESP Fit Center 1379 is at   2.523176 -2.614803 -0.860268
      ESP Fit Center 1380 is at   2.942894 -2.554457 -0.860268
      ESP Fit Center 1381 is at   3.343607 -2.415769 -0.860268
      ESP Fit Center 1382 is at   3.710832 -2.203751 -0.860268
      ESP Fit Center 1383 is at   4.031296 -1.926068 -0.860268
      ESP Fit Center 1384 is at   4.293417 -1.592754 -0.860268
      ESP Fit Center 1385 is at   4.487720 -1.215857 -0.860268
      ESP Fit Center 1386 is at   4.607185 -0.808999 -0.860268
      ESP Fit Center 1387 is at   4.647492 -0.386885 -1.273631
      ESP Fit Center 1388 is at   4.607185  0.035230 -1.273631
      ESP Fit Center 1389 is at   4.487720  0.442088 -1.273631
      ESP Fit Center 1390 is at   4.293417  0.818984 -1.273631
      ESP Fit Center 1391 is at   4.031296  1.152298 -1.273631
      ESP Fit Center 1392 is at   3.710832  1.429982 -1.273631
      ESP Fit Center 1393 is at   3.343607  1.641999 -1.273631
      ESP Fit Center 1394 is at   2.099622 -2.594627 -1.273631
      ESP Fit Center 1395 is at   2.523176 -2.614803 -1.273631
      ESP Fit Center 1396 is at   2.942894 -2.554457 -1.273631
      ESP Fit Center 1397 is at   3.343607 -2.415769 -1.273631
      ESP Fit Center 1398 is at   3.710832 -2.203751 -1.273631
      ESP Fit Center 1399 is at   4.031296 -1.926068 -1.273631
      ESP Fit Center 1400 is at   4.293417 -1.592754 -1.273631
      ESP Fit Center 1401 is at   4.487720 -1.215857 -1.273631
      ESP Fit Center 1402 is at   4.607185 -0.808999 -1.273631
      ESP Fit Center 1403 is at   4.571537 -0.386885 -1.679955
      ESP Fit Center 1404 is at   4.530139  0.033435 -1.679955
      ESP Fit Center 1405 is at   4.407536  0.437603 -1.679955
      ESP Fit Center 1406 is at   4.208440  0.810085 -1.679955
      ESP Fit Center 1407 is at   3.940501  1.136569 -1.679955
      ESP Fit Center 1408 is at   3.614017  1.404508 -1.679955
      ESP Fit Center 1409 is at   3.241535  1.603604 -1.679955
      ESP Fit Center 1410 is at   2.837367  1.726207 -1.679955
      ESP Fit Center 1411 is at   1.996727 -2.499976 -1.679955
      ESP Fit Center 1412 is at   2.417047 -2.541374 -1.679955
      ESP Fit Center 1413 is at   2.837367 -2.499976 -1.679955
      ESP Fit Center 1414 is at   3.241535 -2.377374 -1.679955
      ESP Fit Center 1415 is at   3.614017 -2.178277 -1.679955
      ESP Fit Center 1416 is at   3.940501 -1.910339 -1.679955
      ESP Fit Center 1417 is at   4.208440 -1.583855 -1.679955
      ESP Fit Center 1418 is at   4.407536 -1.211372 -1.679955
      ESP Fit Center 1419 is at   4.530139 -0.807205 -1.679955
      ESP Fit Center 1420 is at   4.422213 -0.386885 -2.065404
      ESP Fit Center 1421 is at   4.378395  0.030013 -2.065404
      ESP Fit Center 1422 is at   4.248857  0.428689 -2.065404
      ESP Fit Center 1423 is at   4.039260  0.791722 -2.065404
      ESP Fit Center 1424 is at   3.758765  1.103244 -2.065404
      ESP Fit Center 1425 is at   3.419630  1.349640 -2.065404
      ESP Fit Center 1426 is at   3.036678  1.520141 -2.065404
      ESP Fit Center 1427 is at   2.626644  1.607296 -2.065404
      ESP Fit Center 1428 is at   1.797417 -2.293911 -2.065404
      ESP Fit Center 1429 is at   2.207450 -2.381066 -2.065404
      ESP Fit Center 1430 is at   2.626644 -2.381066 -2.065404
      ESP Fit Center 1431 is at   3.036678 -2.293911 -2.065404
      ESP Fit Center 1432 is at   3.419630 -2.123409 -2.065404
      ESP Fit Center 1433 is at   3.758765 -1.877013 -2.065404
      ESP Fit Center 1434 is at   4.039260 -1.565492 -2.065404
      ESP Fit Center 1435 is at   4.248857 -1.202459 -2.065404
      ESP Fit Center 1436 is at   4.378395 -0.803782 -2.065404
      ESP Fit Center 1437 is at   4.204606 -0.386885 -2.416851
      ESP Fit Center 1438 is at   4.156422  0.025354 -2.416851
      ESP Fit Center 1439 is at   4.014468  0.415370 -2.416851
      ESP Fit Center 1440 is at   3.786397  0.762136 -2.416851
      ESP Fit Center 1441 is at   3.484503  1.046957 -2.416851
      ESP Fit Center 1442 is at   3.125063  1.254480 -2.416851
      ESP Fit Center 1443 is at   2.727454  1.373517 -2.416851
      ESP Fit Center 1444 is at   2.313110  1.397649 -2.416851
      ESP Fit Center 1445 is at   1.904370  1.325577 -2.416851
      ESP Fit Center 1446 is at   1.523268 -1.934956 -2.416851
      ESP Fit Center 1447 is at   1.904370 -2.099347 -2.416851
      ESP Fit Center 1448 is at   2.313110 -2.171419 -2.416851
      ESP Fit Center 1449 is at   2.727454 -2.147286 -2.416851
      ESP Fit Center 1450 is at   3.125063 -2.028250 -2.416851
      ESP Fit Center 1451 is at   3.484503 -1.820727 -2.416851
      ESP Fit Center 1452 is at   3.786397 -1.535905 -2.416851
      ESP Fit Center 1453 is at   4.014468 -1.189140 -2.416851
      ESP Fit Center 1454 is at   4.156422 -0.799124 -2.416851
      ESP Fit Center 1455 is at   3.926125 -0.386885 -2.722330
      ESP Fit Center 1456 is at   3.864997  0.038272 -2.722330
      ESP Fit Center 1457 is at   3.686565  0.428984 -2.722330
      ESP Fit Center 1458 is at   3.405283  0.753600 -2.722330
      ESP Fit Center 1459 is at   3.043941  0.985821 -2.722330
      ESP Fit Center 1460 is at   2.631811  1.106833 -2.722330
      ESP Fit Center 1461 is at   2.202283  1.106833 -2.722330
      ESP Fit Center 1462 is at   1.790153  0.985821 -2.722330
      ESP Fit Center 1463 is at   1.147530 -1.202754 -2.722330
      ESP Fit Center 1464 is at   1.428811 -1.527370 -2.722330
      ESP Fit Center 1465 is at   1.790153 -1.759591 -2.722330
      ESP Fit Center 1466 is at   2.202283 -1.880603 -2.722330
      ESP Fit Center 1467 is at   2.631811 -1.880603 -2.722330
      ESP Fit Center 1468 is at   3.043941 -1.759591 -2.722330
      ESP Fit Center 1469 is at   3.405283 -1.527370 -2.722330
      ESP Fit Center 1470 is at   3.686565 -1.202754 -2.722330
      ESP Fit Center 1471 is at   3.864997 -0.812041 -2.722330
      ESP Fit Center 1472 is at   3.596255 -0.386885 -2.971436
      ESP Fit Center 1473 is at   3.516626  0.039094 -2.971436
      ESP Fit Center 1474 is at   3.288492  0.407542 -2.971436
      ESP Fit Center 1475 is at   2.942665  0.668699 -2.971436
      ESP Fit Center 1476 is at   2.525851  0.787293 -2.971436
      ESP Fit Center 1477 is at   2.094342  0.747308 -2.971436
      ESP Fit Center 1478 is at   1.706416  0.554143 -2.971436
      ESP Fit Center 1479 is at   1.414464  0.233888 -2.971436
      ESP Fit Center 1480 is at   1.257917 -0.170206 -2.971436
      ESP Fit Center 1481 is at   1.257917 -0.603564 -2.971436
      ESP Fit Center 1482 is at   1.414464 -1.007658 -2.971436
      ESP Fit Center 1483 is at   1.706416 -1.327913 -2.971436
      ESP Fit Center 1484 is at   2.094342 -1.521077 -2.971436
      ESP Fit Center 1485 is at   2.525851 -1.561063 -2.971436
      ESP Fit Center 1486 is at   2.942665 -1.442469 -2.971436
      ESP Fit Center 1487 is at   3.288492 -1.181312 -2.971436
      ESP Fit Center 1488 is at   3.516626 -0.812864 -2.971436
      ESP Fit Center 1489 is at   3.226229 -0.386885 -3.155687
      ESP Fit Center 1490 is at   3.117819  0.017706 -3.155687
      ESP Fit Center 1491 is at   2.821638  0.313887 -3.155687
      ESP Fit Center 1492 is at   2.417047  0.422296 -3.155687
      ESP Fit Center 1493 is at   2.012457  0.313887 -3.155687
      ESP Fit Center 1494 is at   1.716276  0.017706 -3.155687
      ESP Fit Center 1495 is at   1.607866 -0.386885 -3.155687
      ESP Fit Center 1496 is at   1.716276 -0.791476 -3.155687
      ESP Fit Center 1497 is at   2.012457 -1.087656 -3.155687
      ESP Fit Center 1498 is at   2.417047 -1.196066 -3.155687
      ESP Fit Center 1499 is at   2.821638 -1.087656 -3.155687
      ESP Fit Center 1500 is at   3.117819 -0.791476 -3.155687
      ESP Fit Center 1501 is at   2.828646 -0.386885 -3.268809
      ESP Fit Center 1502 is at   2.622847 -0.030430 -3.268809
      ESP Fit Center 1503 is at   2.211248 -0.030430 -3.268809
      ESP Fit Center 1504 is at   2.005448 -0.386885 -3.268809
      ESP Fit Center 1505 is at   2.211248 -0.743340 -3.268809
      ESP Fit Center 1506 is at   2.622847 -0.743340 -3.268809
      ESP Fit Center 1507 is at   2.417047 -0.386885 -3.306950
      ESP Fit Center 1508 is at   0.317268  2.342349 -1.253007
      ESP Fit Center 1509 is at  -0.106037  2.361359 -1.253007
      ESP Fit Center 1510 is at  -0.525934 -2.304079 -1.253007
      ESP Fit Center 1511 is at  -0.106037 -2.360958 -1.253007
      ESP Fit Center 1512 is at   0.531701  2.191891 -1.657100
      ESP Fit Center 1513 is at   0.107312  2.252908 -1.657100
      ESP Fit Center 1514 is at  -0.320955  2.232508 -1.657100
      ESP Fit Center 1515 is at  -0.737621 -2.131024 -1.657100
      ESP Fit Center 1516 is at  -0.320955 -2.232106 -1.657100
      ESP Fit Center 1517 is at   0.107312 -2.252507 -1.657100
      ESP Fit Center 1518 is at   0.721863  1.949282 -2.036252
      ESP Fit Center 1519 is at   0.314739  2.054693 -2.036252
      ESP Fit Center 1520 is at  -0.105270  2.075994 -2.036252
      ESP Fit Center 1521 is at  -0.520969  2.012311 -2.036252
      ESP Fit Center 1522 is at  -0.915339 -1.865851 -2.036252
      ESP Fit Center 1523 is at  -0.520969 -2.011910 -2.036252
      ESP Fit Center 1524 is at  -0.105270 -2.075593 -2.036252
      ESP Fit Center 1525 is at   0.314739 -2.054292 -2.036252
      ESP Fit Center 1526 is at   1.097883  1.474909 -2.378942
      ESP Fit Center 1527 is at   0.728198  1.688347 -2.378942
      ESP Fit Center 1528 is at   0.319256  1.810776 -2.378942
      ESP Fit Center 1529 is at  -0.106897  1.835597 -2.378942
      ESP Fit Center 1530 is at  -0.527287  1.761471 -2.378942
      ESP Fit Center 1531 is at  -0.919251 -1.591993 -2.378942
      ESP Fit Center 1532 is at  -0.527287 -1.761069 -2.378942
      ESP Fit Center 1533 is at  -0.106897 -1.835196 -2.378942
      ESP Fit Center 1534 is at   0.319256 -1.810375 -2.378942
      ESP Fit Center 1535 is at   0.728198 -1.687946 -2.378942
      ESP Fit Center 1536 is at   1.052971  1.127654 -2.674758
      ESP Fit Center 1537 is at   0.709740  1.369933 -2.674758
      ESP Fit Center 1538 is at   0.313872  1.510624 -2.674758
      ESP Fit Center 1539 is at  -0.105274  1.539295 -2.674758
      ESP Fit Center 1540 is at  -0.516613  1.453817 -2.674758
      ESP Fit Center 1541 is at  -0.889636  1.260532 -2.674758
      ESP Fit Center 1542 is at  -1.196680 -0.973373 -2.674758
      ESP Fit Center 1543 is at  -0.889636 -1.260131 -2.674758
      ESP Fit Center 1544 is at  -0.516613 -1.453416 -2.674758
      ESP Fit Center 1545 is at  -0.105274 -1.538893 -2.674758
      ESP Fit Center 1546 is at   0.313872 -1.510223 -2.674758
      ESP Fit Center 1547 is at   0.709740 -1.369531 -2.674758
      ESP Fit Center 1548 is at   1.200003  0.000201 -2.914713
      ESP Fit Center 1549 is at   1.127634  0.410625 -2.914713
      ESP Fit Center 1550 is at   0.919256  0.771546 -2.914713
      ESP Fit Center 1551 is at   0.600003  1.039431 -2.914713
      ESP Fit Center 1552 is at   0.208380  1.181970 -2.914713
      ESP Fit Center 1553 is at  -0.208375  1.181970 -2.914713
      ESP Fit Center 1554 is at  -0.599997  1.039431 -2.914713
      ESP Fit Center 1555 is at  -0.919251  0.771546 -2.914713
      ESP Fit Center 1556 is at  -1.127629  0.410625 -2.914713
      ESP Fit Center 1557 is at  -1.199997  0.000201 -2.914713
      ESP Fit Center 1558 is at  -1.127629 -0.410224 -2.914713
      ESP Fit Center 1559 is at  -0.919251 -0.771145 -2.914713
      ESP Fit Center 1560 is at  -0.599997 -1.039030 -2.914713
      ESP Fit Center 1561 is at  -0.208375 -1.181569 -2.914713
      ESP Fit Center 1562 is at   0.208380 -1.181569 -2.914713
      ESP Fit Center 1563 is at   0.600003 -1.039030 -2.914713
      ESP Fit Center 1564 is at   0.919256 -0.771145 -2.914713
      ESP Fit Center 1565 is at   1.127634 -0.410224 -2.914713
      ESP Fit Center 1566 is at   0.820851  0.000201 -3.091514
      ESP Fit Center 1567 is at   0.710878  0.410625 -3.091514
      ESP Fit Center 1568 is at   0.410427  0.711076 -3.091514
      ESP Fit Center 1569 is at   0.000003  0.821049 -3.091514
      ESP Fit Center 1570 is at  -0.410422  0.711076 -3.091514
      ESP Fit Center 1571 is at  -0.710873  0.410625 -3.091514
      ESP Fit Center 1572 is at  -0.820846  0.000201 -3.091514
      ESP Fit Center 1573 is at  -0.710873 -0.410224 -3.091514
      ESP Fit Center 1574 is at  -0.410422 -0.710675 -3.091514
      ESP Fit Center 1575 is at   0.000003 -0.820648 -3.091514
      ESP Fit Center 1576 is at   0.410427 -0.710675 -3.091514
      ESP Fit Center 1577 is at   0.710878 -0.410224 -3.091514
      ESP Fit Center 1578 is at   0.416758  0.000201 -3.199790
      ESP Fit Center 1579 is at   0.208380  0.361122 -3.199790
      ESP Fit Center 1580 is at  -0.208375  0.361122 -3.199790
      ESP Fit Center 1581 is at  -0.416753  0.000201 -3.199790
      ESP Fit Center 1582 is at  -0.208375 -0.360720 -3.199790
      ESP Fit Center 1583 is at   0.208380 -0.360720 -3.199790
      ESP Fit Center 1584 is at   0.000003  0.000201 -3.236252
      ESP Fit Center 1585 is at  -0.784029 -0.900678  2.435576
      ESP Fit Center 1586 is at  -2.757445 -0.637214  2.226331
      ESP Fit Center 1587 is at  -3.284786 -0.054476  1.965408
      ESP Fit Center 1588 is at  -3.196256 -0.456670  1.965408
      ESP Fit Center 1589 is at  -3.570682  0.359524  1.658634
      ESP Fit Center 1590 is at  -3.570682 -0.056655  1.658634
      ESP Fit Center 1591 is at  -3.491919 -0.465314  1.658634
      ESP Fit Center 1592 is at  -3.738094  0.762449  1.312863
      ESP Fit Center 1593 is at  -3.807602  0.357078  1.312863
      ESP Fit Center 1594 is at  -3.807602 -0.054209  1.312863
      ESP Fit Center 1595 is at  -3.738094 -0.459580  1.312863
      ESP Fit Center 1596 is at  -3.601078 -0.847373  1.312863
      ESP Fit Center 1597 is at  -3.500126  1.683465  0.935818
      ESP Fit Center 1598 is at  -3.713827  1.334736  0.935818
      ESP Fit Center 1599 is at  -3.870344  0.956871  0.935818
      ESP Fit Center 1600 is at  -3.965823  0.559172  0.935818
      ESP Fit Center 1601 is at  -3.997913  0.151434  0.935818
      ESP Fit Center 1602 is at  -3.965823 -0.256304  0.935818
      ESP Fit Center 1603 is at  -3.870344 -0.654002  0.935818
      ESP Fit Center 1604 is at  -3.207671  2.189374  0.535921
      ESP Fit Center 1605 is at  -3.497476  1.888248  0.535921
      ESP Fit Center 1606 is at  -3.737918  1.546412  0.535921
      ESP Fit Center 1607 is at  -3.923361  1.171880  0.535921
      ESP Fit Center 1608 is at  -4.049458  0.773429  0.535921
      ESP Fit Center 1609 is at  -4.113255  0.360398  0.535921
      ESP Fit Center 1610 is at  -4.113255 -0.057530  0.535921
      ESP Fit Center 1611 is at  -4.049458 -0.470560  0.535921
      ESP Fit Center 1612 is at  -3.923361 -0.869011  0.535921
      ESP Fit Center 1613 is at  -0.371372  2.750593  0.122107
      ESP Fit Center 1614 is at  -0.770150  2.873600  0.122107
      ESP Fit Center 1615 is at  -1.182807  2.935798  0.122107
      ESP Fit Center 1616 is at  -1.600125  2.935798  0.122107
      ESP Fit Center 1617 is at  -2.012783  2.873600  0.122107
      ESP Fit Center 1618 is at  -2.411561  2.750593  0.122107
      ESP Fit Center 1619 is at  -2.787552  2.569525  0.122107
      ESP Fit Center 1620 is at  -3.132356  2.334441  0.122107
      ESP Fit Center 1621 is at  -3.438272  2.050593  0.122107
      ESP Fit Center 1622 is at  -4.059589 -0.671572  0.122107
      ESP Fit Center 1623 is at  -3.907125 -1.060043  0.122107
      ESP Fit Center 1624 is at   0.004619  2.569525 -0.296381
      ESP Fit Center 1625 is at  -0.371372  2.750593 -0.296381
      ESP Fit Center 1626 is at  -0.770150  2.873600 -0.296381
      ESP Fit Center 1627 is at  -1.182807  2.935798 -0.296381
      ESP Fit Center 1628 is at  -1.600125  2.935798 -0.296381
      ESP Fit Center 1629 is at  -2.012783  2.873600 -0.296381
      ESP Fit Center 1630 is at  -2.411561  2.750593 -0.296381
      ESP Fit Center 1631 is at  -2.787552  2.569525 -0.296381
      ESP Fit Center 1632 is at  -0.087388  2.549596 -0.710196
      ESP Fit Center 1633 is at  -0.468748  2.720557 -0.710196
      ESP Fit Center 1634 is at  -0.871737  2.831300 -0.710196
      ESP Fit Center 1635 is at  -1.286908  2.879229 -0.710196
      ESP Fit Center 1636 is at  -1.704529  2.863222 -0.710196
      ESP Fit Center 1637 is at  -2.114812  2.783652 -0.710196
      ESP Fit Center 1638 is at  -2.508141  2.642385 -0.710196
      ESP Fit Center 1639 is at  -0.208164  2.473795 -1.110092
      ESP Fit Center 1640 is at  -0.586030  2.630312 -1.110092
      ESP Fit Center 1641 is at  -0.983728  2.725791 -1.110092
      ESP Fit Center 1642 is at  -1.391466  2.757881 -1.110092
      ESP Fit Center 1643 is at  -1.799204  2.725791 -1.110092
      ESP Fit Center 1644 is at  -2.196903  2.630312 -1.110092
      ESP Fit Center 1645 is at  -0.487337  2.401446 -1.487137
      ESP Fit Center 1646 is at  -0.880596  2.521880 -1.487137
      ESP Fit Center 1647 is at  -1.288552  2.574121 -1.487137
      ESP Fit Center 1648 is at  -1.699468  2.556665 -1.487137
      ESP Fit Center 1649 is at  -2.833375 -1.798155 -1.487137
      ESP Fit Center 1650 is at  -2.483152 -2.013796 -1.487137
      ESP Fit Center 1651 is at  -0.880596 -2.219011 -1.487137
      ESP Fit Center 1652 is at  -0.482070  2.142735 -1.832909
      ESP Fit Center 1653 is at  -0.875360  2.278854 -1.832909
      ESP Fit Center 1654 is at  -1.287303  2.338083 -1.832909
      ESP Fit Center 1655 is at  -2.486030 -1.744406 -1.832909
      ESP Fit Center 1656 is at  -2.107460 -1.917293 -1.832909
      ESP Fit Center 1657 is at  -1.703012 -2.015412 -1.832909
      ESP Fit Center 1658 is at  -1.287303 -2.035214 -1.832909
      ESP Fit Center 1659 is at  -0.881963  1.986500 -2.139682
      ESP Fit Center 1660 is at  -1.288360  2.053125 -2.139682
      ESP Fit Center 1661 is at  -2.096388 -1.617787 -2.139682
      ESP Fit Center 1662 is at  -1.699577 -1.727961 -2.139682
      ESP Fit Center 1663 is at  -1.288360 -1.750256 -2.139682
      ESP Fit Center 1664 is at  -0.983232  1.674986 -2.400606
      ESP Fit Center 1665 is at  -1.799701 -1.372117 -2.400606
      ESP Fit Center 1666 is at  -1.391466 -1.425862 -2.400606
      ESP Fit Center 1667 is at  -1.602427 -1.044983 -2.609850
      ESP Fit Center 1668 is at  -1.391466 -0.673880 -2.762741
      ESP Fit Center 1669 is at  -1.688962 -1.380514  2.584426
      ESP Fit Center 1670 is at  -1.267567 -1.380514  2.542923
      ESP Fit Center 1671 is at  -1.478265 -1.015575  2.542923
      ESP Fit Center 1672 is at  -1.899660 -1.015575  2.542923
      ESP Fit Center 1673 is at  -2.110357 -1.380514  2.542923
      ESP Fit Center 1674 is at  -1.899660 -1.745453  2.542923
      ESP Fit Center 1675 is at  -1.478265 -1.745453  2.542923
      ESP Fit Center 1676 is at  -0.862366 -1.380514  2.420006
      ESP Fit Center 1677 is at  -2.404815 -0.967216  2.420006
      ESP Fit Center 1678 is at  -2.515558 -1.380514  2.420006
      ESP Fit Center 1679 is at  -2.404815 -1.793812  2.420006
      ESP Fit Center 1680 is at  -2.102260 -2.096367  2.420006
      ESP Fit Center 1681 is at  -1.688962 -2.207110  2.420006
      ESP Fit Center 1682 is at  -1.275664 -2.096367  2.420006
      ESP Fit Center 1683 is at  -0.973109 -1.793812  2.420006
      ESP Fit Center 1684 is at  -2.816623 -0.970079  2.220401
      ESP Fit Center 1685 is at  -2.888994 -1.380514  2.220401
      ESP Fit Center 1686 is at  -2.816623 -1.790949  2.220401
      ESP Fit Center 1687 is at  -2.608240 -2.151880  2.220401
      ESP Fit Center 1688 is at  -2.288978 -2.419772  2.220401
      ESP Fit Center 1689 is at  -1.897345 -2.562315  2.220401
      ESP Fit Center 1690 is at  -1.480579 -2.562315  2.220401
      ESP Fit Center 1691 is at  -1.088946 -2.419772  2.220401
      ESP Fit Center 1692 is at  -0.769684 -2.151880  2.220401
      ESP Fit Center 1693 is at  -0.561301 -1.790949  2.220401
      ESP Fit Center 1694 is at  -3.089865 -0.772016  1.951777
      ESP Fit Center 1695 is at  -3.202087 -1.172540  1.951777
      ESP Fit Center 1696 is at  -3.202087 -1.588488  1.951777
      ESP Fit Center 1697 is at  -3.089865 -1.989012  1.951777
      ESP Fit Center 1698 is at  -2.873745 -2.344407  1.951777
      ESP Fit Center 1699 is at  -2.569755 -2.628314  1.951777
      ESP Fit Center 1700 is at  -2.200441 -2.819677  1.951777
      ESP Fit Center 1701 is at  -1.793192 -2.904304  1.951777
      ESP Fit Center 1702 is at  -1.378213 -2.875919  1.951777
      ESP Fit Center 1703 is at  -0.986281 -2.736626  1.951777
      ESP Fit Center 1704 is at  -0.646464 -2.496757  1.951777
      ESP Fit Center 1705 is at  -0.383964 -2.174101  1.951777
      ESP Fit Center 1706 is at  -3.472793 -1.172014  1.624458
      ESP Fit Center 1707 is at  -3.472793 -1.589014  1.624458
      ESP Fit Center 1708 is at  -3.376626 -1.994773  1.624458
      ESP Fit Center 1709 is at  -3.189477 -2.367418  1.624458
      ESP Fit Center 1710 is at  -2.921434 -2.686858  1.624458
      ESP Fit Center 1711 is at  -2.586949 -2.935874  1.624458
      ESP Fit Center 1712 is at  -2.204053 -3.101039  1.624458
      ESP Fit Center 1713 is at  -1.793389 -3.173450  1.624458
      ESP Fit Center 1714 is at  -1.377094 -3.149204  1.624458
      ESP Fit Center 1715 is at  -0.977613 -3.029607  1.624458
      ESP Fit Center 1716 is at  -0.616481 -2.821107  1.624458
      ESP Fit Center 1717 is at  -0.313166 -2.534944  1.624458
      ESP Fit Center 1718 is at  -3.640934 -0.965610  1.251023
      ESP Fit Center 1719 is at  -3.684542 -1.380514  1.251023
      ESP Fit Center 1720 is at  -3.640934 -1.795418  1.251023
      ESP Fit Center 1721 is at  -3.512015 -2.192190  1.251023
      ESP Fit Center 1722 is at  -3.303420 -2.553486  1.251023
      ESP Fit Center 1723 is at  -3.024266 -2.863519  1.251023
      ESP Fit Center 1724 is at  -2.686752 -3.108737  1.251023
      ESP Fit Center 1725 is at  -2.305630 -3.278423  1.251023
      ESP Fit Center 1726 is at  -1.897557 -3.365162  1.251023
      ESP Fit Center 1727 is at  -1.480367 -3.365162  1.251023
      ESP Fit Center 1728 is at  -1.072294 -3.278423  1.251023
      ESP Fit Center 1729 is at  -0.691172 -3.108737  1.251023
      ESP Fit Center 1730 is at  -0.353659 -2.863519  1.251023
      ESP Fit Center 1731 is at  -3.807458 -1.380514  0.845822
      ESP Fit Center 1732 is at  -3.766752 -1.793812  0.845822
      ESP Fit Center 1733 is at  -3.646197 -2.191227  0.845822
      ESP Fit Center 1734 is at  -3.450427 -2.557488  0.845822
      ESP Fit Center 1735 is at  -3.186965 -2.878517  0.845822
      ESP Fit Center 1736 is at  -2.865936 -3.141979  0.845822
      ESP Fit Center 1737 is at  -2.499675 -3.337749  0.845822
      ESP Fit Center 1738 is at  -2.102260 -3.458304  0.845822
      ESP Fit Center 1739 is at  -1.688962 -3.499010  0.845822
      ESP Fit Center 1740 is at  -1.275664 -3.458304  0.845822
      ESP Fit Center 1741 is at  -0.878249 -3.337749  0.845822
      ESP Fit Center 1742 is at  -0.511989 -3.141979  0.845822
      ESP Fit Center 1743 is at  -0.190959 -2.878517  0.845822
      ESP Fit Center 1744 is at  -3.839181 -1.175193  0.424426
      ESP Fit Center 1745 is at  -3.839181 -1.585835  0.424426
      ESP Fit Center 1746 is at  -3.761467 -1.989056  0.424426
      ESP Fit Center 1747 is at  -3.608847 -2.370283  0.424426
      ESP Fit Center 1748 is at  -3.386837 -2.715737  0.424426
      ESP Fit Center 1749 is at  -3.103461 -3.012933  0.424426
      ESP Fit Center 1750 is at  -2.768962 -3.251129  0.424426
      ESP Fit Center 1751 is at  -2.395429 -3.421716  0.424426
      ESP Fit Center 1752 is at  -1.996362 -3.518528  0.424426
      ESP Fit Center 1753 is at  -1.586185 -3.538068  0.424426
      ESP Fit Center 1754 is at  -1.179723 -3.479627  0.424426
      ESP Fit Center 1755 is at  -0.791666 -3.345319  0.424426
      ESP Fit Center 1756 is at  -0.436039 -3.139998  0.424426
      ESP Fit Center 1757 is at  -0.125697 -2.871085  0.424426
      ESP Fit Center 1758 is at  -3.807458 -1.380514  0.003031
      ESP Fit Center 1759 is at  -3.766752 -1.793812  0.003031
      ESP Fit Center 1760 is at  -3.646197 -2.191227  0.003031
      ESP Fit Center 1761 is at  -3.450427 -2.557488  0.003031
      ESP Fit Center 1762 is at  -3.186965 -2.878517  0.003031
      ESP Fit Center 1763 is at  -2.865936 -3.141979  0.003031
      ESP Fit Center 1764 is at  -2.499675 -3.337749  0.003031
      ESP Fit Center 1765 is at  -2.102260 -3.458304  0.003031
      ESP Fit Center 1766 is at  -1.688962 -3.499010  0.003031
      ESP Fit Center 1767 is at  -1.275664 -3.458304  0.003031
      ESP Fit Center 1768 is at  -0.878249 -3.337749  0.003031
      ESP Fit Center 1769 is at  -0.511989 -3.141979  0.003031
      ESP Fit Center 1770 is at  -0.190959 -2.878517  0.003031
      ESP Fit Center 1771 is at  -3.640934 -1.795418 -0.402170
      ESP Fit Center 1772 is at  -3.512015 -2.192190 -0.402170
      ESP Fit Center 1773 is at  -3.303420 -2.553486 -0.402170
      ESP Fit Center 1774 is at  -3.024266 -2.863519 -0.402170
      ESP Fit Center 1775 is at  -2.686752 -3.108737 -0.402170
      ESP Fit Center 1776 is at  -2.305630 -3.278423 -0.402170
      ESP Fit Center 1777 is at  -1.897557 -3.365162 -0.402170
      ESP Fit Center 1778 is at  -1.480367 -3.365162 -0.402170
      ESP Fit Center 1779 is at  -1.072294 -3.278423 -0.402170
      ESP Fit Center 1780 is at  -0.691172 -3.108737 -0.402170
      ESP Fit Center 1781 is at  -0.353659 -2.863519 -0.402170
      ESP Fit Center 1782 is at  -0.074504 -2.553486 -0.402170
      ESP Fit Center 1783 is at  -3.376626 -1.994773 -0.775605
      ESP Fit Center 1784 is at  -3.189477 -2.367418 -0.775605
      ESP Fit Center 1785 is at  -2.921434 -2.686858 -0.775605
      ESP Fit Center 1786 is at  -2.586949 -2.935874 -0.775605
      ESP Fit Center 1787 is at  -2.204053 -3.101039 -0.775605
      ESP Fit Center 1788 is at  -1.793389 -3.173450 -0.775605
      ESP Fit Center 1789 is at  -1.377094 -3.149204 -0.775605
      ESP Fit Center 1790 is at  -0.977613 -3.029607 -0.775605
      ESP Fit Center 1791 is at  -0.616481 -2.821107 -0.775605
      ESP Fit Center 1792 is at  -0.313166 -2.534944 -0.775605
      ESP Fit Center 1793 is at  -3.089865 -1.989012 -1.102924
      ESP Fit Center 1794 is at  -2.873745 -2.344407 -1.102924
      ESP Fit Center 1795 is at  -2.569755 -2.628314 -1.102924
      ESP Fit Center 1796 is at  -2.200441 -2.819677 -1.102924
      ESP Fit Center 1797 is at  -1.793192 -2.904304 -1.102924
      ESP Fit Center 1798 is at  -1.378213 -2.875919 -1.102924
      ESP Fit Center 1799 is at  -0.986281 -2.736626 -1.102924
      ESP Fit Center 1800 is at  -0.646464 -2.496757 -1.102924
      ESP Fit Center 1801 is at  -2.608240 -2.151880 -1.371548
      ESP Fit Center 1802 is at  -2.288978 -2.419772 -1.371548
      ESP Fit Center 1803 is at  -1.897345 -2.562315 -1.371548
      ESP Fit Center 1804 is at  -1.480579 -2.562315 -1.371548
      ESP Fit Center 1805 is at  -1.088946 -2.419772 -1.371548
      ESP Fit Center 1806 is at  -1.688962 -2.207110 -1.571153
      ESP Fit Center 1807 is at  -3.911018  1.365760  0.282219
      ESP Fit Center 1808 is at  -4.097290  0.994862  0.282219
      ESP Fit Center 1809 is at  -4.193007  0.591004  0.282219
      ESP Fit Center 1810 is at  -4.193007  0.175958  0.282219
      ESP Fit Center 1811 is at  -3.420118  2.120005 -0.069228
      ESP Fit Center 1812 is at  -3.759253  1.873610 -0.069228
      ESP Fit Center 1813 is at  -4.039748  1.562088 -0.069228
      ESP Fit Center 1814 is at  -4.249345  1.199055 -0.069228
      ESP Fit Center 1815 is at  -4.378883  0.800378 -0.069228
      ESP Fit Center 1816 is at  -4.422701  0.383481 -0.069228
      ESP Fit Center 1817 is at  -4.378883 -0.033416 -0.069228
      ESP Fit Center 1818 is at  -4.249345 -0.432093 -0.069228
      ESP Fit Center 1819 is at  -4.039748 -0.795126 -0.069228
      ESP Fit Center 1820 is at  -3.242022  2.373970 -0.454677
      ESP Fit Center 1821 is at  -3.614505  2.174873 -0.454677
      ESP Fit Center 1822 is at  -3.940989  1.906935 -0.454677
      ESP Fit Center 1823 is at  -4.208927  1.580451 -0.454677
      ESP Fit Center 1824 is at  -4.408024  1.207968 -0.454677
      ESP Fit Center 1825 is at  -4.530626  0.803801 -0.454677
      ESP Fit Center 1826 is at  -4.572024  0.383481 -0.454677
      ESP Fit Center 1827 is at  -4.530626 -0.036839 -0.454677
      ESP Fit Center 1828 is at  -4.408024 -0.441006 -0.454677
      ESP Fit Center 1829 is at  -4.208927 -0.813489 -0.454677
      ESP Fit Center 1830 is at  -3.940989 -1.139973 -0.454677
      ESP Fit Center 1831 is at  -2.734960  2.591223 -0.861001
      ESP Fit Center 1832 is at  -3.147042  2.491253 -0.861001
      ESP Fit Center 1833 is at  -3.532757  2.315103 -0.861001
      ESP Fit Center 1834 is at  -3.878165  2.069138 -0.861001
      ESP Fit Center 1835 is at  -4.170783  1.762250 -0.861001
      ESP Fit Center 1836 is at  -4.400033  1.405530 -0.861001
      ESP Fit Center 1837 is at  -4.557631  1.011870 -0.861001
      ESP Fit Center 1838 is at  -4.637880  0.595498 -0.861001
      ESP Fit Center 1839 is at  -4.637880  0.171464 -0.861001
      ESP Fit Center 1840 is at  -4.557631 -0.244908 -0.861001
      ESP Fit Center 1841 is at  -4.400033 -0.638568 -0.861001
      ESP Fit Center 1842 is at  -4.170783 -0.995288 -0.861001
      ESP Fit Center 1843 is at  -3.878165 -1.302177 -0.861001
      ESP Fit Center 1844 is at  -3.532757 -1.548141 -0.861001
      ESP Fit Center 1845 is at  -2.311406  2.611399 -1.274363
      ESP Fit Center 1846 is at  -2.734960  2.591223 -1.274363
      ESP Fit Center 1847 is at  -3.147042  2.491253 -1.274363
      ESP Fit Center 1848 is at  -3.532757  2.315103 -1.274363
      ESP Fit Center 1849 is at  -3.878165  2.069138 -1.274363
      ESP Fit Center 1850 is at  -4.170783  1.762250 -1.274363
      ESP Fit Center 1851 is at  -4.400033  1.405530 -1.274363
      ESP Fit Center 1852 is at  -4.557631  1.011870 -1.274363
      ESP Fit Center 1853 is at  -4.637880  0.595498 -1.274363
      ESP Fit Center 1854 is at  -4.637880  0.171464 -1.274363
      ESP Fit Center 1855 is at  -4.557631 -0.244908 -1.274363
      ESP Fit Center 1856 is at  -4.400033 -0.638568 -1.274363
      ESP Fit Center 1857 is at  -4.170783 -0.995288 -1.274363
      ESP Fit Center 1858 is at  -3.878165 -1.302177 -1.274363
      ESP Fit Center 1859 is at  -3.532757 -1.548141 -1.274363
      ESP Fit Center 1860 is at  -3.147042 -1.724291 -1.274363
      ESP Fit Center 1861 is at  -1.997215  2.496573 -1.680687
      ESP Fit Center 1862 is at  -2.417535  2.537970 -1.680687
      ESP Fit Center 1863 is at  -2.837855  2.496573 -1.680687
      ESP Fit Center 1864 is at  -3.242022  2.373970 -1.680687
      ESP Fit Center 1865 is at  -3.614505  2.174873 -1.680687
      ESP Fit Center 1866 is at  -3.940989  1.906935 -1.680687
      ESP Fit Center 1867 is at  -4.208927  1.580451 -1.680687
      ESP Fit Center 1868 is at  -4.408024  1.207968 -1.680687
      ESP Fit Center 1869 is at  -4.530626  0.803801 -1.680687
      ESP Fit Center 1870 is at  -4.572024  0.383481 -1.680687
      ESP Fit Center 1871 is at  -4.530626 -0.036839 -1.680687
      ESP Fit Center 1872 is at  -4.408024 -0.441006 -1.680687
      ESP Fit Center 1873 is at  -4.208927 -0.813489 -1.680687
      ESP Fit Center 1874 is at  -3.940989 -1.139973 -1.680687
      ESP Fit Center 1875 is at  -3.614505 -1.407912 -1.680687
      ESP Fit Center 1876 is at  -3.242022 -1.607008 -1.680687
      ESP Fit Center 1877 is at  -2.837855 -1.729611 -1.680687
      ESP Fit Center 1878 is at  -1.797905  2.290507 -2.066136
      ESP Fit Center 1879 is at  -2.207938  2.377662 -2.066136
      ESP Fit Center 1880 is at  -2.627132  2.377662 -2.066136
      ESP Fit Center 1881 is at  -3.037165  2.290507 -2.066136
      ESP Fit Center 1882 is at  -3.420118  2.120005 -2.066136
      ESP Fit Center 1883 is at  -3.759253  1.873610 -2.066136
      ESP Fit Center 1884 is at  -4.039748  1.562088 -2.066136
      ESP Fit Center 1885 is at  -4.249345  1.199055 -2.066136
      ESP Fit Center 1886 is at  -4.378883  0.800378 -2.066136
      ESP Fit Center 1887 is at  -4.422701  0.383481 -2.066136
      ESP Fit Center 1888 is at  -4.378883 -0.033416 -2.066136
      ESP Fit Center 1889 is at  -4.249345 -0.432093 -2.066136
      ESP Fit Center 1890 is at  -4.039748 -0.795126 -2.066136
      ESP Fit Center 1891 is at  -3.759253 -1.106648 -2.066136
      ESP Fit Center 1892 is at  -3.420118 -1.353044 -2.066136
      ESP Fit Center 1893 is at  -3.037165 -1.523545 -2.066136
      ESP Fit Center 1894 is at  -2.627132 -1.610700 -2.066136
      ESP Fit Center 1895 is at  -1.350079  1.817323 -2.417584
      ESP Fit Center 1896 is at  -1.709519  2.024846 -2.417584
      ESP Fit Center 1897 is at  -2.107129  2.143883 -2.417584
      ESP Fit Center 1898 is at  -2.521472  2.168015 -2.417584
      ESP Fit Center 1899 is at  -2.930212  2.095943 -2.417584
      ESP Fit Center 1900 is at  -3.311314  1.931552 -2.417584
      ESP Fit Center 1901 is at  -3.644232  1.683704 -2.417584
      ESP Fit Center 1902 is at  -3.911018  1.365760 -2.417584
      ESP Fit Center 1903 is at  -4.097290  0.994862 -2.417584
      ESP Fit Center 1904 is at  -4.193007  0.591004 -2.417584
      ESP Fit Center 1905 is at  -4.193007  0.175958 -2.417584
      ESP Fit Center 1906 is at  -4.097290 -0.227900 -2.417584
      ESP Fit Center 1907 is at  -3.911018 -0.598799 -2.417584
      ESP Fit Center 1908 is at  -3.644232 -0.916742 -2.417584
      ESP Fit Center 1909 is at  -3.311314 -1.164590 -2.417584
      ESP Fit Center 1910 is at  -2.930212 -1.328981 -2.417584
      ESP Fit Center 1911 is at  -2.521472 -1.401053 -2.417584
      ESP Fit Center 1912 is at  -2.107129 -1.376921 -2.417584
      ESP Fit Center 1913 is at  -1.148017  1.199350 -2.723062
      ESP Fit Center 1914 is at  -1.429299  1.523966 -2.723062
      ESP Fit Center 1915 is at  -1.790641  1.756187 -2.723062
      ESP Fit Center 1916 is at  -2.202771  1.877199 -2.723062
      ESP Fit Center 1917 is at  -2.632299  1.877199 -2.723062
      ESP Fit Center 1918 is at  -3.044429  1.756187 -2.723062
      ESP Fit Center 1919 is at  -3.405771  1.523966 -2.723062
      ESP Fit Center 1920 is at  -3.687052  1.199350 -2.723062
      ESP Fit Center 1921 is at  -3.865485  0.808637 -2.723062
      ESP Fit Center 1922 is at  -3.926613  0.383481 -2.723062
      ESP Fit Center 1923 is at  -3.865485 -0.041675 -2.723062
      ESP Fit Center 1924 is at  -3.687052 -0.432388 -2.723062
      ESP Fit Center 1925 is at  -3.405771 -0.757004 -2.723062
      ESP Fit Center 1926 is at  -3.044429 -0.989225 -2.723062
      ESP Fit Center 1927 is at  -2.632299 -1.110237 -2.723062
      ESP Fit Center 1928 is at  -2.202771 -1.110237 -2.723062
      ESP Fit Center 1929 is at  -1.790641 -0.989225 -2.723062
      ESP Fit Center 1930 is at  -1.238327  0.383481 -2.972169
      ESP Fit Center 1931 is at  -1.317956  0.809460 -2.972169
      ESP Fit Center 1932 is at  -1.546090  1.177908 -2.972169
      ESP Fit Center 1933 is at  -1.891917  1.439065 -2.972169
      ESP Fit Center 1934 is at  -2.308731  1.557659 -2.972169
      ESP Fit Center 1935 is at  -2.740240  1.517674 -2.972169
      ESP Fit Center 1936 is at  -3.128166  1.324509 -2.972169
      ESP Fit Center 1937 is at  -3.420118  1.004254 -2.972169
      ESP Fit Center 1938 is at  -3.576665  0.600160 -2.972169
      ESP Fit Center 1939 is at  -3.576665  0.166802 -2.972169
      ESP Fit Center 1940 is at  -3.420118 -0.237292 -2.972169
      ESP Fit Center 1941 is at  -3.128166 -0.557547 -2.972169
      ESP Fit Center 1942 is at  -2.740240 -0.750712 -2.972169
      ESP Fit Center 1943 is at  -2.308731 -0.790697 -2.972169
      ESP Fit Center 1944 is at  -1.891917 -0.672103 -2.972169
      ESP Fit Center 1945 is at  -1.546090 -0.410946 -2.972169
      ESP Fit Center 1946 is at  -1.317956 -0.042498 -2.972169
      ESP Fit Center 1947 is at  -1.608354  0.383481 -3.156420
      ESP Fit Center 1948 is at  -1.716763  0.788072 -3.156420
      ESP Fit Center 1949 is at  -2.012944  1.084253 -3.156420
      ESP Fit Center 1950 is at  -2.417535  1.192662 -3.156420
      ESP Fit Center 1951 is at  -2.822126  1.084253 -3.156420
      ESP Fit Center 1952 is at  -3.118306  0.788072 -3.156420
      ESP Fit Center 1953 is at  -3.226716  0.383481 -3.156420
      ESP Fit Center 1954 is at  -3.118306 -0.021110 -3.156420
      ESP Fit Center 1955 is at  -2.822126 -0.317291 -3.156420
      ESP Fit Center 1956 is at  -2.417535 -0.425700 -3.156420
      ESP Fit Center 1957 is at  -2.012944 -0.317291 -3.156420
      ESP Fit Center 1958 is at  -1.716763 -0.021110 -3.156420
      ESP Fit Center 1959 is at  -2.005936  0.383481 -3.269542
      ESP Fit Center 1960 is at  -2.211735  0.739936 -3.269542
      ESP Fit Center 1961 is at  -2.623334  0.739936 -3.269542
      ESP Fit Center 1962 is at  -2.829134  0.383481 -3.269542
      ESP Fit Center 1963 is at  -2.623334  0.027026 -3.269542
      ESP Fit Center 1964 is at  -2.211735  0.027026 -3.269542
      ESP Fit Center 1965 is at  -2.417535  0.383481 -3.307682
      ESP Fit Center 1966 is at  -1.382912  0.921886  3.370277
      ESP Fit Center 1967 is at  -0.971313  0.921886  3.332137
      ESP Fit Center 1968 is at  -1.177113  1.278341  3.332137
      ESP Fit Center 1969 is at  -1.588712  1.278341  3.332137
      ESP Fit Center 1970 is at  -1.794511  0.921886  3.332137
      ESP Fit Center 1971 is at  -1.588712  0.565431  3.332137
      ESP Fit Center 1972 is at  -1.177113  0.565431  3.332137
      ESP Fit Center 1973 is at  -0.573731  0.921886  3.219015
      ESP Fit Center 1974 is at  -0.682141  1.326477  3.219015
      ESP Fit Center 1975 is at  -0.978322  1.622657  3.219015
      ESP Fit Center 1976 is at  -1.382912  1.731067  3.219015
      ESP Fit Center 1977 is at  -1.787503  1.622657  3.219015
      ESP Fit Center 1978 is at  -2.083684  1.326477  3.219015
      ESP Fit Center 1979 is at  -2.192094  0.921886  3.219015
      ESP Fit Center 1980 is at  -2.083684  0.517295  3.219015
      ESP Fit Center 1981 is at  -1.787503  0.221114  3.219015
      ESP Fit Center 1982 is at  -1.382912  0.112705  3.219015
      ESP Fit Center 1983 is at  -0.978322  0.221114  3.219015
      ESP Fit Center 1984 is at  -0.682141  0.517295  3.219015
      ESP Fit Center 1985 is at  -0.203704  0.921886  3.034763
      ESP Fit Center 1986 is at  -0.283334  1.347865  3.034763
      ESP Fit Center 1987 is at  -0.511467  1.716313  3.034763
      ESP Fit Center 1988 is at  -0.857294  1.977470  3.034763
      ESP Fit Center 1989 is at  -1.274109  2.096064  3.034763
      ESP Fit Center 1990 is at  -1.705618  2.056078  3.034763
      ESP Fit Center 1991 is at  -2.093544  1.862914  3.034763
      ESP Fit Center 1992 is at  -2.385495  1.542659  3.034763
      ESP Fit Center 1993 is at  -2.542042  1.138565  3.034763
      ESP Fit Center 1994 is at  -2.542042  0.705207  3.034763
      ESP Fit Center 1995 is at  -2.385495  0.301113  3.034763
      ESP Fit Center 1996 is at  -2.093544 -0.019143  3.034763
      ESP Fit Center 1997 is at  -1.705618 -0.212307  3.034763
      ESP Fit Center 1998 is at  -1.274109 -0.252292  3.034763
      ESP Fit Center 1999 is at  -0.857294 -0.133698  3.034763
      ESP Fit Center 2000 is at  -0.511467  0.127459  3.034763
      ESP Fit Center 2001 is at  -0.283334  0.495907  3.034763
      ESP Fit Center 2002 is at   0.126166  0.921886  2.785657
      ESP Fit Center 2003 is at   0.065038  1.347042  2.785657
      ESP Fit Center 2004 is at  -0.113395  1.737755  2.785657
      ESP Fit Center 2005 is at  -0.394676  2.062371  2.785657
      ESP Fit Center 2006 is at  -0.756019  2.294592  2.785657
      ESP Fit Center 2007 is at  -1.168148  2.415604  2.785657
      ESP Fit Center 2008 is at  -1.597677  2.415604  2.785657
      ESP Fit Center 2009 is at  -2.009806  2.294592  2.785657
      ESP Fit Center 2010 is at  -2.371148  2.062371  2.785657
      ESP Fit Center 2011 is at  -2.652430  1.737755  2.785657
      ESP Fit Center 2012 is at  -2.830862  1.347042  2.785657
      ESP Fit Center 2013 is at  -2.891991  0.921886  2.785657
      ESP Fit Center 2014 is at  -2.830862  0.496729  2.785657
      ESP Fit Center 2015 is at  -2.652430  0.106017  2.785657
      ESP Fit Center 2016 is at  -2.371148 -0.218599  2.785657
      ESP Fit Center 2017 is at  -2.009806 -0.450820  2.785657
      ESP Fit Center 2018 is at  -1.597677 -0.571832  2.785657
      ESP Fit Center 2019 is at  -1.168148 -0.571832  2.785657
      ESP Fit Center 2020 is at  -0.756019 -0.450820  2.785657
      ESP Fit Center 2021 is at  -0.394676 -0.218599  2.785657
      ESP Fit Center 2022 is at  -0.113395  0.106017  2.785657
      ESP Fit Center 2023 is at   0.065038  0.496729  2.785657
      ESP Fit Center 2024 is at   0.404646  0.921886  2.480179
      ESP Fit Center 2025 is at   0.356462  1.334125  2.480179
      ESP Fit Center 2026 is at   0.214508  1.724141  2.480179
      ESP Fit Center 2027 is at  -0.013563  2.070906  2.480179
      ESP Fit Center 2028 is at  -0.315456  2.355728  2.480179
      ESP Fit Center 2029 is at  -0.674897  2.563251  2.480179
      ESP Fit Center 2030 is at  -1.072506  2.682287  2.480179
      ESP Fit Center 2031 is at  -1.486850  2.706420  2.480179
      ESP Fit Center 2032 is at  -1.895590  2.634348  2.480179
      ESP Fit Center 2033 is at  -2.276692  2.469957  2.480179
      ESP Fit Center 2034 is at  -2.609610  2.222109  2.480179
      ESP Fit Center 2035 is at  -2.876396  1.904165  2.480179
      ESP Fit Center 2036 is at  -3.062668  1.533267  2.480179
      ESP Fit Center 2037 is at  -3.158384  1.129409  2.480179
      ESP Fit Center 2038 is at  -3.158384  0.714363  2.480179
      ESP Fit Center 2039 is at  -3.062668  0.310505  2.480179
      ESP Fit Center 2040 is at  -2.876396 -0.060394  2.480179
      ESP Fit Center 2041 is at  -2.609610 -0.378337  2.480179
      ESP Fit Center 2042 is at  -2.276692 -0.626185  2.480179
      ESP Fit Center 2043 is at  -0.674897 -0.719479  2.480179
      ESP Fit Center 2044 is at   0.239301  2.100493  2.128731
      ESP Fit Center 2045 is at  -0.041195  2.412014  2.128731
      ESP Fit Center 2046 is at  -0.380330  2.658410  2.128731
      ESP Fit Center 2047 is at  -0.763282  2.828912  2.128731
      ESP Fit Center 2048 is at  -1.173315  2.916067  2.128731
      ESP Fit Center 2049 is at  -1.592509  2.916067  2.128731
      ESP Fit Center 2050 is at  -2.002543  2.828912  2.128731
      ESP Fit Center 2051 is at  -2.385495  2.658410  2.128731
      ESP Fit Center 2052 is at  -2.724630  2.412014  2.128731
      ESP Fit Center 2053 is at  -3.005126  2.100493  2.128731
      ESP Fit Center 2054 is at  -3.214722  1.737460  2.128731
      ESP Fit Center 2055 is at  -3.344260  1.338783  2.128731
      ESP Fit Center 2056 is at  -3.388078  0.921886  2.128731
      ESP Fit Center 2057 is at  -3.344260  0.504988  2.128731
      ESP Fit Center 2058 is at  -3.214722  0.106311  2.128731
      ESP Fit Center 2059 is at   0.140542  2.445340  1.743282
      ESP Fit Center 2060 is at  -0.185942  2.713278  1.743282
      ESP Fit Center 2061 is at  -0.558425  2.912375  1.743282
      ESP Fit Center 2062 is at  -0.962592  3.034977  1.743282
      ESP Fit Center 2063 is at  -1.382912  3.076375  1.743282
      ESP Fit Center 2064 is at  -1.803232  3.034977  1.743282
      ESP Fit Center 2065 is at  -2.207400  2.912375  1.743282
      ESP Fit Center 2066 is at  -2.579883  2.713278  1.743282
      ESP Fit Center 2067 is at  -2.906366  2.445340  1.743282
      ESP Fit Center 2068 is at  -3.174305  2.118856  1.743282
      ESP Fit Center 2069 is at  -3.373401  1.746373  1.743282
      ESP Fit Center 2070 is at  -3.496004  1.342206  1.743282
      ESP Fit Center 2071 is at  -3.537402  0.921886  1.743282
      ESP Fit Center 2072 is at  -3.496004  0.501566  1.743282
      ESP Fit Center 2073 is at  -0.089128  2.738752  1.336958
      ESP Fit Center 2074 is at  -0.456352  2.950770  1.336958
      ESP Fit Center 2075 is at  -0.857065  3.089458  1.336958
      ESP Fit Center 2076 is at  -1.276784  3.149804  1.336958
      ESP Fit Center 2077 is at  -1.700338  3.129628  1.336958
      ESP Fit Center 2078 is at  -2.112419  3.029658  1.336958
      ESP Fit Center 2079 is at  -2.498135  2.853507  1.336958
      ESP Fit Center 2080 is at  -2.843543  2.607543  1.336958
      ESP Fit Center 2081 is at  -3.136160  2.300655  1.336958
      ESP Fit Center 2082 is at  -3.365411  1.943935  1.336958
      ESP Fit Center 2083 is at  -3.523008  1.550275  1.336958
      ESP Fit Center 2084 is at  -3.603257  1.133903  1.336958
      ESP Fit Center 2085 is at  -0.089128  2.738752  0.923596
      ESP Fit Center 2086 is at  -0.456352  2.950770  0.923596
      ESP Fit Center 2087 is at  -0.857065  3.089458  0.923596
      ESP Fit Center 2088 is at  -1.276784  3.149804  0.923596
      ESP Fit Center 2089 is at  -1.700338  3.129628  0.923596
      ESP Fit Center 2090 is at  -2.112419  3.029658  0.923596
      ESP Fit Center 2091 is at  -2.498135  2.853507  0.923596
      ESP Fit Center 2092 is at  -2.843543  2.607543  0.923596
      ESP Fit Center 2093 is at  -3.136160  2.300655  0.923596
      ESP Fit Center 2094 is at  -3.365411  1.943935  0.923596
      ESP Fit Center 2095 is at  -0.185942  2.713278  0.517272
      ESP Fit Center 2096 is at  -0.558425  2.912375  0.517272
      ESP Fit Center 2097 is at  -0.962592  3.034977  0.517272
      ESP Fit Center 2098 is at  -1.382912  3.076375  0.517272
      ESP Fit Center 2099 is at  -1.803232  3.034977  0.517272
      ESP Fit Center 2100 is at  -2.207400  2.912375  0.517272
      ESP Fit Center 2101 is at  -2.579883  2.713278  0.517272
      ESP Fit Center 2102 is at  -2.906366  2.445340  0.517272
      ESP Fit Center 2103 is at   1.994023  0.892558  2.823361
      ESP Fit Center 2104 is at   1.181972  1.035744  2.823361
      ESP Fit Center 2105 is at   0.788571  0.892558  2.823361
      ESP Fit Center 2106 is at   2.755287  0.636105  2.641120
      ESP Fit Center 2107 is at   3.264063  0.260832  2.412203
      ESP Fit Center 2108 is at   3.131662  0.653784  2.412203
      ESP Fit Center 2109 is at   3.618683 -0.151395  2.140527
      ESP Fit Center 2110 is at   3.578431  0.270141  2.140527
      ESP Fit Center 2111 is at   3.459131  0.676441  2.140527
      ESP Fit Center 2112 is at   3.890360 -0.151395  1.830739
      ESP Fit Center 2113 is at   3.856276  0.259937  1.830739
      ESP Fit Center 2114 is at   3.754954  0.660050  1.830739
      ESP Fit Center 2115 is at   3.856276 -0.562727  1.830739
      ESP Fit Center 2116 is at   4.119277 -0.151395  1.488140
      ESP Fit Center 2117 is at   4.087306  0.265029  1.488140
      ESP Fit Center 2118 is at   3.992143  0.671693  1.488140
      ESP Fit Center 2119 is at   3.992143 -0.974483  1.488140
      ESP Fit Center 2120 is at   4.087306 -0.567819  1.488140
      ESP Fit Center 2121 is at   4.301517 -0.151395  1.118593
      ESP Fit Center 2122 is at   4.271896  0.262773  1.118593
      ESP Fit Center 2123 is at   4.183633  0.668509  1.118593
      ESP Fit Center 2124 is at   4.038527  1.057554  1.118593
      ESP Fit Center 2125 is at   3.839530 -1.724779  1.118593
      ESP Fit Center 2126 is at   4.038527 -1.360344  1.118593
      ESP Fit Center 2127 is at   4.183633 -0.971299  1.118593
      ESP Fit Center 2128 is at   4.271896 -0.565562  1.118593
      ESP Fit Center 2129 is at   4.433963 -0.151395  0.728420
      ESP Fit Center 2130 is at   4.405624  0.262915  0.728420
      ESP Fit Center 2131 is at   4.321133  0.669507  0.728420
      ESP Fit Center 2132 is at   4.182065  1.060807  0.728420
      ESP Fit Center 2133 is at   3.468078 -2.375085  0.728420
      ESP Fit Center 2134 is at   3.751528 -2.071585  0.728420
      ESP Fit Center 2135 is at   3.991010 -1.732315  0.728420
      ESP Fit Center 2136 is at   4.182065 -1.363596  0.728420
      ESP Fit Center 2137 is at   4.321133 -0.972296  0.728420
      ESP Fit Center 2138 is at   4.405624 -0.565705  0.728420
      ESP Fit Center 2139 is at   4.514348 -0.151395  0.324298
      ESP Fit Center 2140 is at   4.486483  0.264867  0.324298
      ESP Fit Center 2141 is at   4.403384  0.673701  0.324298
      ESP Fit Center 2142 is at   4.266534  1.067811  0.324298
      ESP Fit Center 2143 is at   0.466013 -3.134229  0.324298
      ESP Fit Center 2144 is at   2.513746 -3.065766  0.324298
      ESP Fit Center 2145 is at   2.892178 -2.890154  0.324298
      ESP Fit Center 2146 is at   3.243828 -2.665670  0.324298
      ESP Fit Center 2147 is at   3.562419 -2.396318  0.324298
      ESP Fit Center 2148 is at   3.842266 -2.086906  0.324298
      ESP Fit Center 2149 is at   4.078375 -1.742954  0.324298
      ESP Fit Center 2150 is at   4.301517  1.054058 -0.086860
      ESP Fit Center 2151 is at   4.119277  1.423605 -0.086860
      ESP Fit Center 2152 is at   0.185844 -3.061615 -0.086860
      ESP Fit Center 2153 is at   0.576017 -3.194061 -0.086860
      ESP Fit Center 2154 is at   0.980139 -3.274446 -0.086860
      ESP Fit Center 2155 is at   1.391297 -3.301395 -0.086860
      ESP Fit Center 2156 is at   1.802454 -3.274446 -0.086860
      ESP Fit Center 2157 is at   2.206577 -3.194061 -0.086860
      ESP Fit Center 2158 is at   2.596750 -3.061615 -0.086860
      ESP Fit Center 2159 is at   2.966297 -2.879375 -0.086860
      ESP Fit Center 2160 is at   3.308895 -2.650458 -0.086860
      ESP Fit Center 2161 is at   3.618683 -2.378781 -0.086860
      ESP Fit Center 2162 is at   4.078375  1.440164 -0.498017
      ESP Fit Center 2163 is at   0.076696 -2.984286 -0.498017
      ESP Fit Center 2164 is at   0.466013 -3.134229 -0.498017
      ESP Fit Center 2165 is at   0.871842 -3.230943 -0.498017
      ESP Fit Center 2166 is at   1.286940 -3.272702 -0.498017
      ESP Fit Center 2167 is at   1.703901 -3.258762 -0.498017
      ESP Fit Center 2168 is at   2.115283 -3.189370 -0.498017
      ESP Fit Center 2169 is at   2.513746 -3.065766 -0.498017
      ESP Fit Center 2170 is at   2.892178 -2.890154 -0.498017
      ESP Fit Center 2171 is at   3.751528  1.768795 -0.902140
      ESP Fit Center 2172 is at  -0.008528 -2.852933 -0.902140
      ESP Fit Center 2173 is at   0.372370 -3.018380 -0.902140
      ESP Fit Center 2174 is at   0.772248 -3.130421 -0.902140
      ESP Fit Center 2175 is at   1.183658 -3.186968 -0.902140
      ESP Fit Center 2176 is at   1.598936 -3.186968 -0.902140
      ESP Fit Center 2177 is at   2.010346 -3.130421 -0.902140
      ESP Fit Center 2178 is at   2.410224 -3.018380 -0.902140
      ESP Fit Center 2179 is at   3.297086  2.048003 -1.292312
      ESP Fit Center 2180 is at   0.182348 -2.798625 -1.292312
      ESP Fit Center 2181 is at   0.571393 -2.943731 -1.292312
      ESP Fit Center 2182 is at   0.977129 -3.031994 -1.292312
      ESP Fit Center 2183 is at   1.391297 -3.061615 -1.292312
      ESP Fit Center 2184 is at   1.805464 -3.031994 -1.292312
      ESP Fit Center 2185 is at   2.211201 -2.943731 -1.292312
      ESP Fit Center 2186 is at   3.045068  2.018148 -1.661860
      ESP Fit Center 2187 is at   2.694507  2.245169 -1.661860
      ESP Fit Center 2188 is at   1.078443  2.558586 -1.661860
      ESP Fit Center 2189 is at   0.275366 -2.640687 -1.661860
      ESP Fit Center 2190 is at   0.668433 -2.781859 -1.661860
      ESP Fit Center 2191 is at   1.078443 -2.861376 -1.661860
      ESP Fit Center 2192 is at   1.495786 -2.877373 -1.661860
      ESP Fit Center 2193 is at   1.910680 -2.829476 -1.661860
      ESP Fit Center 2194 is at   2.758155  1.940737 -2.004458
      ESP Fit Center 2195 is at   2.395159  2.137180 -2.004458
      ESP Fit Center 2196 is at   2.004781  2.271197 -2.004458
      ESP Fit Center 2197 is at   1.597668  2.339133 -2.004458
      ESP Fit Center 2198 is at   1.184926  2.339133 -2.004458
      ESP Fit Center 2199 is at   0.387435 -2.439970 -2.004458
      ESP Fit Center 2200 is at   0.777813 -2.573987 -2.004458
      ESP Fit Center 2201 is at   1.184926 -2.641922 -2.004458
      ESP Fit Center 2202 is at   1.597668 -2.641922 -2.004458
      ESP Fit Center 2203 is at   2.316587  1.874707 -2.314246
      ESP Fit Center 2204 is at   1.916423  2.013205 -2.314246
      ESP Fit Center 2205 is at   1.497280  2.073469 -2.314246
      ESP Fit Center 2206 is at   1.074307  2.053320 -2.314246
      ESP Fit Center 2207 is at   0.662790 -2.256277 -2.314246
      ESP Fit Center 2208 is at   1.074307 -2.356110 -2.314246
      ESP Fit Center 2209 is at   1.497280 -2.376258 -2.314246
      ESP Fit Center 2210 is at   1.904309  1.696307 -2.585923
      ESP Fit Center 2211 is at   1.495114  1.763391 -2.585923
      ESP Fit Center 2212 is at   1.081064 -2.043732 -2.585923
      ESP Fit Center 2213 is at   1.798937  1.369938 -2.814840
      ESP Fit Center 2214 is at   1.391297  1.423605 -2.814840
      ESP Fit Center 2215 is at   0.983657 -1.672728 -2.814840
      ESP Fit Center 2216 is at   1.600622  1.035744 -2.997080
      ESP Fit Center 2217 is at   1.391297  0.663885 -3.129526
      ESP Fit Center 2218 is at   1.690770  1.381144  2.851627
      ESP Fit Center 2219 is at   2.112735  1.381144  2.814709
      ESP Fit Center 2220 is at   1.901753  1.746576  2.814709
      ESP Fit Center 2221 is at   1.479788  1.746576  2.814709
      ESP Fit Center 2222 is at   1.268805  1.381144  2.814709
      ESP Fit Center 2223 is at   1.901753  1.015711  2.814709
      ESP Fit Center 2224 is at   2.521879  1.381144  2.705080
      ESP Fit Center 2225 is at   2.410532  1.796698  2.705080
      ESP Fit Center 2226 is at   2.106325  2.100905  2.705080
      ESP Fit Center 2227 is at   1.690770  2.212253  2.705080
      ESP Fit Center 2228 is at   1.275216  2.100905  2.705080
      ESP Fit Center 2229 is at   0.971009  1.796698  2.705080
      ESP Fit Center 2230 is at   0.859661  1.381144  2.705080
      ESP Fit Center 2231 is at   2.410532  0.965589  2.705080
      ESP Fit Center 2232 is at   2.905770  1.381144  2.526068
      ESP Fit Center 2233 is at   2.832497  1.796698  2.526068
      ESP Fit Center 2234 is at   2.621514  2.162131  2.526068
      ESP Fit Center 2235 is at   2.298270  2.433364  2.526068
      ESP Fit Center 2236 is at   1.901753  2.577685  2.526068
      ESP Fit Center 2237 is at   1.479788  2.577685  2.526068
      ESP Fit Center 2238 is at   1.083270  2.433364  2.526068
      ESP Fit Center 2239 is at   0.760026  2.162131  2.526068
      ESP Fit Center 2240 is at   0.549044  1.796698  2.526068
      ESP Fit Center 2241 is at   2.832497  0.965589  2.526068
      ESP Fit Center 2242 is at   3.252744  1.381144  2.283115
      ESP Fit Center 2243 is at   3.194822  1.802559  2.283115
      ESP Fit Center 2244 is at   3.025351  2.192720  2.283115
      ESP Fit Center 2245 is at   2.756900  2.522690  2.283115
      ESP Fit Center 2246 is at   2.409380  2.767997  2.283115
      ESP Fit Center 2247 is at   2.008563  2.910447  2.283115
      ESP Fit Center 2248 is at   1.584177  2.939476  2.283115
      ESP Fit Center 2249 is at   1.167697  2.852931  2.283115
      ESP Fit Center 2250 is at   0.790010  2.657229  2.283115
      ESP Fit Center 2251 is at   0.479129  2.366887  2.283115
      ESP Fit Center 2252 is at   3.194822  0.959728  2.283115
      ESP Fit Center 2253 is at   3.552258  1.381144  1.983600
      ESP Fit Center 2254 is at   3.505587  1.795364  1.983600
      ESP Fit Center 2255 is at   3.367913  2.188813  1.983600
      ESP Fit Center 2256 is at   3.146140  2.541762  1.983600
      ESP Fit Center 2257 is at   2.851389  2.836514  1.983600
      ESP Fit Center 2258 is at   2.498439  3.058286  1.983600
      ESP Fit Center 2259 is at   2.104990  3.195960  1.983600
      ESP Fit Center 2260 is at   1.690770  3.242632  1.983600
      ESP Fit Center 2261 is at   1.276550  3.195960  1.983600
      ESP Fit Center 2262 is at   0.883101  3.058286  1.983600
      ESP Fit Center 2263 is at   0.530151  2.836514  1.983600
      ESP Fit Center 2264 is at   3.505587  0.966924  1.983600
      ESP Fit Center 2265 is at   3.795212  1.381144  1.636627
      ESP Fit Center 2266 is at   3.754776  1.791700  1.636627
      ESP Fit Center 2267 is at   3.635021  2.186479  1.636627
      ESP Fit Center 2268 is at   3.440549  2.550309  1.636627
      ESP Fit Center 2269 is at   3.178835  2.869209  1.636627
      ESP Fit Center 2270 is at   2.859935  3.130923  1.636627
      ESP Fit Center 2271 is at   2.496105  3.325394  1.636627
      ESP Fit Center 2272 is at   2.101326  3.445149  1.636627
      ESP Fit Center 2273 is at   1.690770  3.485585  1.636627
      ESP Fit Center 2274 is at   1.280214  3.445149  1.636627
      ESP Fit Center 2275 is at   0.885435  3.325394  1.636627
      ESP Fit Center 2276 is at   0.521605  3.130923  1.636627
      ESP Fit Center 2277 is at   0.202705  2.869209  1.636627
      ESP Fit Center 2278 is at   3.974223  1.381144  1.252736
      ESP Fit Center 2279 is at   3.935343  1.800727  1.252736
      ESP Fit Center 2280 is at   3.820027  2.206022  1.252736
      ESP Fit Center 2281 is at   3.632201  2.583227  1.252736
      ESP Fit Center 2282 is at   3.378262  2.919496  1.252736
      ESP Fit Center 2283 is at   3.066858  3.203378  1.252736
      ESP Fit Center 2284 is at   2.708593  3.425207  1.252736
      ESP Fit Center 2285 is at   2.315667  3.577427  1.252736
      ESP Fit Center 2286 is at   1.901461  3.654856  1.252736
      ESP Fit Center 2287 is at   1.480080  3.654856  1.252736
      ESP Fit Center 2288 is at   1.065874  3.577427  1.252736
      ESP Fit Center 2289 is at   0.672947  3.425207  1.252736
      ESP Fit Center 2290 is at   0.314682  3.203378  1.252736
      ESP Fit Center 2291 is at   4.083853  1.381144  0.843592
      ESP Fit Center 2292 is at   4.047497  1.796698  0.843592
      ESP Fit Center 2293 is at   3.939532  2.199626  0.843592
      ESP Fit Center 2294 is at   3.763241  2.577685  0.843592
      ESP Fit Center 2295 is at   3.523978  2.919388  0.843592
      ESP Fit Center 2296 is at   3.229014  3.214351  0.843592
      ESP Fit Center 2297 is at   2.887312  3.453614  0.843592
      ESP Fit Center 2298 is at   2.509253  3.629906  0.843592
      ESP Fit Center 2299 is at   2.106325  3.737870  0.843592
      ESP Fit Center 2300 is at   1.690770  3.774226  0.843592
      ESP Fit Center 2301 is at   1.275216  3.737870  0.843592
      ESP Fit Center 2302 is at   0.872288  3.629906  0.843592
      ESP Fit Center 2303 is at   0.494229  3.453614  0.843592
      ESP Fit Center 2304 is at   0.152526  3.214351  0.843592
      ESP Fit Center 2305 is at   4.120770  1.381144  0.421627
      ESP Fit Center 2306 is at   4.085817  1.791816  0.421627
      ESP Fit Center 2307 is at   3.981962  2.190673  0.421627
      ESP Fit Center 2308 is at   3.812194  2.566242  0.421627
      ESP Fit Center 2309 is at   3.581397  2.907718  0.421627
      ESP Fit Center 2310 is at   3.296210  3.205277  0.421627
      ESP Fit Center 2311 is at   2.964837  3.450359  0.421627
      ESP Fit Center 2312 is at   2.596811  3.635914  0.421627
      ESP Fit Center 2313 is at   2.202721  3.756603  0.421627
      ESP Fit Center 2314 is at   1.793902  3.808954  0.421627
      ESP Fit Center 2315 is at   1.382117  3.791462  0.421627
      ESP Fit Center 2316 is at   0.979211  3.704629  0.421627
      ESP Fit Center 2317 is at   0.596775  3.550953  0.421627
      ESP Fit Center 2318 is at   0.245811  3.334857  0.421627
      ESP Fit Center 2319 is at  -0.063583  3.062555  0.421627
      ESP Fit Center 2320 is at   4.047497  1.796698 -0.000338
      ESP Fit Center 2321 is at   3.939532  2.199626 -0.000338
      ESP Fit Center 2322 is at   3.763241  2.577685 -0.000338
      ESP Fit Center 2323 is at   3.523978  2.919388 -0.000338
      ESP Fit Center 2324 is at   3.229014  3.214351 -0.000338
      ESP Fit Center 2325 is at   2.887312  3.453614 -0.000338
      ESP Fit Center 2326 is at   2.509253  3.629906 -0.000338
      ESP Fit Center 2327 is at   2.106325  3.737870 -0.000338
      ESP Fit Center 2328 is at   1.690770  3.774226 -0.000338
      ESP Fit Center 2329 is at   1.275216  3.737870 -0.000338
      ESP Fit Center 2330 is at   0.872288  3.629906 -0.000338
      ESP Fit Center 2331 is at   0.494229  3.453614 -0.000338
      ESP Fit Center 2332 is at   0.152526  3.214351 -0.000338
      ESP Fit Center 2333 is at   3.935343  1.800727 -0.409482
      ESP Fit Center 2334 is at   3.820027  2.206022 -0.409482
      ESP Fit Center 2335 is at   3.632201  2.583227 -0.409482
      ESP Fit Center 2336 is at   3.378262  2.919496 -0.409482
      ESP Fit Center 2337 is at   3.066858  3.203378 -0.409482
      ESP Fit Center 2338 is at   2.708593  3.425207 -0.409482
      ESP Fit Center 2339 is at   2.315667  3.577427 -0.409482
      ESP Fit Center 2340 is at   1.901461  3.654856 -0.409482
      ESP Fit Center 2341 is at   1.480080  3.654856 -0.409482
      ESP Fit Center 2342 is at   1.065874  3.577427 -0.409482
      ESP Fit Center 2343 is at   0.672947  3.425207 -0.409482
      ESP Fit Center 2344 is at   0.314682  3.203378 -0.409482
      ESP Fit Center 2345 is at   3.635021  2.186479 -0.793373
      ESP Fit Center 2346 is at   3.440549  2.550309 -0.793373
      ESP Fit Center 2347 is at   3.178835  2.869209 -0.793373
      ESP Fit Center 2348 is at   2.859935  3.130923 -0.793373
      ESP Fit Center 2349 is at   2.496105  3.325394 -0.793373
      ESP Fit Center 2350 is at   2.101326  3.445149 -0.793373
      ESP Fit Center 2351 is at   1.690770  3.485585 -0.793373
      ESP Fit Center 2352 is at   1.280214  3.445149 -0.793373
      ESP Fit Center 2353 is at   0.885435  3.325394 -0.793373
      ESP Fit Center 2354 is at   0.521605  3.130923 -0.793373
      ESP Fit Center 2355 is at   0.202705  2.869209 -0.793373
      ESP Fit Center 2356 is at   3.367913  2.188813 -1.140347
      ESP Fit Center 2357 is at   3.146140  2.541762 -1.140347
      ESP Fit Center 2358 is at   2.851389  2.836514 -1.140347
      ESP Fit Center 2359 is at   2.498439  3.058286 -1.140347
      ESP Fit Center 2360 is at   2.104990  3.195960 -1.140347
      ESP Fit Center 2361 is at   1.690770  3.242632 -1.140347
      ESP Fit Center 2362 is at   1.276550  3.195960 -1.140347
      ESP Fit Center 2363 is at   0.883101  3.058286 -1.140347
      ESP Fit Center 2364 is at   0.530151  2.836514 -1.140347
      ESP Fit Center 2365 is at   3.025351  2.192720 -1.439861
      ESP Fit Center 2366 is at   2.756900  2.522690 -1.439861
      ESP Fit Center 2367 is at   2.409380  2.767997 -1.439861
      ESP Fit Center 2368 is at   2.008563  2.910447 -1.439861
      ESP Fit Center 2369 is at   1.584177  2.939476 -1.439861
      ESP Fit Center 2370 is at   1.167697  2.852931 -1.439861
      ESP Fit Center 2371 is at   0.790010  2.657229 -1.439861
      ESP Fit Center 2372 is at   2.298270  2.433364 -1.682815
      ESP Fit Center 2373 is at   1.901753  2.577685 -1.682815
      ESP Fit Center 2374 is at   1.479788  2.577685 -1.682815
      ESP Fit Center 2375 is at   1.381702 -0.919445  3.652259
      ESP Fit Center 2376 is at   1.796481 -0.919445  3.617889
      ESP Fit Center 2377 is at   1.589092 -0.560236  3.617889
      ESP Fit Center 2378 is at   1.174313 -0.560236  3.617889
      ESP Fit Center 2379 is at   0.966924 -0.919445  3.617889
      ESP Fit Center 2380 is at   1.174313 -1.278653  3.617889
      ESP Fit Center 2381 is at   1.589092 -1.278653  3.617889
      ESP Fit Center 2382 is at   2.199945 -0.919445  3.515718
      ESP Fit Center 2383 is at   2.090321 -0.510323  3.515718
      ESP Fit Center 2384 is at   1.790824 -0.210826  3.515718
      ESP Fit Center 2385 is at   1.381702 -0.101202  3.515718
      ESP Fit Center 2386 is at   0.972581 -0.210826  3.515718
      ESP Fit Center 2387 is at   0.673084 -0.510323  3.515718
      ESP Fit Center 2388 is at   0.563460 -0.919445  3.515718
      ESP Fit Center 2389 is at   0.673084 -1.328566  3.515718
      ESP Fit Center 2390 is at   0.972581 -1.628064  3.515718
      ESP Fit Center 2391 is at   1.381702 -1.737687  3.515718
      ESP Fit Center 2392 is at   1.790824 -1.628064  3.515718
      ESP Fit Center 2393 is at   2.090321 -1.328566  3.515718
      ESP Fit Center 2394 is at   2.581090 -0.919445  3.348533
      ESP Fit Center 2395 is at   2.508758 -0.509230  3.348533
      ESP Fit Center 2396 is at   2.300487 -0.148493  3.348533
      ESP Fit Center 2397 is at   1.981396  0.119255  3.348533
      ESP Fit Center 2398 is at   1.589974  0.261721  3.348533
      ESP Fit Center 2399 is at   1.173431  0.261721  3.348533
      ESP Fit Center 2400 is at   0.782009  0.119255  3.348533
      ESP Fit Center 2401 is at   0.462918 -0.148493  3.348533
      ESP Fit Center 2402 is at   0.254647 -0.509230  3.348533
      ESP Fit Center 2403 is at   0.182315 -0.919445  3.348533
      ESP Fit Center 2404 is at   0.254647 -1.329659  3.348533
      ESP Fit Center 2405 is at   0.462918 -1.690396  3.348533
      ESP Fit Center 2406 is at   0.782009 -1.958145  3.348533
      ESP Fit Center 2407 is at   1.173431 -2.100611  3.348533
      ESP Fit Center 2408 is at   1.589974 -2.100611  3.348533
      ESP Fit Center 2409 is at   1.981396 -1.958145  3.348533
      ESP Fit Center 2410 is at   2.300487 -1.690396  3.348533
      ESP Fit Center 2411 is at   2.508758 -1.329659  3.348533
      ESP Fit Center 2412 is at   2.929518 -0.919445  3.120893
      ESP Fit Center 2413 is at   2.872121 -0.501849  3.120893
      ESP Fit Center 2414 is at   2.704186 -0.115224  3.120893
      ESP Fit Center 2415 is at   2.438169  0.211755  3.120893
      ESP Fit Center 2416 is at   2.093798  0.454838  3.120893
      ESP Fit Center 2417 is at   1.696615  0.595997  3.120893
      ESP Fit Center 2418 is at   1.276076  0.624763  3.120893
      ESP Fit Center 2419 is at   0.863370  0.539002  3.120893
      ESP Fit Center 2420 is at   0.489107  0.345074  3.120893
      ESP Fit Center 2421 is at   0.181044  0.057363  3.120893
      ESP Fit Center 2422 is at  -0.037972 -0.302793  3.120893
      ESP Fit Center 2423 is at  -0.151697 -0.708684  3.120893
      ESP Fit Center 2424 is at  -0.151697 -1.130206  3.120893
      ESP Fit Center 2425 is at  -0.037972 -1.536096  3.120893
      ESP Fit Center 2426 is at   0.181044 -1.896253  3.120893
      ESP Fit Center 2427 is at   0.489107 -2.183964  3.120893
      ESP Fit Center 2428 is at   0.863370 -2.377891  3.120893
      ESP Fit Center 2429 is at   1.276076 -2.463652  3.120893
      ESP Fit Center 2430 is at   1.696615 -2.434887  3.120893
      ESP Fit Center 2431 is at   2.093798 -2.293728  3.120893
      ESP Fit Center 2432 is at   2.438169 -2.050644  3.120893
      ESP Fit Center 2433 is at   2.704186 -1.723665  3.120893
      ESP Fit Center 2434 is at   2.872121 -1.337041  3.120893
      ESP Fit Center 2435 is at   3.235727 -0.919445  2.839009
      ESP Fit Center 2436 is at   3.185751 -0.491877  2.839009
      ESP Fit Center 2437 is at   3.038519 -0.087360  2.839009
      ESP Fit Center 2438 is at   2.801967  0.272299  2.839009
      ESP Fit Center 2439 is at   2.488849  0.567711  2.839009
      ESP Fit Center 2440 is at   2.116044  0.782950  2.839009
      ESP Fit Center 2441 is at   0.454690  0.686187  2.839009
      ESP Fit Center 2442 is at  -0.459786 -0.704206  2.839009
      ESP Fit Center 2443 is at  -0.459786 -1.134684  2.839009
      ESP Fit Center 2444 is at  -0.360510 -1.553558  2.839009
      ESP Fit Center 2445 is at  -0.167312 -1.938248  2.839009
      ESP Fit Center 2446 is at   0.109394 -2.268013  2.839009
      ESP Fit Center 2447 is at   0.454690 -2.525077  2.839009
      ESP Fit Center 2448 is at   0.849962 -2.695581  2.839009
      ESP Fit Center 2449 is at   1.273901 -2.770332  2.839009
      ESP Fit Center 2450 is at   1.703650 -2.745302  2.839009
      ESP Fit Center 2451 is at   2.116044 -2.621840  2.839009
      ESP Fit Center 2452 is at   2.488849 -2.406601  2.839009
      ESP Fit Center 2453 is at   2.801967 -2.111189  2.839009
      ESP Fit Center 2454 is at   3.038519 -1.751529  2.839009
      ESP Fit Center 2455 is at   3.185751 -1.347012  2.839009
      ESP Fit Center 2456 is at   3.491362 -0.919445  2.510568
      ESP Fit Center 2457 is at   3.448177 -0.494773  2.510568
      ESP Fit Center 2458 is at   3.320391 -0.087488  2.510568
      ESP Fit Center 2459 is at  -0.462871 -1.943267  2.510568
      ESP Fit Center 2460 is at  -0.219019 -2.293619  2.510568
      ESP Fit Center 2461 is at   0.090367 -2.587712  2.510568
      ESP Fit Center 2462 is at   0.452621 -2.813507  2.510568
      ESP Fit Center 2463 is at   0.852911 -2.961758  2.510568
      ESP Fit Center 2464 is at   1.274850 -3.026397  2.510568
      ESP Fit Center 2465 is at   1.701163 -3.004776  2.510568
      ESP Fit Center 2466 is at   2.114398 -2.897782  2.510568
      ESP Fit Center 2467 is at   2.497636 -2.709795  2.510568
      ESP Fit Center 2468 is at   2.835188 -2.448511  2.510568
      ESP Fit Center 2469 is at   3.113234 -2.124626  2.510568
      ESP Fit Center 2470 is at   3.320391 -1.751401  2.510568
      ESP Fit Center 2471 is at   3.448177 -1.344116  2.510568
      ESP Fit Center 2472 is at   3.689451 -0.919445  2.144531
      ESP Fit Center 2473 is at   3.650157 -0.495397  2.144531
      ESP Fit Center 2474 is at  -0.323744 -2.474165  2.144531
      ESP Fit Center 2475 is at  -0.009027 -2.761068  2.144531
      ESP Fit Center 2476 is at   0.353050 -2.985257  2.144531
      ESP Fit Center 2477 is at   0.750157 -3.139097  2.144531
      ESP Fit Center 2478 is at   1.168770 -3.217349  2.144531
      ESP Fit Center 2479 is at   1.594635 -3.217349  2.144531
      ESP Fit Center 2480 is at   2.013248 -3.139097  2.144531
      ESP Fit Center 2481 is at   2.410355 -2.985257  2.144531
      ESP Fit Center 2482 is at   2.772432 -2.761068  2.144531
      ESP Fit Center 2483 is at   3.087149 -2.474165  2.144531
      ESP Fit Center 2484 is at   3.343790 -2.134318  2.144531
      ESP Fit Center 2485 is at   3.533614 -1.753100  2.144531
      ESP Fit Center 2486 is at   3.650157 -1.343492  2.144531
      ESP Fit Center 2487 is at  -0.188556 -2.790806  1.750882
      ESP Fit Center 2488 is at   0.160258 -3.035048  1.750882
      ESP Fit Center 2489 is at   0.546185 -3.215009  1.750882
      ESP Fit Center 2490 is at   0.957499 -3.325220  1.750882
      ESP Fit Center 2491 is at   1.381702 -3.362333  1.750882
      ESP Fit Center 2492 is at   1.805906 -3.325220  1.750882
      ESP Fit Center 2493 is at   2.217220 -3.215009  1.750882
      ESP Fit Center 2494 is at   2.603147 -3.035048  1.750882
      ESP Fit Center 2495 is at   2.951961 -2.790806  1.750882
      ESP Fit Center 2496 is at   3.253064 -2.489703  1.750882
      ESP Fit Center 2497 is at   3.497306 -2.140889  1.750882
      ESP Fit Center 2498 is at   3.677267 -1.754962  1.750882
      ESP Fit Center 2499 is at   3.787478 -1.343648  1.750882
      ESP Fit Center 2500 is at   0.251064 -3.161932  1.340359
      ESP Fit Center 2501 is at   0.646309 -3.320755  1.340359
      ESP Fit Center 2502 is at   1.062711 -3.410496  1.340359
      ESP Fit Center 2503 is at   1.488289 -3.428575  1.340359
      ESP Fit Center 2504 is at   1.910801 -3.374470  1.340359
      ESP Fit Center 2505 is at   2.318092 -3.249739  1.340359
      ESP Fit Center 2506 is at   2.698444 -3.057969  1.340359
      ESP Fit Center 2507 is at   3.040916 -2.804678  1.340359
      ESP Fit Center 2508 is at   3.335656 -2.497152  1.340359
      ESP Fit Center 2509 is at   3.574184 -2.144238  1.340359
      ESP Fit Center 2510 is at   3.749638 -1.756090  1.340359
      ESP Fit Center 2511 is at   0.251064 -3.161932  0.924159
      ESP Fit Center 2512 is at   0.646309 -3.320755  0.924159
      ESP Fit Center 2513 is at   1.062711 -3.410496  0.924159
      ESP Fit Center 2514 is at   1.488289 -3.428575  0.924159
      ESP Fit Center 2515 is at   1.910801 -3.374470  0.924159
      ESP Fit Center 2516 is at   2.318092 -3.249739  0.924159
      ESP Fit Center 2517 is at   2.698444 -3.057969  0.924159
      ESP Fit Center 2518 is at   3.040916 -2.804678  0.924159
      ESP Fit Center 2519 is at   3.335656 -2.497152  0.924159
      ESP Fit Center 2520 is at   0.160258 -3.035048  0.513636
      ESP Fit Center 2521 is at   0.546185 -3.215009  0.513636
      ESP Fit Center 2522 is at   0.957499 -3.325220  0.513636
      ESP Fit Center 2523 is at   1.381702 -3.362333  0.513636
      ESP Fit Center 2524 is at   1.805906 -3.325220  0.513636
      ESP Fit Center 2525 is at   2.217220 -3.215009  0.513636
      ESP Fit Center 2526 is at   2.603147 -3.035048  0.513636
      ESP Fit Center 2527 is at   4.526707 -0.386885  0.311360
      ESP Fit Center 2528 is at   4.355735 -1.218841  0.311360
      ESP Fit Center 2529 is at   4.483522 -0.811556  0.311360
      ESP Fit Center 2530 is at   4.724796 -0.386885 -0.054677
      ESP Fit Center 2531 is at   4.685502  0.037163 -0.054677
      ESP Fit Center 2532 is at   4.568959  0.446770 -0.054677
      ESP Fit Center 2533 is at   3.807777 -2.228508 -0.054677
      ESP Fit Center 2534 is at   4.122494 -1.941605 -0.054677
      ESP Fit Center 2535 is at   4.379135 -1.601758 -0.054677
      ESP Fit Center 2536 is at   4.568959 -1.220540 -0.054677
      ESP Fit Center 2537 is at   4.685502 -0.810933 -0.054677
      ESP Fit Center 2538 is at   4.859936 -0.386885 -0.448326
      ESP Fit Center 2539 is at   4.822823  0.037318 -0.448326
      ESP Fit Center 2540 is at   4.712612  0.448632 -0.448326
      ESP Fit Center 2541 is at   4.532651  0.834559 -0.448326
      ESP Fit Center 2542 is at   4.288409  1.183374 -0.448326
      ESP Fit Center 2543 is at   3.252564 -2.682449 -0.448326
      ESP Fit Center 2544 is at   3.638492 -2.502489 -0.448326
      ESP Fit Center 2545 is at   3.987306 -2.258246 -0.448326
      ESP Fit Center 2546 is at   4.288409 -1.957143 -0.448326
      ESP Fit Center 2547 is at   4.532651 -1.608329 -0.448326
      ESP Fit Center 2548 is at   4.712612 -1.222402 -0.448326
      ESP Fit Center 2549 is at   4.822823 -0.811088 -0.448326
      ESP Fit Center 2550 is at   4.928440 -0.386885 -0.858850
      ESP Fit Center 2551 is at   4.892316  0.037543 -0.858850
      ESP Fit Center 2552 is at   4.784983  0.449760 -0.858850
      ESP Fit Center 2553 is at   4.609529  0.837909 -0.858850
      ESP Fit Center 2554 is at   4.371001  1.190822 -0.858850
      ESP Fit Center 2555 is at   4.076261  1.498348 -0.858850
      ESP Fit Center 2556 is at   2.946146 -2.841910 -0.858850
      ESP Fit Center 2557 is at   3.353436 -2.717179 -0.858850
      ESP Fit Center 2558 is at   3.733789 -2.525409 -0.858850
      ESP Fit Center 2559 is at   4.076261 -2.272118 -0.858850
      ESP Fit Center 2560 is at   4.371001 -1.964592 -0.858850
      ESP Fit Center 2561 is at   4.609529 -1.611679 -0.858850
      ESP Fit Center 2562 is at   4.784983 -1.223530 -0.858850
      ESP Fit Center 2563 is at   4.892316 -0.811312 -0.858850
      ESP Fit Center 2564 is at   4.928440 -0.386885 -1.275050
      ESP Fit Center 2565 is at   4.892316  0.037543 -1.275050
      ESP Fit Center 2566 is at   4.784983  0.449760 -1.275050
      ESP Fit Center 2567 is at   4.609529  0.837909 -1.275050
      ESP Fit Center 2568 is at   4.371001  1.190822 -1.275050
      ESP Fit Center 2569 is at   4.076261  1.498348 -1.275050
      ESP Fit Center 2570 is at   3.733789  1.751639 -1.275050
      ESP Fit Center 2571 is at   2.523634 -2.896015 -1.275050
      ESP Fit Center 2572 is at   2.946146 -2.841910 -1.275050
      ESP Fit Center 2573 is at   3.353436 -2.717179 -1.275050
      ESP Fit Center 2574 is at   3.733789 -2.525409 -1.275050
      ESP Fit Center 2575 is at   4.076261 -2.272118 -1.275050
      ESP Fit Center 2576 is at   4.371001 -1.964592 -1.275050
      ESP Fit Center 2577 is at   4.609529 -1.611679 -1.275050
      ESP Fit Center 2578 is at   4.784983 -1.223530 -1.275050
      ESP Fit Center 2579 is at   4.892316 -0.811312 -1.275050
      ESP Fit Center 2580 is at   4.859936 -0.386885 -1.685573
      ESP Fit Center 2581 is at   4.822823  0.037318 -1.685573
      ESP Fit Center 2582 is at   4.712612  0.448632 -1.685573
      ESP Fit Center 2583 is at   4.532651  0.834559 -1.685573
      ESP Fit Center 2584 is at   4.288409  1.183374 -1.685573
      ESP Fit Center 2585 is at   3.987306  1.484476 -1.685573
      ESP Fit Center 2586 is at   3.638492  1.728719 -1.685573
      ESP Fit Center 2587 is at   3.252564  1.908680 -1.685573
      ESP Fit Center 2588 is at   2.417047 -2.829774 -1.685573
      ESP Fit Center 2589 is at   2.841250 -2.792661 -1.685573
      ESP Fit Center 2590 is at   3.252564 -2.682449 -1.685573
      ESP Fit Center 2591 is at   3.638492 -2.502489 -1.685573
      ESP Fit Center 2592 is at   3.987306 -2.258246 -1.685573
      ESP Fit Center 2593 is at   4.288409 -1.957143 -1.685573
      ESP Fit Center 2594 is at   4.532651 -1.608329 -1.685573
      ESP Fit Center 2595 is at   4.712612 -1.222402 -1.685573
      ESP Fit Center 2596 is at   4.822823 -0.811088 -1.685573
      ESP Fit Center 2597 is at   4.724796 -0.386885 -2.079222
      ESP Fit Center 2598 is at   4.685502  0.037163 -2.079222
      ESP Fit Center 2599 is at   4.568959  0.446770 -2.079222
      ESP Fit Center 2600 is at   4.379135  0.827988 -2.079222
      ESP Fit Center 2601 is at   4.122494  1.167835 -2.079222
      ESP Fit Center 2602 is at   3.807777  1.454738 -2.079222
      ESP Fit Center 2603 is at   3.445699  1.678927 -2.079222
      ESP Fit Center 2604 is at   3.048593  1.832767 -2.079222
      ESP Fit Center 2605 is at   1.785502 -2.606537 -2.079222
      ESP Fit Center 2606 is at   2.204115 -2.684789 -2.079222
      ESP Fit Center 2607 is at   2.629979 -2.684789 -2.079222
      ESP Fit Center 2608 is at   3.048593 -2.606537 -2.079222
      ESP Fit Center 2609 is at   3.445699 -2.452697 -2.079222
      ESP Fit Center 2610 is at   3.807777 -2.228508 -2.079222
      ESP Fit Center 2611 is at   4.122494 -1.941605 -2.079222
      ESP Fit Center 2612 is at   4.379135 -1.601758 -2.079222
      ESP Fit Center 2613 is at   4.568959 -1.220540 -2.079222
      ESP Fit Center 2614 is at   4.685502 -0.810933 -2.079222
      ESP Fit Center 2615 is at   4.526707 -0.386885 -2.445259
      ESP Fit Center 2616 is at   4.483522  0.037786 -2.445259
      ESP Fit Center 2617 is at   4.355735  0.445072 -2.445259
      ESP Fit Center 2618 is at   4.148579  0.818297 -2.445259
      ESP Fit Center 2619 is at   3.870533  1.142181 -2.445259
      ESP Fit Center 2620 is at   3.532981  1.403466 -2.445259
      ESP Fit Center 2621 is at   3.149743  1.591453 -2.445259
      ESP Fit Center 2622 is at   2.736508  1.698447 -2.445259
      ESP Fit Center 2623 is at   1.487966 -2.280947 -2.445259
      ESP Fit Center 2624 is at   1.888256 -2.429198 -2.445259
      ESP Fit Center 2625 is at   2.310195 -2.493837 -2.445259
      ESP Fit Center 2626 is at   2.736508 -2.472217 -2.445259
      ESP Fit Center 2627 is at   3.149743 -2.365223 -2.445259
      ESP Fit Center 2628 is at   3.532981 -2.177235 -2.445259
      ESP Fit Center 2629 is at   3.870533 -1.915951 -2.445259
      ESP Fit Center 2630 is at   4.148579 -1.592066 -2.445259
      ESP Fit Center 2631 is at   4.355735 -1.218841 -2.445259
      ESP Fit Center 2632 is at   4.483522 -0.811556 -2.445259
      ESP Fit Center 2633 is at   4.271071 -0.386885 -2.773699
      ESP Fit Center 2634 is at   4.221096  0.040683 -2.773699
      ESP Fit Center 2635 is at   4.073864  0.445200 -2.773699
      ESP Fit Center 2636 is at   3.837312  0.804859 -2.773699
      ESP Fit Center 2637 is at   3.524194  1.100271 -2.773699
      ESP Fit Center 2638 is at   3.151389  1.315510 -2.773699
      ESP Fit Center 2639 is at   2.738995  1.438973 -2.773699
      ESP Fit Center 2640 is at   2.309245  1.464003 -2.773699
      ESP Fit Center 2641 is at   1.490035 -1.992517 -2.773699
      ESP Fit Center 2642 is at   1.885307 -2.163021 -2.773699
      ESP Fit Center 2643 is at   2.309245 -2.237772 -2.773699
      ESP Fit Center 2644 is at   2.738995 -2.212742 -2.773699
      ESP Fit Center 2645 is at   3.151389 -2.089280 -2.773699
      ESP Fit Center 2646 is at   3.524194 -1.874041 -2.773699
      ESP Fit Center 2647 is at   3.837312 -1.578629 -2.773699
      ESP Fit Center 2648 is at   4.073864 -1.218969 -2.773699
      ESP Fit Center 2649 is at   4.221096 -0.814452 -2.773699
      ESP Fit Center 2650 is at   3.964863 -0.386885 -3.055584
      ESP Fit Center 2651 is at   3.907466  0.030711 -3.055584
      ESP Fit Center 2652 is at   3.739531  0.417335 -3.055584
      ESP Fit Center 2653 is at   3.473514  0.744315 -3.055584
      ESP Fit Center 2654 is at   3.129143  0.987398 -3.055584
      ESP Fit Center 2655 is at   2.731960  1.128557 -3.055584
      ESP Fit Center 2656 is at   2.311421  1.157323 -3.055584
      ESP Fit Center 2657 is at   1.898715  1.071562 -3.055584
      ESP Fit Center 2658 is at   1.216389 -1.363693 -3.055584
      ESP Fit Center 2659 is at   1.524452 -1.651404 -3.055584
      ESP Fit Center 2660 is at   1.898715 -1.845331 -3.055584
      ESP Fit Center 2661 is at   2.311421 -1.931093 -3.055584
      ESP Fit Center 2662 is at   2.731960 -1.902327 -3.055584
      ESP Fit Center 2663 is at   3.129143 -1.761168 -3.055584
      ESP Fit Center 2664 is at   3.473514 -1.518085 -3.055584
      ESP Fit Center 2665 is at   3.739531 -1.191105 -3.055584
      ESP Fit Center 2666 is at   3.907466 -0.804481 -3.055584
      ESP Fit Center 2667 is at   3.616435 -0.386885 -3.283223
      ESP Fit Center 2668 is at   3.544103  0.023330 -3.283223
      ESP Fit Center 2669 is at   3.335831  0.384066 -3.283223
      ESP Fit Center 2670 is at   3.016741  0.651815 -3.283223
      ESP Fit Center 2671 is at   2.625319  0.794281 -3.283223
      ESP Fit Center 2672 is at   2.208776  0.794281 -3.283223
      ESP Fit Center 2673 is at   1.817354  0.651815 -3.283223
      ESP Fit Center 2674 is at   1.498263  0.384066 -3.283223
      ESP Fit Center 2675 is at   1.289992  0.023330 -3.283223
      ESP Fit Center 2676 is at   1.217660 -0.386885 -3.283223
      ESP Fit Center 2677 is at   1.289992 -0.797100 -3.283223
      ESP Fit Center 2678 is at   1.498263 -1.157836 -3.283223
      ESP Fit Center 2679 is at   1.817354 -1.425585 -3.283223
      ESP Fit Center 2680 is at   2.208776 -1.568051 -3.283223
      ESP Fit Center 2681 is at   2.625319 -1.568051 -3.283223
      ESP Fit Center 2682 is at   3.016741 -1.425585 -3.283223
      ESP Fit Center 2683 is at   3.335831 -1.157836 -3.283223
      ESP Fit Center 2684 is at   3.544103 -0.797100 -3.283223
      ESP Fit Center 2685 is at   3.235290 -0.386885 -3.450409
      ESP Fit Center 2686 is at   3.125666  0.022236 -3.450409
      ESP Fit Center 2687 is at   2.826169  0.321734 -3.450409
      ESP Fit Center 2688 is at   2.417047  0.431358 -3.450409
      ESP Fit Center 2689 is at   2.007926  0.321734 -3.450409
      ESP Fit Center 2690 is at   1.708428  0.022236 -3.450409
      ESP Fit Center 2691 is at   1.598805 -0.386885 -3.450409
      ESP Fit Center 2692 is at   1.708428 -0.796006 -3.450409
      ESP Fit Center 2693 is at   2.007926 -1.095504 -3.450409
      ESP Fit Center 2694 is at   2.417047 -1.205128 -3.450409
      ESP Fit Center 2695 is at   2.826169 -1.095504 -3.450409
      ESP Fit Center 2696 is at   3.125666 -0.796006 -3.450409
      ESP Fit Center 2697 is at   2.831826 -0.386885 -3.552580
      ESP Fit Center 2698 is at   2.624436 -0.027676 -3.552580
      ESP Fit Center 2699 is at   2.209658 -0.027676 -3.552580
      ESP Fit Center 2700 is at   2.002269 -0.386885 -3.552580
      ESP Fit Center 2701 is at   2.209658 -0.746094 -3.552580
      ESP Fit Center 2702 is at   2.624436 -0.746094 -3.552580
      ESP Fit Center 2703 is at   2.417047 -0.386885 -3.586950
      ESP Fit Center 2704 is at   0.417176  2.634127 -1.258625
      ESP Fit Center 2705 is at  -0.417170 -2.633726 -1.258625
      ESP Fit Center 2706 is at   0.630373  2.489478 -1.670597
      ESP Fit Center 2707 is at   0.212054  2.559283 -1.670597
      ESP Fit Center 2708 is at  -0.630368 -2.489076 -1.670597
      ESP Fit Center 2709 is at  -0.212049 -2.558881 -1.670597
      ESP Fit Center 2710 is at   0.822807  2.260836 -2.062026
      ESP Fit Center 2711 is at   0.417751  2.369370 -2.062026
      ESP Fit Center 2712 is at   0.000003  2.405918 -2.062026
      ESP Fit Center 2713 is at  -0.822801 -2.260434 -2.062026
      ESP Fit Center 2714 is at  -0.417746 -2.368969 -2.062026
      ESP Fit Center 2715 is at   0.000003 -2.405517 -2.062026
      ESP Fit Center 2716 is at   0.907413  1.987152 -2.423272
      ESP Fit Center 2717 is at   0.514982  2.122973 -2.423272
      ESP Fit Center 2718 is at   0.103938  2.182072 -2.423272
      ESP Fit Center 2719 is at  -0.310862  2.162313 -2.423272
      ESP Fit Center 2720 is at  -0.714427 -2.064008 -2.423272
      ESP Fit Center 2721 is at  -0.310862 -2.161912 -2.423272
      ESP Fit Center 2722 is at   0.103938 -2.181671 -2.423272
      ESP Fit Center 2723 is at   0.514982 -2.122572 -2.423272
      ESP Fit Center 2724 is at   0.828368  1.720320 -2.745440
      ESP Fit Center 2725 is at   0.424837  1.861522 -2.745440
      ESP Fit Center 2726 is at   0.000003  1.909389 -2.745440
      ESP Fit Center 2727 is at  -0.424832  1.861522 -2.745440
      ESP Fit Center 2728 is at  -0.828363 -1.719919 -2.745440
      ESP Fit Center 2729 is at  -0.424832 -1.861120 -2.745440
      ESP Fit Center 2730 is at   0.000003 -1.908988 -2.745440
      ESP Fit Center 2731 is at   0.424837 -1.861120 -2.745440
      ESP Fit Center 2732 is at   1.122195  1.122393 -3.020597
      ESP Fit Center 2733 is at   0.793513  1.374600 -3.020597
      ESP Fit Center 2734 is at   0.410754  1.533144 -3.020597
      ESP Fit Center 2735 is at   0.000003  1.587221 -3.020597
      ESP Fit Center 2736 is at  -0.410748  1.533144 -3.020597
      ESP Fit Center 2737 is at  -0.793507  1.374600 -3.020597
      ESP Fit Center 2738 is at  -1.122190 -1.121992 -3.020597
      ESP Fit Center 2739 is at  -0.793507 -1.374199 -3.020597
      ESP Fit Center 2740 is at  -0.410748 -1.532743 -3.020597
      ESP Fit Center 2741 is at   0.000003 -1.586820 -3.020597
      ESP Fit Center 2742 is at   0.410754 -1.532743 -3.020597
      ESP Fit Center 2743 is at   0.793513 -1.374199 -3.020597
      ESP Fit Center 2744 is at   1.151854  0.419440 -3.241969
      ESP Fit Center 2745 is at   0.939000  0.788113 -3.241969
      ESP Fit Center 2746 is at   0.612890  1.061752 -3.241969
      ESP Fit Center 2747 is at   0.212856  1.207353 -3.241969
      ESP Fit Center 2748 is at  -0.212851  1.207353 -3.241969
      ESP Fit Center 2749 is at  -0.612885  1.061752 -3.241969
      ESP Fit Center 2750 is at  -0.938995  0.788113 -3.241969
      ESP Fit Center 2751 is at  -1.151848 -0.419039 -3.241969
      ESP Fit Center 2752 is at  -0.938995 -0.787712 -3.241969
      ESP Fit Center 2753 is at  -0.612885 -1.061351 -3.241969
      ESP Fit Center 2754 is at  -0.212851 -1.206951 -3.241969
      ESP Fit Center 2755 is at   0.212856 -1.206951 -3.241969
      ESP Fit Center 2756 is at   0.612890 -1.061351 -3.241969
      ESP Fit Center 2757 is at   0.939000 -0.787712 -3.241969
      ESP Fit Center 2758 is at   0.834349  0.000201 -3.404104
      ESP Fit Center 2759 is at   0.722567  0.417374 -3.404104
      ESP Fit Center 2760 is at   0.417176  0.722765 -3.404104
      ESP Fit Center 2761 is at   0.000003  0.834547 -3.404104
      ESP Fit Center 2762 is at  -0.417170  0.722765 -3.404104
      ESP Fit Center 2763 is at  -0.722562  0.417374 -3.404104
      ESP Fit Center 2764 is at  -0.834343  0.000201 -3.404104
      ESP Fit Center 2765 is at  -0.722562 -0.416972 -3.404104
      ESP Fit Center 2766 is at  -0.417170 -0.722364 -3.404104
      ESP Fit Center 2767 is at   0.000003 -0.834145 -3.404104
      ESP Fit Center 2768 is at   0.417176 -0.722364 -3.404104
      ESP Fit Center 2769 is at   0.722567 -0.416972 -3.404104
      ESP Fit Center 2770 is at   0.422376  0.000201 -3.503010
      ESP Fit Center 2771 is at   0.211189  0.365986 -3.503010
      ESP Fit Center 2772 is at  -0.211184  0.365986 -3.503010
      ESP Fit Center 2773 is at  -0.422370  0.000201 -3.503010
      ESP Fit Center 2774 is at  -0.211184 -0.365585 -3.503010
      ESP Fit Center 2775 is at   0.211189 -0.365585 -3.503010
      ESP Fit Center 2776 is at   0.000003  0.000201 -3.536252
      ESP Fit Center 2777 is at  -1.994193 -0.892518  2.823083
      ESP Fit Center 2778 is at  -1.182142 -1.035705  2.823083
      ESP Fit Center 2779 is at  -0.788740 -0.892518  2.823083
      ESP Fit Center 2780 is at  -2.755456 -0.636066  2.640843
      ESP Fit Center 2781 is at  -3.208685 -0.460858  2.411926
      ESP Fit Center 2782 is at  -3.034574 -0.837191  2.411926
      ESP Fit Center 2783 is at  -3.608767 -0.060292  2.140249
      ESP Fit Center 2784 is at  -3.528628 -0.476093  2.140249
      ESP Fit Center 2785 is at  -3.371246 -0.869213  2.140249
      ESP Fit Center 2786 is at  -3.856445  0.562767  1.830461
      ESP Fit Center 2787 is at  -3.890529  0.151434  1.830461
      ESP Fit Center 2788 is at  -3.856445 -0.259898  1.830461
      ESP Fit Center 2789 is at  -3.755123 -0.660010  1.830461
      ESP Fit Center 2790 is at  -3.921674  1.171200  1.487863
      ESP Fit Center 2791 is at  -4.047688  0.773014  1.487863
      ESP Fit Center 2792 is at  -4.111442  0.360259  1.487863
      ESP Fit Center 2793 is at  -4.111442 -0.057390  1.487863
      ESP Fit Center 2794 is at  -4.047688 -0.470145  1.487863
      ESP Fit Center 2795 is at  -3.921674 -0.868331  1.487863
      ESP Fit Center 2796 is at  -3.839700  1.724818  1.118316
      ESP Fit Center 2797 is at  -4.038696  1.360384  1.118316
      ESP Fit Center 2798 is at  -4.183802  0.971338  1.118316
      ESP Fit Center 2799 is at  -4.272065  0.565602  1.118316
      ESP Fit Center 2800 is at  -4.301687  0.151434  1.118316
      ESP Fit Center 2801 is at  -4.272065 -0.262733  1.118316
      ESP Fit Center 2802 is at  -4.183802 -0.668469  1.118316
      ESP Fit Center 2803 is at  -4.038696 -1.057515  1.118316
      ESP Fit Center 2804 is at  -3.468248  2.375124  0.728143
      ESP Fit Center 2805 is at  -3.751697  2.071624  0.728143
      ESP Fit Center 2806 is at  -3.991179  1.732355  0.728143
      ESP Fit Center 2807 is at  -4.182234  1.363636  0.728143
      ESP Fit Center 2808 is at  -4.321302  0.972336  0.728143
      ESP Fit Center 2809 is at  -4.405793  0.565744  0.728143
      ESP Fit Center 2810 is at  -4.434133  0.151434  0.728143
      ESP Fit Center 2811 is at  -4.405793 -0.262875  0.728143
      ESP Fit Center 2812 is at  -4.321302 -0.669467  0.728143
      ESP Fit Center 2813 is at  -4.182234 -1.060767  0.728143
      ESP Fit Center 2814 is at  -0.269017  3.065805  0.324020
      ESP Fit Center 2815 is at  -2.316750  3.134269  0.324020
      ESP Fit Center 2816 is at  -2.706067  2.984326  0.324020
      ESP Fit Center 2817 is at  -3.071925  2.783830  0.324020
      ESP Fit Center 2818 is at  -3.407795  2.536359  0.324020
      ESP Fit Center 2819 is at  -3.707684  2.246330  0.324020
      ESP Fit Center 2820 is at  -3.966240  1.918916  0.324020
      ESP Fit Center 2821 is at  -4.178848  1.559962  0.324020
      ESP Fit Center 2822 is at  -4.507543 -0.057162  0.324020
      ESP Fit Center 2823 is at  -4.451937 -0.470634  0.324020
      ESP Fit Center 2824 is at  -4.341716 -0.873004  0.324020
      ESP Fit Center 2825 is at  -4.178848 -1.257093  0.324020
      ESP Fit Center 2826 is at  -0.186013  3.061655 -0.087137
      ESP Fit Center 2827 is at  -0.576186  3.194101 -0.087137
      ESP Fit Center 2828 is at  -0.980309  3.274486 -0.087137
      ESP Fit Center 2829 is at  -1.391466  3.301434 -0.087137
      ESP Fit Center 2830 is at  -1.802624  3.274486 -0.087137
      ESP Fit Center 2831 is at  -2.206746  3.194101 -0.087137
      ESP Fit Center 2832 is at  -2.596919  3.061655 -0.087137
      ESP Fit Center 2833 is at  -2.966466  2.879414 -0.087137
      ESP Fit Center 2834 is at  -3.309065  2.650497 -0.087137
      ESP Fit Center 2835 is at  -3.618853  2.378821 -0.087137
      ESP Fit Center 2836 is at  -4.301687 -1.054018 -0.087137
      ESP Fit Center 2837 is at  -4.119446 -1.423566 -0.087137
      ESP Fit Center 2838 is at  -0.269017  3.065805 -0.498295
      ESP Fit Center 2839 is at  -0.667480  3.189410 -0.498295
      ESP Fit Center 2840 is at  -1.078862  3.258801 -0.498295
      ESP Fit Center 2841 is at  -1.495823  3.272742 -0.498295
      ESP Fit Center 2842 is at  -1.910921  3.230982 -0.498295
      ESP Fit Center 2843 is at  -2.316750  3.134269 -0.498295
      ESP Fit Center 2844 is at  -2.706067  2.984326 -0.498295
      ESP Fit Center 2845 is at  -3.071925  2.783830 -0.498295
      ESP Fit Center 2846 is at  -3.966240 -1.616047 -0.498295
      ESP Fit Center 2847 is at   0.008358  2.852973 -0.902417
      ESP Fit Center 2848 is at  -0.372539  3.018420 -0.902417
      ESP Fit Center 2849 is at  -0.772417  3.130461 -0.902417
      ESP Fit Center 2850 is at  -1.183827  3.187008 -0.902417
      ESP Fit Center 2851 is at  -1.599105  3.187008 -0.902417
      ESP Fit Center 2852 is at  -2.010515  3.130461 -0.902417
      ESP Fit Center 2853 is at  -2.410393  3.018420 -0.902417
      ESP Fit Center 2854 is at  -3.751697 -1.768756 -0.902417
      ESP Fit Center 2855 is at  -0.182517  2.798664 -1.292590
      ESP Fit Center 2856 is at  -0.571562  2.943771 -1.292590
      ESP Fit Center 2857 is at  -0.977299  3.032033 -1.292590
      ESP Fit Center 2858 is at  -1.391466  3.061655 -1.292590
      ESP Fit Center 2859 is at  -1.805634  3.032033 -1.292590
      ESP Fit Center 2860 is at  -2.211370  2.943771 -1.292590
      ESP Fit Center 2861 is at  -3.297255 -2.047964 -1.292590
      ESP Fit Center 2862 is at  -0.469363  2.718846 -1.662137
      ESP Fit Center 2863 is at  -0.872083  2.829515 -1.662137
      ESP Fit Center 2864 is at  -1.286977  2.877413 -1.662137
      ESP Fit Center 2865 is at  -1.704320  2.861415 -1.662137
      ESP Fit Center 2866 is at  -2.874308 -2.138338 -1.662137
      ESP Fit Center 2867 is at  -2.507397 -2.337857 -1.662137
      ESP Fit Center 2868 is at  -1.286977 -2.574544 -1.662137
      ESP Fit Center 2869 is at  -0.872083 -2.526646 -1.662137
      ESP Fit Center 2870 is at  -0.387604  2.440010 -2.004736
      ESP Fit Center 2871 is at  -0.777983  2.574027 -2.004736
      ESP Fit Center 2872 is at  -1.185095  2.641962 -2.004736
      ESP Fit Center 2873 is at  -1.597837  2.641962 -2.004736
      ESP Fit Center 2874 is at  -2.758324 -1.940697 -2.004736
      ESP Fit Center 2875 is at  -2.395328 -2.137141 -2.004736
      ESP Fit Center 2876 is at  -2.004950 -2.271158 -2.004736
      ESP Fit Center 2877 is at  -1.597837 -2.339093 -2.004736
      ESP Fit Center 2878 is at  -1.185095 -2.339093 -2.004736
      ESP Fit Center 2879 is at  -0.866340  2.316034 -2.314524
      ESP Fit Center 2880 is at  -1.285483  2.376298 -2.314524
      ESP Fit Center 2881 is at  -2.119973 -1.953448 -2.314524
      ESP Fit Center 2882 is at  -1.708456 -2.053280 -2.314524
      ESP Fit Center 2883 is at  -1.285483 -2.073429 -2.314524
      ESP Fit Center 2884 is at  -0.878454  1.999136 -2.586200
      ESP Fit Center 2885 is at  -1.287650  2.066221 -2.586200
      ESP Fit Center 2886 is at  -2.101243 -1.629970 -2.586200
      ESP Fit Center 2887 is at  -1.701699 -1.740903 -2.586200
      ESP Fit Center 2888 is at  -1.287650 -1.763352 -2.586200
      ESP Fit Center 2889 is at  -0.983826  1.672768 -2.815117
      ESP Fit Center 2890 is at  -1.799106 -1.369899 -2.815117
      ESP Fit Center 2891 is at  -1.391466 -1.423566 -2.815117
      ESP Fit Center 2892 is at  -1.600791 -1.035705 -2.997358
      ESP Fit Center 2893 is at  -1.391466 -0.663846 -3.129804
      ESP Fit Center 2894 is at  -1.688962 -1.380514  2.854426
      ESP Fit Center 2895 is at  -1.266997 -1.380514  2.817509
      ESP Fit Center 2896 is at  -1.899945 -1.015082  2.817509
      ESP Fit Center 2897 is at  -2.110927 -1.380514  2.817509
      ESP Fit Center 2898 is at  -1.899945 -1.745947  2.817509
      ESP Fit Center 2899 is at  -1.477980 -1.745947  2.817509
      ESP Fit Center 2900 is at  -0.857853 -1.380514  2.707880
      ESP Fit Center 2901 is at  -2.408724 -0.964960  2.707880
      ESP Fit Center 2902 is at  -2.520071 -1.380514  2.707880
      ESP Fit Center 2903 is at  -2.408724 -1.796069  2.707880
      ESP Fit Center 2904 is at  -2.104517 -2.100276  2.707880
      ESP Fit Center 2905 is at  -1.688962 -2.211623  2.707880
      ESP Fit Center 2906 is at  -1.273408 -2.100276  2.707880
      ESP Fit Center 2907 is at  -0.969201 -1.796069  2.707880
      ESP Fit Center 2908 is at  -2.830689 -0.964960  2.528868
      ESP Fit Center 2909 is at  -2.903962 -1.380514  2.528868
      ESP Fit Center 2910 is at  -2.830689 -1.796069  2.528868
      ESP Fit Center 2911 is at  -2.619706 -2.161501  2.528868
      ESP Fit Center 2912 is at  -2.296462 -2.432735  2.528868
      ESP Fit Center 2913 is at  -1.899945 -2.577056  2.528868
      ESP Fit Center 2914 is at  -1.477980 -2.577056  2.528868
      ESP Fit Center 2915 is at  -1.081462 -2.432735  2.528868
      ESP Fit Center 2916 is at  -0.758218 -2.161501  2.528868
      ESP Fit Center 2917 is at  -0.547236 -1.796069  2.528868
      ESP Fit Center 2918 is at  -3.236388 -1.167825  2.285914
      ESP Fit Center 2919 is at  -3.236388 -1.593203  2.285914
      ESP Fit Center 2920 is at  -3.121622 -2.002806  2.285914
      ESP Fit Center 2921 is at  -2.900603 -2.366257  2.285914
      ESP Fit Center 2922 is at  -2.589722 -2.656600  2.285914
      ESP Fit Center 2923 is at  -2.212035 -2.852301  2.285914
      ESP Fit Center 2924 is at  -1.795555 -2.938847  2.285914
      ESP Fit Center 2925 is at  -1.371169 -2.909818  2.285914
      ESP Fit Center 2926 is at  -0.970353 -2.767368  2.285914
      ESP Fit Center 2927 is at  -0.622832 -2.522061  2.285914
      ESP Fit Center 2928 is at  -3.503779 -0.966294  1.986400
      ESP Fit Center 2929 is at  -3.550450 -1.380514  1.986400
      ESP Fit Center 2930 is at  -3.503779 -1.794734  1.986400
      ESP Fit Center 2931 is at  -3.366105 -2.188183  1.986400
      ESP Fit Center 2932 is at  -3.144332 -2.541133  1.986400
      ESP Fit Center 2933 is at  -2.849581 -2.835884  1.986400
      ESP Fit Center 2934 is at  -2.496631 -3.057657  1.986400
      ESP Fit Center 2935 is at  -2.103182 -3.195331  1.986400
      ESP Fit Center 2936 is at  -1.688962 -3.242002  1.986400
      ESP Fit Center 2937 is at  -1.274742 -3.195331  1.986400
      ESP Fit Center 2938 is at  -0.881293 -3.057657  1.986400
      ESP Fit Center 2939 is at  -0.528343 -2.835884  1.986400
      ESP Fit Center 2940 is at  -3.793404 -1.380514  1.639426
      ESP Fit Center 2941 is at  -3.752968 -1.791070  1.639426
      ESP Fit Center 2942 is at  -3.633213 -2.185849  1.639426
      ESP Fit Center 2943 is at  -3.438741 -2.549679  1.639426
      ESP Fit Center 2944 is at  -3.177027 -2.868579  1.639426
      ESP Fit Center 2945 is at  -2.858127 -3.130293  1.639426
      ESP Fit Center 2946 is at  -2.494297 -3.324765  1.639426
      ESP Fit Center 2947 is at  -2.099518 -3.444520  1.639426
      ESP Fit Center 2948 is at  -1.688962 -3.484956  1.639426
      ESP Fit Center 2949 is at  -1.278406 -3.444520  1.639426
      ESP Fit Center 2950 is at  -0.883627 -3.324765  1.639426
      ESP Fit Center 2951 is at  -0.519797 -3.130293  1.639426
      ESP Fit Center 2952 is at  -0.200897 -2.868579  1.639426
      ESP Fit Center 2953 is at  -3.972415 -1.380514  1.255535
      ESP Fit Center 2954 is at  -3.933535 -1.800097  1.255535
      ESP Fit Center 2955 is at  -3.818219 -2.205392  1.255535
      ESP Fit Center 2956 is at  -3.630393 -2.582597  1.255535
      ESP Fit Center 2957 is at  -3.376454 -2.918866  1.255535
      ESP Fit Center 2958 is at  -3.065050 -3.202749  1.255535
      ESP Fit Center 2959 is at  -2.706785 -3.424577  1.255535
      ESP Fit Center 2960 is at  -2.313859 -3.576798  1.255535
      ESP Fit Center 2961 is at  -1.899653 -3.654226  1.255535
      ESP Fit Center 2962 is at  -1.478272 -3.654226  1.255535
      ESP Fit Center 2963 is at  -1.064065 -3.576798  1.255535
      ESP Fit Center 2964 is at  -0.671139 -3.424577  1.255535
      ESP Fit Center 2965 is at  -0.312874 -3.202749  1.255535
      ESP Fit Center 2966 is at  -4.082045 -1.380514  0.846392
      ESP Fit Center 2967 is at  -4.045689 -1.796069  0.846392
      ESP Fit Center 2968 is at  -3.937724 -2.198997  0.846392
      ESP Fit Center 2969 is at  -3.761433 -2.577056  0.846392
      ESP Fit Center 2970 is at  -3.522170 -2.918758  0.846392
      ESP Fit Center 2971 is at  -3.227206 -3.213722  0.846392
      ESP Fit Center 2972 is at  -2.885504 -3.452985  0.846392
      ESP Fit Center 2973 is at  -2.507445 -3.629276  0.846392
      ESP Fit Center 2974 is at  -2.104517 -3.737241  0.846392
      ESP Fit Center 2975 is at  -1.688962 -3.773597  0.846392
      ESP Fit Center 2976 is at  -1.273408 -3.737241  0.846392
      ESP Fit Center 2977 is at  -0.870480 -3.629276  0.846392
      ESP Fit Center 2978 is at  -0.492421 -3.452985  0.846392
      ESP Fit Center 2979 is at  -0.150718 -3.213722  0.846392
      ESP Fit Center 2980 is at  -4.110208 -1.586592  0.424426
      ESP Fit Center 2981 is at  -4.040553 -1.992821  0.424426
      ESP Fit Center 2982 is at  -3.903247 -2.381434  0.424426
      ESP Fit Center 2983 is at  -3.702241 -2.741253  0.424426
      ESP Fit Center 2984 is at  -3.443315 -3.061926  0.424426
      ESP Fit Center 2985 is at  -3.133921 -3.334227  0.424426
      ESP Fit Center 2986 is at  -2.782957 -3.550324  0.424426
      ESP Fit Center 2987 is at  -2.400521 -3.703999  0.424426
      ESP Fit Center 2988 is at  -1.997615 -3.790832  0.424426
      ESP Fit Center 2989 is at  -1.585830 -3.808325  0.424426
      ESP Fit Center 2990 is at  -1.177011 -3.755973  0.424426
      ESP Fit Center 2991 is at  -0.782921 -3.635284  0.424426
      ESP Fit Center 2992 is at  -0.414895 -3.449730  0.424426
      ESP Fit Center 2993 is at  -0.083523 -3.204648  0.424426
      ESP Fit Center 2994 is at  -4.045689 -1.796069  0.002461
      ESP Fit Center 2995 is at  -3.937724 -2.198997  0.002461
      ESP Fit Center 2996 is at  -3.761433 -2.577056  0.002461
      ESP Fit Center 2997 is at  -3.522170 -2.918758  0.002461
      ESP Fit Center 2998 is at  -3.227206 -3.213722  0.002461
      ESP Fit Center 2999 is at  -2.885504 -3.452985  0.002461
      ESP Fit Center 3000 is at  -2.507445 -3.629276  0.002461
      ESP Fit Center 3001 is at  -2.104517 -3.737241  0.002461
      ESP Fit Center 3002 is at  -1.688962 -3.773597  0.002461
      ESP Fit Center 3003 is at  -1.273408 -3.737241  0.002461
      ESP Fit Center 3004 is at  -0.870480 -3.629276  0.002461
      ESP Fit Center 3005 is at  -0.492421 -3.452985  0.002461
      ESP Fit Center 3006 is at  -0.150718 -3.213722  0.002461
      ESP Fit Center 3007 is at  -3.933535 -1.800097 -0.406682
      ESP Fit Center 3008 is at  -3.818219 -2.205392 -0.406682
      ESP Fit Center 3009 is at  -3.630393 -2.582597 -0.406682
      ESP Fit Center 3010 is at  -3.376454 -2.918866 -0.406682
      ESP Fit Center 3011 is at  -3.065050 -3.202749 -0.406682
      ESP Fit Center 3012 is at  -2.706785 -3.424577 -0.406682
      ESP Fit Center 3013 is at  -2.313859 -3.576798 -0.406682
      ESP Fit Center 3014 is at  -1.899653 -3.654226 -0.406682
      ESP Fit Center 3015 is at  -1.478272 -3.654226 -0.406682
      ESP Fit Center 3016 is at  -1.064065 -3.576798 -0.406682
      ESP Fit Center 3017 is at  -0.671139 -3.424577 -0.406682
      ESP Fit Center 3018 is at  -0.312874 -3.202749 -0.406682
      ESP Fit Center 3019 is at  -3.633213 -2.185849 -0.790574
      ESP Fit Center 3020 is at  -3.438741 -2.549679 -0.790574
      ESP Fit Center 3021 is at  -3.177027 -2.868579 -0.790574
      ESP Fit Center 3022 is at  -2.858127 -3.130293 -0.790574
      ESP Fit Center 3023 is at  -2.494297 -3.324765 -0.790574
      ESP Fit Center 3024 is at  -2.099518 -3.444520 -0.790574
      ESP Fit Center 3025 is at  -1.688962 -3.484956 -0.790574
      ESP Fit Center 3026 is at  -1.278406 -3.444520 -0.790574
      ESP Fit Center 3027 is at  -0.883627 -3.324765 -0.790574
      ESP Fit Center 3028 is at  -0.519797 -3.130293 -0.790574
      ESP Fit Center 3029 is at  -0.200897 -2.868579 -0.790574
      ESP Fit Center 3030 is at  -3.366105 -2.188183 -1.137547
      ESP Fit Center 3031 is at  -3.144332 -2.541133 -1.137547
      ESP Fit Center 3032 is at  -2.849581 -2.835884 -1.137547
      ESP Fit Center 3033 is at  -2.496631 -3.057657 -1.137547
      ESP Fit Center 3034 is at  -2.103182 -3.195331 -1.137547
      ESP Fit Center 3035 is at  -1.688962 -3.242002 -1.137547
      ESP Fit Center 3036 is at  -1.274742 -3.195331 -1.137547
      ESP Fit Center 3037 is at  -0.881293 -3.057657 -1.137547
      ESP Fit Center 3038 is at  -0.528343 -2.835884 -1.137547
      ESP Fit Center 3039 is at  -2.900603 -2.366257 -1.437062
      ESP Fit Center 3040 is at  -2.589722 -2.656600 -1.437062
      ESP Fit Center 3041 is at  -2.212035 -2.852301 -1.437062
      ESP Fit Center 3042 is at  -1.795555 -2.938847 -1.437062
      ESP Fit Center 3043 is at  -1.371169 -2.909818 -1.437062
      ESP Fit Center 3044 is at  -0.970353 -2.767368 -1.437062
      ESP Fit Center 3045 is at  -2.296462 -2.432735 -1.680015
      ESP Fit Center 3046 is at  -1.899945 -2.577056 -1.680015
      ESP Fit Center 3047 is at  -1.477980 -2.577056 -1.680015
      ESP Fit Center 3048 is at  -4.262109  1.407303  0.310627
      ESP Fit Center 3049 is at  -4.430444  1.015035  0.310627
      ESP Fit Center 3050 is at  -4.516370  0.596912  0.310627
      ESP Fit Center 3051 is at  -4.516370  0.170050  0.310627
      ESP Fit Center 3052 is at  -3.808264  2.225104 -0.055410
      ESP Fit Center 3053 is at  -4.122982  1.938201 -0.055410
      ESP Fit Center 3054 is at  -4.379622  1.598354 -0.055410
      ESP Fit Center 3055 is at  -4.569447  1.217136 -0.055410
      ESP Fit Center 3056 is at  -4.685990  0.807529 -0.055410
      ESP Fit Center 3057 is at  -4.725284  0.383481 -0.055410
      ESP Fit Center 3058 is at  -4.685990 -0.040567 -0.055410
      ESP Fit Center 3059 is at  -4.569447 -0.450174 -0.055410
      ESP Fit Center 3060 is at  -3.253052  2.679045 -0.449059
      ESP Fit Center 3061 is at  -3.638979  2.499085 -0.449059
      ESP Fit Center 3062 is at  -3.987793  2.254842 -0.449059
      ESP Fit Center 3063 is at  -4.288896  1.953740 -0.449059
      ESP Fit Center 3064 is at  -4.533139  1.604925 -0.449059
      ESP Fit Center 3065 is at  -4.713099  1.218998 -0.449059
      ESP Fit Center 3066 is at  -4.823311  0.807684 -0.449059
      ESP Fit Center 3067 is at  -4.860424  0.383481 -0.449059
      ESP Fit Center 3068 is at  -4.823311 -0.040722 -0.449059
      ESP Fit Center 3069 is at  -4.713099 -0.452036 -0.449059
      ESP Fit Center 3070 is at  -4.533139 -0.837963 -0.449059
      ESP Fit Center 3071 is at  -4.288896 -1.186778 -0.449059
      ESP Fit Center 3072 is at  -3.152928  2.784791 -0.859582
      ESP Fit Center 3073 is at  -3.548173  2.625969 -0.859582
      ESP Fit Center 3074 is at  -3.910892  2.402634 -0.859582
      ESP Fit Center 3075 is at  -4.230650  2.121211 -0.859582
      ESP Fit Center 3076 is at  -4.498248  1.789798 -0.859582
      ESP Fit Center 3077 is at  -4.705988  1.417927 -0.859582
      ESP Fit Center 3078 is at  -4.847893  1.016297 -0.859582
      ESP Fit Center 3079 is at  -4.919880  0.596462 -0.859582
      ESP Fit Center 3080 is at  -4.919880  0.170500 -0.859582
      ESP Fit Center 3081 is at  -4.847893 -0.249335 -0.859582
      ESP Fit Center 3082 is at  -4.705988 -0.650965 -0.859582
      ESP Fit Center 3083 is at  -4.498248 -1.022836 -0.859582
      ESP Fit Center 3084 is at  -4.230650 -1.354249 -0.859582
      ESP Fit Center 3085 is at  -3.910892 -1.635672 -0.859582
      ESP Fit Center 3086 is at  -2.736527  2.874533 -1.275782
      ESP Fit Center 3087 is at  -3.152928  2.784791 -1.275782
      ESP Fit Center 3088 is at  -3.548173  2.625969 -1.275782
      ESP Fit Center 3089 is at  -3.910892  2.402634 -1.275782
      ESP Fit Center 3090 is at  -4.230650  2.121211 -1.275782
      ESP Fit Center 3091 is at  -4.498248  1.789798 -1.275782
      ESP Fit Center 3092 is at  -4.705988  1.417927 -1.275782
      ESP Fit Center 3093 is at  -4.847893  1.016297 -1.275782
      ESP Fit Center 3094 is at  -4.919880  0.596462 -1.275782
      ESP Fit Center 3095 is at  -4.919880  0.170500 -1.275782
      ESP Fit Center 3096 is at  -4.847893 -0.249335 -1.275782
      ESP Fit Center 3097 is at  -4.705988 -0.650965 -1.275782
      ESP Fit Center 3098 is at  -4.498248 -1.022836 -1.275782
      ESP Fit Center 3099 is at  -4.230650 -1.354249 -1.275782
      ESP Fit Center 3100 is at  -3.910892 -1.635672 -1.275782
      ESP Fit Center 3101 is at  -3.548173 -1.859007 -1.275782
      ESP Fit Center 3102 is at  -2.417535  2.826370 -1.686306
      ESP Fit Center 3103 is at  -2.841738  2.789257 -1.686306
      ESP Fit Center 3104 is at  -3.253052  2.679045 -1.686306
      ESP Fit Center 3105 is at  -3.638979  2.499085 -1.686306
      ESP Fit Center 3106 is at  -3.987793  2.254842 -1.686306
      ESP Fit Center 3107 is at  -4.288896  1.953740 -1.686306
      ESP Fit Center 3108 is at  -4.533139  1.604925 -1.686306
      ESP Fit Center 3109 is at  -4.713099  1.218998 -1.686306
      ESP Fit Center 3110 is at  -4.823311  0.807684 -1.686306
      ESP Fit Center 3111 is at  -4.860424  0.383481 -1.686306
      ESP Fit Center 3112 is at  -4.823311 -0.040722 -1.686306
      ESP Fit Center 3113 is at  -4.713099 -0.452036 -1.686306
      ESP Fit Center 3114 is at  -4.533139 -0.837963 -1.686306
      ESP Fit Center 3115 is at  -4.288896 -1.186778 -1.686306
      ESP Fit Center 3116 is at  -3.987793 -1.487880 -1.686306
      ESP Fit Center 3117 is at  -3.638979 -1.732123 -1.686306
      ESP Fit Center 3118 is at  -3.253052 -1.912083 -1.686306
      ESP Fit Center 3119 is at  -1.785989  2.603133 -2.079955
      ESP Fit Center 3120 is at  -2.204603  2.681385 -2.079955
      ESP Fit Center 3121 is at  -2.630467  2.681385 -2.079955
      ESP Fit Center 3122 is at  -3.049080  2.603133 -2.079955
      ESP Fit Center 3123 is at  -3.446187  2.449293 -2.079955
      ESP Fit Center 3124 is at  -3.808264  2.225104 -2.079955
      ESP Fit Center 3125 is at  -4.122982  1.938201 -2.079955
      ESP Fit Center 3126 is at  -4.379622  1.598354 -2.079955
      ESP Fit Center 3127 is at  -4.569447  1.217136 -2.079955
      ESP Fit Center 3128 is at  -4.685990  0.807529 -2.079955
      ESP Fit Center 3129 is at  -4.725284  0.383481 -2.079955
      ESP Fit Center 3130 is at  -4.685990 -0.040567 -2.079955
      ESP Fit Center 3131 is at  -4.569447 -0.450174 -2.079955
      ESP Fit Center 3132 is at  -4.379622 -0.831392 -2.079955
      ESP Fit Center 3133 is at  -4.122982 -1.171239 -2.079955
      ESP Fit Center 3134 is at  -3.808264 -1.458142 -2.079955
      ESP Fit Center 3135 is at  -3.446187 -1.682331 -2.079955
      ESP Fit Center 3136 is at  -3.049080 -1.836171 -2.079955
      ESP Fit Center 3137 is at  -1.684839  2.361819 -2.445992
      ESP Fit Center 3138 is at  -2.098074  2.468813 -2.445992
      ESP Fit Center 3139 is at  -2.524387  2.490433 -2.445992
      ESP Fit Center 3140 is at  -2.946326  2.425794 -2.445992
      ESP Fit Center 3141 is at  -3.346617  2.277543 -2.445992
      ESP Fit Center 3142 is at  -3.708870  2.051749 -2.445992
      ESP Fit Center 3143 is at  -4.018256  1.757655 -2.445992
      ESP Fit Center 3144 is at  -4.262109  1.407303 -2.445992
      ESP Fit Center 3145 is at  -4.430444  1.015035 -2.445992
      ESP Fit Center 3146 is at  -4.516370  0.596912 -2.445992
      ESP Fit Center 3147 is at  -4.516370  0.170050 -2.445992
      ESP Fit Center 3148 is at  -4.430444 -0.248073 -2.445992
      ESP Fit Center 3149 is at  -4.262109 -0.640341 -2.445992
      ESP Fit Center 3150 is at  -4.018256 -0.990693 -2.445992
      ESP Fit Center 3151 is at  -3.708870 -1.284787 -2.445992
      ESP Fit Center 3152 is at  -3.346617 -1.510581 -2.445992
      ESP Fit Center 3153 is at  -2.946326 -1.658832 -2.445992
      ESP Fit Center 3154 is at  -2.524387 -1.723471 -2.445992
      ESP Fit Center 3155 is at  -1.310388  1.870637 -2.774432
      ESP Fit Center 3156 is at  -1.683193  2.085876 -2.774432
      ESP Fit Center 3157 is at  -2.095587  2.209338 -2.774432
      ESP Fit Center 3158 is at  -2.525337  2.234369 -2.774432
      ESP Fit Center 3159 is at  -2.949275  2.159617 -2.774432
      ESP Fit Center 3160 is at  -3.344547  1.989113 -2.774432
      ESP Fit Center 3161 is at  -3.689844  1.732049 -2.774432
      ESP Fit Center 3162 is at  -3.966550  1.402284 -2.774432
      ESP Fit Center 3163 is at  -4.159748  1.017595 -2.774432
      ESP Fit Center 3164 is at  -4.259023  0.598720 -2.774432
      ESP Fit Center 3165 is at  -4.259023  0.168242 -2.774432
      ESP Fit Center 3166 is at  -4.159748 -0.250633 -2.774432
      ESP Fit Center 3167 is at  -3.966550 -0.635322 -2.774432
      ESP Fit Center 3168 is at  -3.689844 -0.965087 -2.774432
      ESP Fit Center 3169 is at  -3.344547 -1.222151 -2.774432
      ESP Fit Center 3170 is at  -2.949275 -1.392655 -2.774432
      ESP Fit Center 3171 is at  -2.525337 -1.467407 -2.774432
      ESP Fit Center 3172 is at  -2.095587 -1.442376 -2.774432
      ESP Fit Center 3173 is at  -1.095051  1.187701 -3.056316
      ESP Fit Center 3174 is at  -1.361068  1.514681 -3.056316
      ESP Fit Center 3175 is at  -1.705439  1.757764 -3.056316
      ESP Fit Center 3176 is at  -2.102622  1.898923 -3.056316
      ESP Fit Center 3177 is at  -2.523162  1.927689 -3.056316
      ESP Fit Center 3178 is at  -2.935867  1.841928 -3.056316
      ESP Fit Center 3179 is at  -3.310130  1.648000 -3.056316
      ESP Fit Center 3180 is at  -3.618193  1.360289 -3.056316
      ESP Fit Center 3181 is at  -3.837209  1.000133 -3.056316
      ESP Fit Center 3182 is at  -3.950934  0.594242 -3.056316
      ESP Fit Center 3183 is at  -3.950934  0.172720 -3.056316
      ESP Fit Center 3184 is at  -3.837209 -0.233171 -3.056316
      ESP Fit Center 3185 is at  -3.618193 -0.593327 -3.056316
      ESP Fit Center 3186 is at  -3.310130 -0.881038 -3.056316
      ESP Fit Center 3187 is at  -2.935867 -1.074966 -3.056316
      ESP Fit Center 3188 is at  -2.523162 -1.160727 -3.056316
      ESP Fit Center 3189 is at  -2.102622 -1.131961 -3.056316
      ESP Fit Center 3190 is at  -1.705439 -0.990802 -3.056316
      ESP Fit Center 3191 is at  -1.218147  0.383481 -3.283956
      ESP Fit Center 3192 is at  -1.290479  0.793696 -3.283956
      ESP Fit Center 3193 is at  -1.498751  1.154432 -3.283956
      ESP Fit Center 3194 is at  -1.817841  1.422181 -3.283956
      ESP Fit Center 3195 is at  -2.209263  1.564647 -3.283956
      ESP Fit Center 3196 is at  -2.625806  1.564647 -3.283956
      ESP Fit Center 3197 is at  -3.017229  1.422181 -3.283956
      ESP Fit Center 3198 is at  -3.336319  1.154432 -3.283956
      ESP Fit Center 3199 is at  -3.544590  0.793696 -3.283956
      ESP Fit Center 3200 is at  -3.616922  0.383481 -3.283956
      ESP Fit Center 3201 is at  -3.544590 -0.026734 -3.283956
      ESP Fit Center 3202 is at  -3.336319 -0.387470 -3.283956
      ESP Fit Center 3203 is at  -3.017229 -0.655219 -3.283956
      ESP Fit Center 3204 is at  -2.625806 -0.797685 -3.283956
      ESP Fit Center 3205 is at  -2.209263 -0.797685 -3.283956
      ESP Fit Center 3206 is at  -1.817841 -0.655219 -3.283956
      ESP Fit Center 3207 is at  -1.498751 -0.387470 -3.283956
      ESP Fit Center 3208 is at  -1.290479 -0.026734 -3.283956
      ESP Fit Center 3209 is at  -1.599292  0.383481 -3.451142
      ESP Fit Center 3210 is at  -1.708916  0.792602 -3.451142
      ESP Fit Center 3211 is at  -2.008414  1.092100 -3.451142
      ESP Fit Center 3212 is at  -2.417535  1.201724 -3.451142
      ESP Fit Center 3213 is at  -2.826656  1.092100 -3.451142
      ESP Fit Center 3214 is at  -3.126154  0.792602 -3.451142
      ESP Fit Center 3215 is at  -3.235778  0.383481 -3.451142
      ESP Fit Center 3216 is at  -3.126154 -0.025640 -3.451142
      ESP Fit Center 3217 is at  -2.826656 -0.325138 -3.451142
      ESP Fit Center 3218 is at  -2.417535 -0.434762 -3.451142
      ESP Fit Center 3219 is at  -2.008414 -0.325138 -3.451142
      ESP Fit Center 3220 is at  -1.708916 -0.025640 -3.451142
      ESP Fit Center 3221 is at  -2.002757  0.383481 -3.553313
      ESP Fit Center 3222 is at  -2.210146  0.742690 -3.553313
      ESP Fit Center 3223 is at  -2.624924  0.742690 -3.553313
      ESP Fit Center 3224 is at  -2.832313  0.383481 -3.553313
      ESP Fit Center 3225 is at  -2.624924  0.024272 -3.553313
      ESP Fit Center 3226 is at  -2.210146  0.024272 -3.553313
      ESP Fit Center 3227 is at  -2.417535  0.383481 -3.587682
      ESP Fit Center 3228 is at  -1.382912  0.921886  3.650277
      ESP Fit Center 3229 is at  -0.968134  0.921886  3.615907
      ESP Fit Center 3230 is at  -1.175523  1.281094  3.615907
      ESP Fit Center 3231 is at  -1.590302  1.281094  3.615907
      ESP Fit Center 3232 is at  -1.797691  0.921886  3.615907
      ESP Fit Center 3233 is at  -1.590302  0.562677  3.615907
      ESP Fit Center 3234 is at  -1.175523  0.562677  3.615907
      ESP Fit Center 3235 is at  -0.564670  0.921886  3.513736
      ESP Fit Center 3236 is at  -0.674293  1.331007  3.513736
      ESP Fit Center 3237 is at  -0.973791  1.630505  3.513736
      ESP Fit Center 3238 is at  -1.382912  1.740128  3.513736
      ESP Fit Center 3239 is at  -1.792034  1.630505  3.513736
      ESP Fit Center 3240 is at  -2.091531  1.331007  3.513736
      ESP Fit Center 3241 is at  -2.201155  0.921886  3.513736
      ESP Fit Center 3242 is at  -2.091531  0.512765  3.513736
      ESP Fit Center 3243 is at  -1.792034  0.213267  3.513736
      ESP Fit Center 3244 is at  -1.382912  0.103643  3.513736
      ESP Fit Center 3245 is at  -0.973791  0.213267  3.513736
      ESP Fit Center 3246 is at  -0.674293  0.512765  3.513736
      ESP Fit Center 3247 is at  -0.183525  0.921886  3.346551
      ESP Fit Center 3248 is at  -0.255857  1.332100  3.346551
      ESP Fit Center 3249 is at  -0.464128  1.692837  3.346551
      ESP Fit Center 3250 is at  -0.783219  1.960586  3.346551
      ESP Fit Center 3251 is at  -1.174641  2.103052  3.346551
      ESP Fit Center 3252 is at  -1.591184  2.103052  3.346551
      ESP Fit Center 3253 is at  -1.982606  1.960586  3.346551
      ESP Fit Center 3254 is at  -2.301696  1.692837  3.346551
      ESP Fit Center 3255 is at  -2.509968  1.332100  3.346551
      ESP Fit Center 3256 is at  -2.582300  0.921886  3.346551
      ESP Fit Center 3257 is at  -2.509968  0.511671  3.346551
      ESP Fit Center 3258 is at  -2.301696  0.150934  3.346551
      ESP Fit Center 3259 is at  -1.982606 -0.116814  3.346551
      ESP Fit Center 3260 is at  -1.591184 -0.259280  3.346551
      ESP Fit Center 3261 is at  -1.174641 -0.259280  3.346551
      ESP Fit Center 3262 is at  -0.783219 -0.116814  3.346551
      ESP Fit Center 3263 is at  -0.464128  0.150934  3.346551
      ESP Fit Center 3264 is at  -0.255857  0.511671  3.346551
      ESP Fit Center 3265 is at   0.164904  0.921886  3.118911
      ESP Fit Center 3266 is at   0.107506  1.339482  3.118911
      ESP Fit Center 3267 is at  -0.060428  1.726106  3.118911
      ESP Fit Center 3268 is at  -0.326446  2.053085  3.118911
      ESP Fit Center 3269 is at  -0.670816  2.296169  3.118911
      ESP Fit Center 3270 is at  -1.068000  2.437328  3.118911
      ESP Fit Center 3271 is at  -1.488539  2.466094  3.118911
      ESP Fit Center 3272 is at  -1.901244  2.380332  3.118911
      ESP Fit Center 3273 is at  -2.275507  2.186405  3.118911
      ESP Fit Center 3274 is at  -2.583571  1.898694  3.118911
      ESP Fit Center 3275 is at  -2.802587  1.538537  3.118911
      ESP Fit Center 3276 is at  -2.916312  1.132647  3.118911
      ESP Fit Center 3277 is at  -2.916312  0.711125  3.118911
      ESP Fit Center 3278 is at  -2.802587  0.305234  3.118911
      ESP Fit Center 3279 is at  -2.583571 -0.054922  3.118911
      ESP Fit Center 3280 is at  -2.275507 -0.342633  3.118911
      ESP Fit Center 3281 is at  -1.901244 -0.536561  3.118911
      ESP Fit Center 3282 is at  -1.488539 -0.622322  3.118911
      ESP Fit Center 3283 is at  -1.068000 -0.593556  3.118911
      ESP Fit Center 3284 is at  -0.670816 -0.452397  3.118911
      ESP Fit Center 3285 is at  -0.326446 -0.209314  3.118911
      ESP Fit Center 3286 is at  -0.060428  0.117665  3.118911
      ESP Fit Center 3287 is at   0.107506  0.504290  3.118911
      ESP Fit Center 3288 is at   0.471112  0.921886  2.837027
      ESP Fit Center 3289 is at   0.421136  1.349453  2.837027
      ESP Fit Center 3290 is at   0.273904  1.753970  2.837027
      ESP Fit Center 3291 is at   0.037353  2.113630  2.837027
      ESP Fit Center 3292 is at  -0.275766  2.409042  2.837027
      ESP Fit Center 3293 is at  -0.648571  2.624281  2.837027
      ESP Fit Center 3294 is at  -1.060964  2.747743  2.837027
      ESP Fit Center 3295 is at  -1.490714  2.772773  2.837027
      ESP Fit Center 3296 is at  -1.914653  2.698022  2.837027
      ESP Fit Center 3297 is at  -2.309925  2.527518  2.837027
      ESP Fit Center 3298 is at  -2.655221  2.270454  2.837027
      ESP Fit Center 3299 is at  -2.931927  1.940689  2.837027
      ESP Fit Center 3300 is at  -3.125125  1.555999  2.837027
      ESP Fit Center 3301 is at  -3.224400  1.137125  2.837027
      ESP Fit Center 3302 is at  -3.224400  0.706647  2.837027
      ESP Fit Center 3303 is at  -3.125125  0.287772  2.837027
      ESP Fit Center 3304 is at  -2.931927 -0.096917  2.837027
      ESP Fit Center 3305 is at  -2.655221 -0.426683  2.837027
      ESP Fit Center 3306 is at  -2.309925 -0.683746  2.837027
      ESP Fit Center 3307 is at  -0.648571 -0.780509  2.837027
      ESP Fit Center 3308 is at   0.348619  2.127067  2.508586
      ESP Fit Center 3309 is at   0.070573  2.450952  2.508586
      ESP Fit Center 3310 is at  -0.266978  2.712236  2.508586
      ESP Fit Center 3311 is at  -0.650217  2.900224  2.508586
      ESP Fit Center 3312 is at  -1.063451  3.007217  2.508586
      ESP Fit Center 3313 is at  -1.489765  3.028838  2.508586
      ESP Fit Center 3314 is at  -1.911704  2.964199  2.508586
      ESP Fit Center 3315 is at  -2.311994  2.815948  2.508586
      ESP Fit Center 3316 is at  -2.674248  2.590153  2.508586
      ESP Fit Center 3317 is at  -2.983634  2.296060  2.508586
      ESP Fit Center 3318 is at  -3.227486  1.945708  2.508586
      ESP Fit Center 3319 is at  -3.395821  1.553440  2.508586
      ESP Fit Center 3320 is at  -3.481748  1.135317  2.508586
      ESP Fit Center 3321 is at  -3.481748  0.708455  2.508586
      ESP Fit Center 3322 is at  -3.395821  0.290332  2.508586
      ESP Fit Center 3323 is at  -3.227486 -0.101936  2.508586
      ESP Fit Center 3324 is at   0.322535  2.476606  2.142549
      ESP Fit Center 3325 is at   0.007817  2.763509  2.142549
      ESP Fit Center 3326 is at  -0.354260  2.987698  2.142549
      ESP Fit Center 3327 is at  -0.751367  3.141538  2.142549
      ESP Fit Center 3328 is at  -1.169980  3.219790  2.142549
      ESP Fit Center 3329 is at  -1.595845  3.219790  2.142549
      ESP Fit Center 3330 is at  -2.014458  3.141538  2.142549
      ESP Fit Center 3331 is at  -2.411565  2.987698  2.142549
      ESP Fit Center 3332 is at  -2.773642  2.763509  2.142549
      ESP Fit Center 3333 is at  -3.088359  2.476606  2.142549
      ESP Fit Center 3334 is at  -3.345000  2.136759  2.142549
      ESP Fit Center 3335 is at  -3.534824  1.755541  2.142549
      ESP Fit Center 3336 is at  -3.651367  1.345934  2.142549
      ESP Fit Center 3337 is at  -3.690661  0.921886  2.142549
      ESP Fit Center 3338 is at  -3.651367  0.497838  2.142549
      ESP Fit Center 3339 is at   0.187346  2.793247  1.748900
      ESP Fit Center 3340 is at  -0.161468  3.037489  1.748900
      ESP Fit Center 3341 is at  -0.547395  3.217450  1.748900
      ESP Fit Center 3342 is at  -0.958709  3.327662  1.748900
      ESP Fit Center 3343 is at  -1.382912  3.364775  1.748900
      ESP Fit Center 3344 is at  -1.807116  3.327662  1.748900
      ESP Fit Center 3345 is at  -2.218430  3.217450  1.748900
      ESP Fit Center 3346 is at  -2.604357  3.037489  1.748900
      ESP Fit Center 3347 is at  -2.953171  2.793247  1.748900
      ESP Fit Center 3348 is at  -3.254274  2.492144  1.748900
      ESP Fit Center 3349 is at  -3.498516  2.143330  1.748900
      ESP Fit Center 3350 is at  -3.678477  1.757403  1.748900
      ESP Fit Center 3351 is at  -3.788688  1.346089  1.748900
      ESP Fit Center 3352 is at  -0.066171  3.060410  1.338377
      ESP Fit Center 3353 is at  -0.446523  3.252180  1.338377
      ESP Fit Center 3354 is at  -0.853814  3.376911  1.338377
      ESP Fit Center 3355 is at  -1.276326  3.431016  1.338377
      ESP Fit Center 3356 is at  -1.701904  3.412938  1.338377
      ESP Fit Center 3357 is at  -2.118305  3.323196  1.338377
      ESP Fit Center 3358 is at  -2.513551  3.164374  1.338377
      ESP Fit Center 3359 is at  -2.876270  2.941039  1.338377
      ESP Fit Center 3360 is at  -3.196028  2.659616  1.338377
      ESP Fit Center 3361 is at  -3.463626  2.328203  1.338377
      ESP Fit Center 3362 is at  -3.671365  1.956332  1.338377
      ESP Fit Center 3363 is at  -0.066171  3.060410  0.922177
      ESP Fit Center 3364 is at  -0.446523  3.252180  0.922177
      ESP Fit Center 3365 is at  -0.853814  3.376911  0.922177
      ESP Fit Center 3366 is at  -1.276326  3.431016  0.922177
      ESP Fit Center 3367 is at  -1.701904  3.412938  0.922177
      ESP Fit Center 3368 is at  -2.118305  3.323196  0.922177
      ESP Fit Center 3369 is at  -2.513551  3.164374  0.922177
      ESP Fit Center 3370 is at  -2.876270  2.941039  0.922177
      ESP Fit Center 3371 is at  -3.196028  2.659616  0.922177
      ESP Fit Center 3372 is at  -3.463626  2.328203  0.922177
      ESP Fit Center 3373 is at  -0.161468  3.037489  0.511654
      ESP Fit Center 3374 is at  -0.547395  3.217450  0.511654
      ESP Fit Center 3375 is at  -0.958709  3.327662  0.511654
      ESP Fit Center 3376 is at  -1.382912  3.364775  0.511654
      ESP Fit Center 3377 is at  -1.807116  3.327662  0.511654
      ESP Fit Center 3378 is at  -2.218430  3.217450  0.511654
      ESP Fit Center 3379 is at  -2.604357  3.037489  0.511654
      ESP Fit Center 3380 is at   2.011855  0.923444  3.185697
      ESP Fit Center 3381 is at   1.606815  1.070867  3.185697
      ESP Fit Center 3382 is at   1.175779  1.070867  3.185697
      ESP Fit Center 3383 is at   0.770738  0.923444  3.185697
      ESP Fit Center 3384 is at   2.799914  0.661871  3.012236
      ESP Fit Center 3385 is at   2.541428  0.998736  3.012236
      ESP Fit Center 3386 is at   3.336076  0.261981  2.793584
      ESP Fit Center 3387 is at   3.207632  0.657290  2.793584
      ESP Fit Center 3388 is at   2.999806  1.017255  2.793584
      ESP Fit Center 3389 is at   3.712226 -0.151395  2.532928
      ESP Fit Center 3390 is at   3.674928  0.263023  2.532928
      ESP Fit Center 3391 is at   3.564232  0.664121  2.532928
      ESP Fit Center 3392 is at   3.383696  1.039008  2.532928
      ESP Fit Center 3393 is at   4.011085 -0.151395  2.234070
      ESP Fit Center 3394 is at   3.977159  0.268849  2.234070
      ESP Fit Center 3395 is at   3.876261  0.678208  2.234070
      ESP Fit Center 3396 is at   3.711004  1.066081  2.234070
      ESP Fit Center 3397 is at   3.977159 -0.571638  2.234070
      ESP Fit Center 3398 is at   4.271740 -0.151395  1.901367
      ESP Fit Center 3399 is at   4.241045  0.268001  1.901367
      ESP Fit Center 3400 is at   4.149611  0.678458  1.901367
      ESP Fit Center 3401 is at   3.999389  1.071229  1.901367
      ESP Fit Center 3402 is at   4.149611 -0.981248  1.901367
      ESP Fit Center 3403 is at   4.241045 -0.570791  1.901367
      ESP Fit Center 3404 is at   4.490393 -0.151395  1.539671
      ESP Fit Center 3405 is at   4.461528  0.270599  1.539671
      ESP Fit Center 3406 is at   4.375470  0.684731  1.539671
      ESP Fit Center 3407 is at   4.233823  1.083288  1.539671
      ESP Fit Center 3408 is at   4.039225 -1.761635  1.539671
      ESP Fit Center 3409 is at   4.233823 -1.386078  1.539671
      ESP Fit Center 3410 is at   4.375470 -0.987521  1.539671
      ESP Fit Center 3411 is at   4.461528 -0.573388  1.539671
      ESP Fit Center 3412 is at   4.663854 -0.151395  1.154257
      ESP Fit Center 3413 is at   4.636986  0.267090  1.154257
      ESP Fit Center 3414 is at   4.556824  0.678704  1.154257
      ESP Fit Center 3415 is at   4.424685  1.076688  1.154257
      ESP Fit Center 3416 is at   3.742136 -2.428056  1.154257
      ESP Fit Center 3417 is at   4.013969 -2.108746  1.154257
      ESP Fit Center 3418 is at   4.242737 -1.757296  1.154257
      ESP Fit Center 3419 is at   4.424685 -1.379477  1.154257
      ESP Fit Center 3420 is at   4.556824 -0.981494  1.154257
      ESP Fit Center 3421 is at   4.636986 -0.569880  1.154257
      ESP Fit Center 3422 is at   4.789593 -0.151395  0.750745
      ESP Fit Center 3423 is at   4.763836  0.266216  0.750745
      ESP Fit Center 3424 is at   4.686954  0.677496  0.750745
      ESP Fit Center 3425 is at   4.560114  1.076211  0.750745
      ESP Fit Center 3426 is at   4.385237  1.456317  0.750745
      ESP Fit Center 3427 is at   3.268397 -2.984223  0.750745
      ESP Fit Center 3428 is at   3.602291 -2.732078  0.750745
      ESP Fit Center 3429 is at   3.902668 -2.440812  0.750745
      ESP Fit Center 3430 is at   4.164976 -2.114842  0.750745
      ESP Fit Center 3431 is at   4.385237 -1.759107  0.750745
      ESP Fit Center 3432 is at   4.560114 -1.379001  0.750745
      ESP Fit Center 3433 is at   4.686954 -0.980286  0.750745
      ESP Fit Center 3434 is at   4.763836 -0.569006  0.750745
      ESP Fit Center 3435 is at   4.865778 -0.151395  0.335019
      ESP Fit Center 3436 is at   4.840445  0.267408  0.335019
      ESP Fit Center 3437 is at   4.764816  0.680103  0.335019
      ESP Fit Center 3438 is at   4.639993  1.080673  0.335019
      ESP Fit Center 3439 is at   4.467797  1.463277  0.335019
      ESP Fit Center 3440 is at   0.159229 -3.400091  0.335019
      ESP Fit Center 3441 is at   0.559799 -3.524914  0.335019
      ESP Fit Center 3442 is at   0.972494 -3.600543  0.335019
      ESP Fit Center 3443 is at   1.391297 -3.625876  0.335019
      ESP Fit Center 3444 is at   1.810099 -3.600543  0.335019
      ESP Fit Center 3445 is at   2.222795 -3.524914  0.335019
      ESP Fit Center 3446 is at   2.623365 -3.400091  0.335019
      ESP Fit Center 3447 is at   3.005969 -3.227895  0.335019
      ESP Fit Center 3448 is at   3.365027 -3.010837  0.335019
      ESP Fit Center 3449 is at   3.695304 -2.752081  0.335019
      ESP Fit Center 3450 is at   3.991983 -2.455402  0.335019
      ESP Fit Center 3451 is at   4.250739 -2.125125  0.335019
      ESP Fit Center 3452 is at   4.467797 -1.766067  0.335019
      ESP Fit Center 3453 is at   4.639993 -1.383463  0.335019
      ESP Fit Center 3454 is at   4.840445 -0.570197  0.335019
      ESP Fit Center 3455 is at   4.672266  1.067311 -0.086860
      ESP Fit Center 3456 is at   4.505097  1.446807 -0.086860
      ESP Fit Center 3457 is at   0.270352 -3.467037 -0.086860
      ESP Fit Center 3458 is at   0.670372 -3.576343 -0.086860
      ESP Fit Center 3459 is at   1.080511 -3.637569 -0.086860
      ESP Fit Center 3460 is at   1.495014 -3.649858 -0.086860
      ESP Fit Center 3461 is at   1.908060 -3.613036 -0.086860
      ESP Fit Center 3462 is at   2.313852 -3.527619 -0.086860
      ESP Fit Center 3463 is at   2.706693 -3.394808 -0.086860
      ESP Fit Center 3464 is at   3.081070 -3.216467 -0.086860
      ESP Fit Center 3465 is at   3.431725 -2.995099 -0.086860
      ESP Fit Center 3466 is at   3.753737 -2.733811 -0.086860
      ESP Fit Center 3467 is at   4.467797  1.463277 -0.508738
      ESP Fit Center 3468 is at   4.250739  1.822335 -0.508738
      ESP Fit Center 3469 is at   0.159229 -3.400091 -0.508738
      ESP Fit Center 3470 is at   0.559799 -3.524914 -0.508738
      ESP Fit Center 3471 is at   0.972494 -3.600543 -0.508738
      ESP Fit Center 3472 is at   1.391297 -3.625876 -0.508738
      ESP Fit Center 3473 is at   1.810099 -3.600543 -0.508738
      ESP Fit Center 3474 is at   2.222795 -3.524914 -0.508738
      ESP Fit Center 3475 is at   2.623365 -3.400091 -0.508738
      ESP Fit Center 3476 is at   3.005969 -3.227895 -0.508738
      ESP Fit Center 3477 is at   3.365027 -3.010837 -0.508738
      ESP Fit Center 3478 is at   4.164976  1.812052 -0.924464
      ESP Fit Center 3479 is at   0.066689 -3.280905 -0.924464
      ESP Fit Center 3480 is at   0.461309 -3.419963 -0.924464
      ESP Fit Center 3481 is at   0.870027 -3.509474 -0.924464
      ESP Fit Center 3482 is at   1.286646 -3.548079 -0.924464
      ESP Fit Center 3483 is at   1.704852 -3.535195 -0.924464
      ESP Fit Center 3484 is at   2.118305 -3.471015 -0.924464
      ESP Fit Center 3485 is at   2.520737 -3.356513 -0.924464
      ESP Fit Center 3486 is at   2.906048 -3.193425 -0.924464
      ESP Fit Center 3487 is at   3.742136  2.125266 -1.327977
      ESP Fit Center 3488 is at  -0.122386 -3.052842 -1.327977
      ESP Fit Center 3489 is at   0.261070 -3.222586 -1.327977
      ESP Fit Center 3490 is at   0.663085 -3.341902 -1.327977
      ESP Fit Center 3491 is at   1.077056 -3.408830 -1.327977
      ESP Fit Center 3492 is at   1.496188 -3.422270 -1.327977
      ESP Fit Center 3493 is at   1.913597 -3.382003 -1.327977
      ESP Fit Center 3494 is at   2.322430 -3.288690 -1.327977
      ESP Fit Center 3495 is at   3.506595  2.113536 -1.713391
      ESP Fit Center 3496 is at   3.178485  2.380473 -1.713391
      ESP Fit Center 3497 is at   2.817083  2.600247 -1.713391
      ESP Fit Center 3498 is at   0.760767  2.882881 -1.713391
      ESP Fit Center 3499 is at  -0.034489 -2.903036 -1.713391
      ESP Fit Center 3500 is at   0.353473 -3.071552 -1.713391
      ESP Fit Center 3501 is at   0.760767 -3.185671 -1.713391
      ESP Fit Center 3502 is at   1.179807 -3.243266 -1.713391
      ESP Fit Center 3503 is at   1.602787 -3.243266 -1.713391
      ESP Fit Center 3504 is at   2.021827 -3.185671 -1.713391
      ESP Fit Center 3505 is at   2.891836  2.307332 -2.075086
      ESP Fit Center 3506 is at   2.517852  2.499610 -2.075086
      ESP Fit Center 3507 is at   2.119857  2.635387 -2.075086
      ESP Fit Center 3508 is at   1.706334  2.711769 -2.075086
      ESP Fit Center 3509 is at   1.286097  2.727127 -2.075086
      ESP Fit Center 3510 is at   0.868102  2.681134 -2.075086
      ESP Fit Center 3511 is at   0.461258 -2.877561 -2.075086
      ESP Fit Center 3512 is at   0.868102 -2.983924 -2.075086
      ESP Fit Center 3513 is at   1.286097 -3.029917 -2.075086
      ESP Fit Center 3514 is at   1.706334 -3.014559 -2.075086
      ESP Fit Center 3515 is at   2.514380  2.215453 -2.407789
      ESP Fit Center 3516 is at   2.120168  2.364959 -2.407789
      ESP Fit Center 3517 is at   1.707077  2.449292 -2.407789
      ESP Fit Center 3518 is at   1.285809  2.466268 -2.407789
      ESP Fit Center 3519 is at   0.867272  2.415449 -2.407789
      ESP Fit Center 3520 is at   0.462307 -2.600939 -2.407789
      ESP Fit Center 3521 is at   0.867272 -2.718238 -2.407789
      ESP Fit Center 3522 is at   1.285809 -2.769058 -2.407789
      ESP Fit Center 3523 is at   1.707077 -2.752081 -2.407789
      ESP Fit Center 3524 is at   2.491113  1.892405 -2.706647
      ESP Fit Center 3525 is at   2.108504  2.055940 -2.706647
      ESP Fit Center 3526 is at   1.702843  2.148529 -2.706647
      ESP Fit Center 3527 is at   1.287169  2.167197 -2.706647
      ESP Fit Center 3528 is at   0.874842 -2.414134 -2.706647
      ESP Fit Center 3529 is at   1.287169 -2.469987 -2.706647
      ESP Fit Center 3530 is at   2.005693  1.739521 -2.967303
      ESP Fit Center 3531 is at   1.599123  1.825940 -2.967303
      ESP Fit Center 3532 is at   1.183471  1.825940 -2.967303
      ESP Fit Center 3533 is at   0.776901 -2.042311 -2.967303
      ESP Fit Center 3534 is at   1.183471 -2.128730 -2.967303
      ESP Fit Center 3535 is at   1.812274  1.419714 -3.185956
      ESP Fit Center 3536 is at   1.391297  1.475136 -3.185956
      ESP Fit Center 3537 is at   0.970320 -1.722503 -3.185956
      ESP Fit Center 3538 is at   1.606815  1.070867 -3.359416
      ESP Fit Center 3539 is at   1.391297  0.686210 -3.485156
      ESP Fit Center 3540 is at   1.690770  1.381144  3.121627
      ESP Fit Center 3541 is at   2.113143  1.381144  3.088385
      ESP Fit Center 3542 is at   1.901957  1.746929  3.088385
      ESP Fit Center 3543 is at   1.479584  1.746929  3.088385
      ESP Fit Center 3544 is at   1.268397  1.381144  3.088385
      ESP Fit Center 3545 is at   2.525116  1.381144  2.989479
      ESP Fit Center 3546 is at   2.413335  1.798317  2.989479
      ESP Fit Center 3547 is at   2.107943  2.103708  2.989479
      ESP Fit Center 3548 is at   1.690770  2.215489  2.989479
      ESP Fit Center 3549 is at   1.273597  2.103708  2.989479
      ESP Fit Center 3550 is at   0.968205  1.798317  2.989479
      ESP Fit Center 3551 is at   2.916544  1.381144  2.827344
      ESP Fit Center 3552 is at   2.842621  1.800383  2.827344
      ESP Fit Center 3553 is at   2.629768  2.169056  2.827344
      ESP Fit Center 3554 is at   2.303657  2.442695  2.827344
      ESP Fit Center 3555 is at   1.903624  2.588296  2.827344
      ESP Fit Center 3556 is at   1.477917  2.588296  2.827344
      ESP Fit Center 3557 is at   1.077883  2.442695  2.827344
      ESP Fit Center 3558 is at   0.751772  2.169056  2.827344
      ESP Fit Center 3559 is at   3.277790  1.381144  2.605972
      ESP Fit Center 3560 is at   3.223714  1.791895  2.605972
      ESP Fit Center 3561 is at   3.065170  2.174654  2.605972
      ESP Fit Center 3562 is at   2.812963  2.503336  2.605972
      ESP Fit Center 3563 is at   2.484280  2.755543  2.605972
      ESP Fit Center 3564 is at   2.101521  2.914087  2.605972
      ESP Fit Center 3565 is at   1.690770  2.968164  2.605972
      ESP Fit Center 3566 is at   1.280019  2.914087  2.605972
      ESP Fit Center 3567 is at   0.897260  2.755543  2.605972
      ESP Fit Center 3568 is at   0.568577  2.503336  2.605972
      ESP Fit Center 3569 is at   3.599958  1.381144  2.330815
      ESP Fit Center 3570 is at   3.552091  1.805978  2.330815
      ESP Fit Center 3571 is at   3.410889  2.209509  2.330815
      ESP Fit Center 3572 is at   3.183434  2.571503  2.330815
      ESP Fit Center 3573 is at   2.881130  2.873807  2.330815
      ESP Fit Center 3574 is at   2.519136  3.101263  2.330815
      ESP Fit Center 3575 is at   2.115604  3.242465  2.330815
      ESP Fit Center 3576 is at   1.690770  3.290332  2.330815
      ESP Fit Center 3577 is at   1.265936  3.242465  2.330815
      ESP Fit Center 3578 is at   0.862404  3.101263  2.330815
      ESP Fit Center 3579 is at   0.500411  2.873807  2.330815
      ESP Fit Center 3580 is at   3.875116  1.381144  2.008647
      ESP Fit Center 3581 is at   3.835642  1.794534  2.008647
      ESP Fit Center 3582 is at   3.718647  2.192983  2.008647
      ESP Fit Center 3583 is at   3.528359  2.562090  2.008647
      ESP Fit Center 3584 is at   3.271656  2.888515  2.008647
      ESP Fit Center 3585 is at   2.957815  3.160459  2.008647
      ESP Fit Center 3586 is at   2.598180  3.368095  2.008647
      ESP Fit Center 3587 is at   2.205749  3.503916  2.008647
      ESP Fit Center 3588 is at   1.794705  3.563015  2.008647
      ESP Fit Center 3589 is at   1.379905  3.543256  2.008647
      ESP Fit Center 3590 is at   0.976341  3.445352  2.008647
      ESP Fit Center 3591 is at   0.598597  3.272843  2.008647
      ESP Fit Center 3592 is at   0.260328  3.031962  2.008647
      ESP Fit Center 3593 is at   4.096488  1.381144  1.647401
      ESP Fit Center 3594 is at   4.059939  1.798892  1.647401
      ESP Fit Center 3595 is at   3.951405  2.203947  1.647401
      ESP Fit Center 3596 is at   3.774183  2.584002  1.647401
      ESP Fit Center 3597 is at   3.533657  2.927509  1.647401
      ESP Fit Center 3598 is at   3.237136  3.224030  1.647401
      ESP Fit Center 3599 is at   2.893629  3.464556  1.647401
      ESP Fit Center 3600 is at   2.513574  3.641779  1.647401
      ESP Fit Center 3601 is at   2.108519  3.750313  1.647401
      ESP Fit Center 3602 is at   1.690770  3.786861  1.647401
      ESP Fit Center 3603 is at   1.273022  3.750313  1.647401
      ESP Fit Center 3604 is at   0.867966  3.641779  1.647401
      ESP Fit Center 3605 is at   0.487911  3.464556  1.647401
      ESP Fit Center 3606 is at   0.144405  3.224030  1.647401
      ESP Fit Center 3607 is at   4.258623  1.381144  1.255972
      ESP Fit Center 3608 is at   4.223601  1.803798  1.255972
      ESP Fit Center 3609 is at   4.119489  2.214924  1.255972
      ESP Fit Center 3610 is at   3.949129  2.603306  1.255972
      ESP Fit Center 3611 is at   3.717167  2.958351  1.255972
      ESP Fit Center 3612 is at   3.429929  3.270374  1.255972
      ESP Fit Center 3613 is at   3.095252  3.530864  1.255972
      ESP Fit Center 3614 is at   2.722265  3.732715  1.255972
      ESP Fit Center 3615 is at   2.321141  3.870421  1.255972
      ESP Fit Center 3616 is at   1.902822  3.940226  1.255972
      ESP Fit Center 3617 is at   1.478719  3.940226  1.255972
      ESP Fit Center 3618 is at   1.060400  3.870421  1.255972
      ESP Fit Center 3619 is at   0.659275  3.732715  1.255972
      ESP Fit Center 3620 is at   0.286288  3.530864  1.255972
      ESP Fit Center 3621 is at   4.324696  1.798317  0.844000
      ESP Fit Center 3622 is at   4.227008  2.205217  0.844000
      ESP Fit Center 3623 is at   4.066869  2.591827  0.844000
      ESP Fit Center 3624 is at   3.848223  2.948625  0.844000
      ESP Fit Center 3625 is at   3.576453  3.266827  0.844000
      ESP Fit Center 3626 is at   3.258251  3.538597  0.844000
      ESP Fit Center 3627 is at   2.901453  3.757243  0.844000
      ESP Fit Center 3628 is at   2.514844  3.917382  0.844000
      ESP Fit Center 3629 is at   2.107943  4.015070  0.844000
      ESP Fit Center 3630 is at   1.690770  4.047902  0.844000
      ESP Fit Center 3631 is at   1.273597  4.015070  0.844000
      ESP Fit Center 3632 is at   0.866696  3.917382  0.844000
      ESP Fit Center 3633 is at   0.480087  3.757243  0.844000
      ESP Fit Center 3634 is at   0.123289  3.538597  0.844000
      ESP Fit Center 3635 is at   4.359127  1.793297  0.421627
      ESP Fit Center 3636 is at   4.264940  2.195789  0.421627
      ESP Fit Center 3637 is at   4.110417  2.579187  0.421627
      ESP Fit Center 3638 is at   3.899179  2.934504  0.421627
      ESP Fit Center 3639 is at   3.636178  3.253411  0.421627
      ESP Fit Center 3640 is at   3.327579  3.528434  0.421627
      ESP Fit Center 3641 is at   2.980614  3.753127  0.421627
      ESP Fit Center 3642 is at   2.603416  3.922222  0.421627
      ESP Fit Center 3643 is at   2.204826  4.031756  0.421627
      ESP Fit Center 3644 is at   1.794187  4.079162  0.421627
      ESP Fit Center 3645 is at   1.381125  4.063329  0.421627
      ESP Fit Center 3646 is at   0.975320  3.984628  0.421627
      ESP Fit Center 3647 is at   0.586285  3.844903  0.421627
      ESP Fit Center 3648 is at   0.223138  3.647430  0.421627
      ESP Fit Center 3649 is at  -0.105609  3.396837  0.421627
      ESP Fit Center 3650 is at   4.324696  1.798317 -0.000746
      ESP Fit Center 3651 is at   4.227008  2.205217 -0.000746
      ESP Fit Center 3652 is at   4.066869  2.591827 -0.000746
      ESP Fit Center 3653 is at   3.848223  2.948625 -0.000746
      ESP Fit Center 3654 is at   3.576453  3.266827 -0.000746
      ESP Fit Center 3655 is at   3.258251  3.538597 -0.000746
      ESP Fit Center 3656 is at   2.901453  3.757243 -0.000746
      ESP Fit Center 3657 is at   2.514844  3.917382 -0.000746
      ESP Fit Center 3658 is at   2.107943  4.015070 -0.000746
      ESP Fit Center 3659 is at   1.690770  4.047902 -0.000746
      ESP Fit Center 3660 is at   1.273597  4.015070 -0.000746
      ESP Fit Center 3661 is at   0.866696  3.917382 -0.000746
      ESP Fit Center 3662 is at   0.480087  3.757243 -0.000746
      ESP Fit Center 3663 is at   0.123289  3.538597 -0.000746
      ESP Fit Center 3664 is at   4.119489  2.214924 -0.412719
      ESP Fit Center 3665 is at   3.949129  2.603306 -0.412719
      ESP Fit Center 3666 is at   3.717167  2.958351 -0.412719
      ESP Fit Center 3667 is at   3.429929  3.270374 -0.412719
      ESP Fit Center 3668 is at   3.095252  3.530864 -0.412719
      ESP Fit Center 3669 is at   2.722265  3.732715 -0.412719
      ESP Fit Center 3670 is at   2.321141  3.870421 -0.412719
      ESP Fit Center 3671 is at   1.902822  3.940226 -0.412719
      ESP Fit Center 3672 is at   1.478719  3.940226 -0.412719
      ESP Fit Center 3673 is at   1.060400  3.870421 -0.412719
      ESP Fit Center 3674 is at   0.659275  3.732715 -0.412719
      ESP Fit Center 3675 is at   0.286288  3.530864 -0.412719
      ESP Fit Center 3676 is at   3.951405  2.203947 -0.804148
      ESP Fit Center 3677 is at   3.774183  2.584002 -0.804148
      ESP Fit Center 3678 is at   3.533657  2.927509 -0.804148
      ESP Fit Center 3679 is at   3.237136  3.224030 -0.804148
      ESP Fit Center 3680 is at   2.893629  3.464556 -0.804148
      ESP Fit Center 3681 is at   2.513574  3.641779 -0.804148
      ESP Fit Center 3682 is at   2.108519  3.750313 -0.804148
      ESP Fit Center 3683 is at   1.690770  3.786861 -0.804148
      ESP Fit Center 3684 is at   1.273022  3.750313 -0.804148
      ESP Fit Center 3685 is at   0.867966  3.641779 -0.804148
      ESP Fit Center 3686 is at   0.487911  3.464556 -0.804148
      ESP Fit Center 3687 is at   0.144405  3.224030 -0.804148
      ESP Fit Center 3688 is at   3.528359  2.562090 -1.165394
      ESP Fit Center 3689 is at   3.271656  2.888515 -1.165394
      ESP Fit Center 3690 is at   2.957815  3.160459 -1.165394
      ESP Fit Center 3691 is at   2.598180  3.368095 -1.165394
      ESP Fit Center 3692 is at   2.205749  3.503916 -1.165394
      ESP Fit Center 3693 is at   1.794705  3.563015 -1.165394
      ESP Fit Center 3694 is at   1.379905  3.543256 -1.165394
      ESP Fit Center 3695 is at   0.976341  3.445352 -1.165394
      ESP Fit Center 3696 is at   0.598597  3.272843 -1.165394
      ESP Fit Center 3697 is at   3.183434  2.571503 -1.487562
      ESP Fit Center 3698 is at   2.881130  2.873807 -1.487562
      ESP Fit Center 3699 is at   2.519136  3.101263 -1.487562
      ESP Fit Center 3700 is at   2.115604  3.242465 -1.487562
      ESP Fit Center 3701 is at   1.690770  3.290332 -1.487562
      ESP Fit Center 3702 is at   1.265936  3.242465 -1.487562
      ESP Fit Center 3703 is at   0.862404  3.101263 -1.487562
      ESP Fit Center 3704 is at   2.484280  2.755543 -1.762719
      ESP Fit Center 3705 is at   2.101521  2.914087 -1.762719
      ESP Fit Center 3706 is at   1.690770  2.968164 -1.762719
      ESP Fit Center 3707 is at   1.381702 -0.919445  3.932259
      ESP Fit Center 3708 is at   1.799021 -0.919445  3.900985
      ESP Fit Center 3709 is at   1.590362 -0.558036  3.900985
      ESP Fit Center 3710 is at   1.173043 -0.558036  3.900985
      ESP Fit Center 3711 is at   0.964384 -0.919445  3.900985
      ESP Fit Center 3712 is at   1.173043 -1.280853  3.900985
      ESP Fit Center 3713 is at   1.590362 -1.280853  3.900985
      ESP Fit Center 3714 is at   2.207017 -0.919445  3.807863
      ESP Fit Center 3715 is at   2.096446 -0.506788  3.807863
      ESP Fit Center 3716 is at   1.794360 -0.204701  3.807863
      ESP Fit Center 3717 is at   1.381702 -0.094130  3.807863
      ESP Fit Center 3718 is at   0.969045 -0.204701  3.807863
      ESP Fit Center 3719 is at   0.666959 -0.506788  3.807863
      ESP Fit Center 3720 is at   0.556388 -0.919445  3.807863
      ESP Fit Center 3721 is at   0.666959 -1.332102  3.807863
      ESP Fit Center 3722 is at   0.969045 -1.634188  3.807863
      ESP Fit Center 3723 is at   1.381702 -1.744759  3.807863
      ESP Fit Center 3724 is at   1.794360 -1.634188  3.807863
      ESP Fit Center 3725 is at   2.096446 -1.332102  3.807863
      ESP Fit Center 3726 is at   2.596577 -0.919445  3.654972
      ESP Fit Center 3727 is at   2.523311 -0.503933  3.654972
      ESP Fit Center 3728 is at   2.312350 -0.138539  3.654972
      ESP Fit Center 3729 is at   1.989140  0.132667  3.654972
      ESP Fit Center 3730 is at   1.592663  0.276973  3.654972
      ESP Fit Center 3731 is at   1.170742  0.276973  3.654972
      ESP Fit Center 3732 is at   0.774265  0.132667  3.654972
      ESP Fit Center 3733 is at   0.451055 -0.138539  3.654972
      ESP Fit Center 3734 is at   0.240094 -0.503933  3.654972
      ESP Fit Center 3735 is at   0.166828 -0.919445  3.654972
      ESP Fit Center 3736 is at   0.240094 -1.334956  3.654972
      ESP Fit Center 3737 is at   0.451055 -1.700351  3.654972
      ESP Fit Center 3738 is at   0.774265 -1.971557  3.654972
      ESP Fit Center 3739 is at   1.170742 -2.115863  3.654972
      ESP Fit Center 3740 is at   1.592663 -2.115863  3.654972
      ESP Fit Center 3741 is at   1.989140 -1.971557  3.654972
      ESP Fit Center 3742 is at   2.312350 -1.700351  3.654972
      ESP Fit Center 3743 is at   2.523311 -1.334956  3.654972
      ESP Fit Center 3744 is at   2.958999 -0.919445  3.445728
      ESP Fit Center 3745 is at   2.905254 -0.511210  3.445728
      ESP Fit Center 3746 is at   2.747681 -0.130797  3.445728
      ESP Fit Center 3747 is at   2.497019  0.195872  3.445728
      ESP Fit Center 3748 is at   2.170351  0.446534  3.445728
      ESP Fit Center 3749 is at   1.789937  0.604106  3.445728
      ESP Fit Center 3750 is at   1.381702  0.657851  3.445728
      ESP Fit Center 3751 is at   0.973468  0.604106  3.445728
      ESP Fit Center 3752 is at   0.593054  0.446534  3.445728
      ESP Fit Center 3753 is at   0.266386  0.195872  3.445728
      ESP Fit Center 3754 is at   0.015724 -0.130797  3.445728
      ESP Fit Center 3755 is at  -0.141849 -0.511210  3.445728
      ESP Fit Center 3756 is at  -0.195594 -0.919445  3.445728
      ESP Fit Center 3757 is at  -0.141849 -1.327679  3.445728
      ESP Fit Center 3758 is at   0.015724 -1.708093  3.445728
      ESP Fit Center 3759 is at   0.266386 -2.034762  3.445728
      ESP Fit Center 3760 is at   0.593054 -2.285423  3.445728
      ESP Fit Center 3761 is at   0.973468 -2.442996  3.445728
      ESP Fit Center 3762 is at   1.381702 -2.496741  3.445728
      ESP Fit Center 3763 is at   1.789937 -2.442996  3.445728
      ESP Fit Center 3764 is at   2.170351 -2.285423  3.445728
      ESP Fit Center 3765 is at   2.497019 -2.034762  3.445728
      ESP Fit Center 3766 is at   2.747681 -1.708093  3.445728
      ESP Fit Center 3767 is at   2.905254 -1.327679  3.445728
      ESP Fit Center 3768 is at   3.286186 -0.919445  3.184804
      ESP Fit Center 3769 is at   3.241660 -0.510037  3.184804
      ESP Fit Center 3770 is at   3.110165 -0.119773  3.184804
      ESP Fit Center 3771 is at   2.897849  0.233100  3.184804
      ESP Fit Center 3772 is at   2.614639  0.532080  3.184804
      ESP Fit Center 3773 is at   2.273779  0.763189  3.184804
      ESP Fit Center 3774 is at  -0.511617 -1.125356  3.184804
      ESP Fit Center 3775 is at  -0.423088 -1.527549  3.184804
      ESP Fit Center 3776 is at  -0.250168 -1.901309  3.184804
      ESP Fit Center 3777 is at  -0.000944 -2.229157  3.184804
      ESP Fit Center 3778 is at   0.312931 -2.495765  3.184804
      ESP Fit Center 3779 is at   0.676780 -2.688666  3.184804
      ESP Fit Center 3780 is at   1.073591 -2.798840  3.184804
      ESP Fit Center 3781 is at   1.484809 -2.821135  3.184804
      ESP Fit Center 3782 is at   1.891206 -2.754510  3.184804
      ESP Fit Center 3783 is at   2.273779 -2.602079  3.184804
      ESP Fit Center 3784 is at   2.614639 -2.370970  3.184804
      ESP Fit Center 3785 is at   2.897849 -2.071989  3.184804
      ESP Fit Center 3786 is at   3.110165 -1.719117  3.184804
      ESP Fit Center 3787 is at   3.241660 -1.328852  3.184804
      ESP Fit Center 3788 is at   3.570831 -0.919445  2.878030
      ESP Fit Center 3789 is at   3.531270 -0.505150  2.878030
      ESP Fit Center 3790 is at   3.414019 -0.105828  2.878030
      ESP Fit Center 3791 is at   3.223314  0.264087  2.878030
      ESP Fit Center 3792 is at  -0.564072 -1.922561  2.878030
      ESP Fit Center 3793 is at  -0.339069 -2.272674  2.878030
      ESP Fit Center 3794 is at  -0.051872 -2.573877  2.878030
      ESP Fit Center 3795 is at   0.287138 -2.815285  2.878030
      ESP Fit Center 3796 is at   0.665709 -2.988173  2.878030
      ESP Fit Center 3797 is at   1.070157 -3.086291  2.878030
      ESP Fit Center 3798 is at   1.485865 -3.106093  2.878030
      ESP Fit Center 3799 is at   1.897809 -3.046865  2.878030
      ESP Fit Center 3800 is at   2.291099 -2.910746  2.878030
      ESP Fit Center 3801 is at   2.651521 -2.702656  2.878030
      ESP Fit Center 3802 is at   2.966049 -2.430116  2.878030
      ESP Fit Center 3803 is at   3.223314 -2.102977  2.878030
      ESP Fit Center 3804 is at   3.414019 -1.733062  2.878030
      ESP Fit Center 3805 is at   3.531270 -1.333740  2.878030
      ESP Fit Center 3806 is at   3.806574 -0.919445  2.532259
      ESP Fit Center 3807 is at   3.771694 -0.509640  2.532259
      ESP Fit Center 3808 is at  -0.368948 -2.597307  2.532259
      ESP Fit Center 3809 is at  -0.060206 -2.869034  2.532259
      ESP Fit Center 3810 is at   0.290016 -3.084675  2.532259
      ESP Fit Center 3811 is at   0.671645 -3.238026  2.532259
      ESP Fit Center 3812 is at   1.073701 -3.324675  2.532259
      ESP Fit Center 3813 is at   1.484617 -3.342131  2.532259
      ESP Fit Center 3814 is at   1.892573 -3.289890  2.532259
      ESP Fit Center 3815 is at   2.285831 -3.169456  2.532259
      ESP Fit Center 3816 is at   2.653080 -2.984293  2.532259
      ESP Fit Center 3817 is at   2.983754 -2.739728  2.532259
      ESP Fit Center 3818 is at   3.268339 -2.442797  2.532259
      ESP Fit Center 3819 is at   3.498649 -2.102042  2.532259
      ESP Fit Center 3820 is at   3.668059 -1.727266  2.532259
      ESP Fit Center 3821 is at   3.771694 -1.329250  2.532259
      ESP Fit Center 3822 is at   3.988149 -0.919445  2.155214
      ESP Fit Center 3823 is at  -0.150328 -3.028104  2.155214
      ESP Fit Center 3824 is at   0.198400 -3.241806  2.155214
      ESP Fit Center 3825 is at   0.576266 -3.398323  2.155214
      ESP Fit Center 3826 is at   0.973964 -3.493802  2.155214
      ESP Fit Center 3827 is at   1.381702 -3.525891  2.155214
      ESP Fit Center 3828 is at   1.789441 -3.493802  2.155214
      ESP Fit Center 3829 is at   2.187139 -3.398323  2.155214
      ESP Fit Center 3830 is at   2.565004 -3.241806  2.155214
      ESP Fit Center 3831 is at   2.913733 -3.028104  2.155214
      ESP Fit Center 3832 is at   3.224738 -2.762481  2.155214
      ESP Fit Center 3833 is at   3.490362 -2.451476  2.155214
      ESP Fit Center 3834 is at   3.704063 -2.102747  2.155214
      ESP Fit Center 3835 is at   3.860580 -1.724881  2.155214
      ESP Fit Center 3836 is at   3.956059 -1.327183  2.155214
      ESP Fit Center 3837 is at  -0.102127 -3.210743  1.755318
      ESP Fit Center 3838 is at   0.265028 -3.410395  1.755318
      ESP Fit Center 3839 is at   0.658356 -3.551662  1.755318
      ESP Fit Center 3840 is at   1.068640 -3.631232  1.755318
      ESP Fit Center 3841 is at   1.486261 -3.647240  1.755318
      ESP Fit Center 3842 is at   1.901432 -3.599310  1.755318
      ESP Fit Center 3843 is at   2.304420 -3.488567  1.755318
      ESP Fit Center 3844 is at   2.685781 -3.317606  1.755318
      ESP Fit Center 3845 is at   3.036575 -3.090434  1.755318
      ESP Fit Center 3846 is at   3.348581 -2.812376  1.755318
      ESP Fit Center 3847 is at   3.614484 -2.489949  1.755318
      ESP Fit Center 3848 is at   3.828054 -2.130710  1.755318
      ESP Fit Center 3849 is at   3.984282 -1.743081  1.755318
      ESP Fit Center 3850 is at  -0.014383 -3.337535  1.341503
      ESP Fit Center 3851 is at   0.361608 -3.518603  1.341503
      ESP Fit Center 3852 is at   0.760386 -3.641610  1.341503
      ESP Fit Center 3853 is at   1.173043 -3.703808  1.341503
      ESP Fit Center 3854 is at   1.590362 -3.703808  1.341503
      ESP Fit Center 3855 is at   2.003019 -3.641610  1.341503
      ESP Fit Center 3856 is at   2.401797 -3.518603  1.341503
      ESP Fit Center 3857 is at   2.777788 -3.337535  1.341503
      ESP Fit Center 3858 is at   3.122592 -3.102452  1.341503
      ESP Fit Center 3859 is at   3.428508 -2.818603  1.341503
      ESP Fit Center 3860 is at   3.688702 -2.492330  1.341503
      ESP Fit Center 3861 is at   0.361608 -3.518603  0.923015
      ESP Fit Center 3862 is at   0.760386 -3.641610  0.923015
      ESP Fit Center 3863 is at   1.173043 -3.703808  0.923015
      ESP Fit Center 3864 is at   1.590362 -3.703808  0.923015
      ESP Fit Center 3865 is at   2.003019 -3.641610  0.923015
      ESP Fit Center 3866 is at   2.401797 -3.518603  0.923015
      ESP Fit Center 3867 is at   2.777788 -3.337535  0.923015
      ESP Fit Center 3868 is at   3.122592 -3.102452  0.923015
      ESP Fit Center 3869 is at   3.428508 -2.818603  0.923015
      ESP Fit Center 3870 is at   0.658356 -3.551662  0.509200
      ESP Fit Center 3871 is at   1.068640 -3.631232  0.509200
      ESP Fit Center 3872 is at   1.486261 -3.647240  0.509200
      ESP Fit Center 3873 is at   1.901432 -3.599310  0.509200
      ESP Fit Center 3874 is at   2.304420 -3.488567  0.509200
      ESP Fit Center 3875 is at   4.807039 -0.796690  0.333050
      ESP Fit Center 3876 is at   5.023494 -0.386885 -0.043995
      ESP Fit Center 3877 is at   4.991404  0.020853 -0.043995
      ESP Fit Center 3878 is at   4.895925  0.418551 -0.043995
      ESP Fit Center 3879 is at   4.260083 -2.229921 -0.043995
      ESP Fit Center 3880 is at   4.525707 -1.918916 -0.043995
      ESP Fit Center 3881 is at   4.739408 -1.570187 -0.043995
      ESP Fit Center 3882 is at   4.895925 -1.192321 -0.043995
      ESP Fit Center 3883 is at   4.991404 -0.794623 -0.043995
      ESP Fit Center 3884 is at   5.146845 -0.386885 -0.443891
      ESP Fit Center 3885 is at   5.114853  0.029817 -0.443891
      ESP Fit Center 3886 is at   5.019627  0.436751 -0.443891
      ESP Fit Center 3887 is at   4.863398  0.824381 -0.443891
      ESP Fit Center 3888 is at   4.649829  1.183619 -0.443891
      ESP Fit Center 3889 is at   3.721126 -2.785046 -0.443891
      ESP Fit Center 3890 is at   4.071920 -2.557874 -0.443891
      ESP Fit Center 3891 is at   4.383926 -2.279816 -0.443891
      ESP Fit Center 3892 is at   4.649829 -1.957389 -0.443891
      ESP Fit Center 3893 is at   4.863398 -1.598150 -0.443891
      ESP Fit Center 3894 is at   5.019627 -1.210521 -0.443891
      ESP Fit Center 3895 is at   5.114853 -0.803587 -0.443891
      ESP Fit Center 3896 is at   5.209218 -0.386885 -0.857705
      ESP Fit Center 3897 is at   5.178032  0.029267 -0.857705
      ESP Fit Center 3898 is at   5.085170  0.436122 -0.857705
      ESP Fit Center 3899 is at   4.932706  0.824593 -0.857705
      ESP Fit Center 3900 is at   4.724047  1.186001 -0.857705
      ESP Fit Center 3901 is at   4.463853  1.512273 -0.857705
      ESP Fit Center 3902 is at   3.437142 -2.986043 -0.857705
      ESP Fit Center 3903 is at   3.813133 -2.804976 -0.857705
      ESP Fit Center 3904 is at   4.157937 -2.569892 -0.857705
      ESP Fit Center 3905 is at   4.463853 -2.286043 -0.857705
      ESP Fit Center 3906 is at   4.724047 -1.959771 -0.857705
      ESP Fit Center 3907 is at   4.932706 -1.598362 -0.857705
      ESP Fit Center 3908 is at   5.085170 -1.209892 -0.857705
      ESP Fit Center 3909 is at   5.178032 -0.803036 -0.857705
      ESP Fit Center 3910 is at   5.209218 -0.386885 -1.276194
      ESP Fit Center 3911 is at   5.178032  0.029267 -1.276194
      ESP Fit Center 3912 is at   5.085170  0.436122 -1.276194
      ESP Fit Center 3913 is at   4.932706  0.824593 -1.276194
      ESP Fit Center 3914 is at   4.724047  1.186001 -1.276194
      ESP Fit Center 3915 is at   4.463853  1.512273 -1.276194
      ESP Fit Center 3916 is at   4.157937  1.796122 -1.276194
      ESP Fit Center 3917 is at   3.038364 -3.109050 -1.276194
      ESP Fit Center 3918 is at   3.437142 -2.986043 -1.276194
      ESP Fit Center 3919 is at   3.813133 -2.804976 -1.276194
      ESP Fit Center 3920 is at   4.157937 -2.569892 -1.276194
      ESP Fit Center 3921 is at   4.463853 -2.286043 -1.276194
      ESP Fit Center 3922 is at   4.724047 -1.959771 -1.276194
      ESP Fit Center 3923 is at   4.932706 -1.598362 -1.276194
      ESP Fit Center 3924 is at   5.085170 -1.209892 -1.276194
      ESP Fit Center 3925 is at   5.178032 -0.803036 -1.276194
      ESP Fit Center 3926 is at   5.146845 -0.386885 -1.690008
      ESP Fit Center 3927 is at   5.114853  0.029817 -1.690008
      ESP Fit Center 3928 is at   5.019627  0.436751 -1.690008
      ESP Fit Center 3929 is at   4.863398  0.824381 -1.690008
      ESP Fit Center 3930 is at   4.649829  1.183619 -1.690008
      ESP Fit Center 3931 is at   4.383926  1.506046 -1.690008
      ESP Fit Center 3932 is at   4.071920  1.784104 -1.690008
      ESP Fit Center 3933 is at   3.721126  2.011276 -1.690008
      ESP Fit Center 3934 is at   2.521606 -3.114680 -1.690008
      ESP Fit Center 3935 is at   2.936777 -3.066750 -1.690008
      ESP Fit Center 3936 is at   3.339765 -2.956007 -1.690008
      ESP Fit Center 3937 is at   3.721126 -2.785046 -1.690008
      ESP Fit Center 3938 is at   4.071920 -2.557874 -1.690008
      ESP Fit Center 3939 is at   4.383926 -2.279816 -1.690008
      ESP Fit Center 3940 is at   4.649829 -1.957389 -1.690008
      ESP Fit Center 3941 is at   4.863398 -1.598150 -1.690008
      ESP Fit Center 3942 is at   5.019627 -1.210521 -1.690008
      ESP Fit Center 3943 is at   5.114853 -0.803587 -1.690008
      ESP Fit Center 3944 is at   5.023494 -0.386885 -2.089904
      ESP Fit Center 3945 is at   4.991404  0.020853 -2.089904
      ESP Fit Center 3946 is at   4.895925  0.418551 -2.089904
      ESP Fit Center 3947 is at   4.739408  0.796417 -2.089904
      ESP Fit Center 3948 is at   4.525707  1.145146 -2.089904
      ESP Fit Center 3949 is at   4.260083  1.456151 -2.089904
      ESP Fit Center 3950 is at   3.949078  1.721775 -2.089904
      ESP Fit Center 3951 is at   3.600349  1.935476 -2.089904
      ESP Fit Center 3952 is at   3.222483  2.091993 -2.089904
      ESP Fit Center 3953 is at   2.009309 -2.961242 -2.089904
      ESP Fit Center 3954 is at   2.417047 -2.993331 -2.089904
      ESP Fit Center 3955 is at   2.824785 -2.961242 -2.089904
      ESP Fit Center 3956 is at   3.222483 -2.865763 -2.089904
      ESP Fit Center 3957 is at   3.600349 -2.709246 -2.089904
      ESP Fit Center 3958 is at   3.949078 -2.495544 -2.089904
      ESP Fit Center 3959 is at   4.260083 -2.229921 -2.089904
      ESP Fit Center 3960 is at   4.525707 -1.918916 -2.089904
      ESP Fit Center 3961 is at   4.739408 -1.570187 -2.089904
      ESP Fit Center 3962 is at   4.895925 -1.192321 -2.089904
      ESP Fit Center 3963 is at   4.991404 -0.794623 -2.089904
      ESP Fit Center 3964 is at   4.841918 -0.386885 -2.466950
      ESP Fit Center 3965 is at   4.807039  0.022920 -2.466950
      ESP Fit Center 3966 is at   4.703404  0.420936 -2.466950
      ESP Fit Center 3967 is at   4.533994  0.795712 -2.466950
      ESP Fit Center 3968 is at   4.303684  1.136468 -2.466950
      ESP Fit Center 3969 is at   4.019098  1.433399 -2.466950
      ESP Fit Center 3970 is at   3.688425  1.677964 -2.466950
      ESP Fit Center 3971 is at   3.321176  1.863126 -2.466950
      ESP Fit Center 3972 is at   2.927917  1.983561 -2.466950
      ESP Fit Center 3973 is at   1.706990 -2.705466 -2.466950
      ESP Fit Center 3974 is at   2.109045 -2.792116 -2.466950
      ESP Fit Center 3975 is at   2.519962 -2.809571 -2.466950
      ESP Fit Center 3976 is at   2.927917 -2.757330 -2.466950
      ESP Fit Center 3977 is at   3.321176 -2.636896 -2.466950
      ESP Fit Center 3978 is at   3.688425 -2.451733 -2.466950
      ESP Fit Center 3979 is at   4.019098 -2.207169 -2.466950
      ESP Fit Center 3980 is at   4.303684 -1.910237 -2.466950
      ESP Fit Center 3981 is at   4.533994 -1.569482 -2.466950
      ESP Fit Center 3982 is at   4.703404 -1.194706 -2.466950
      ESP Fit Center 3983 is at   4.807039 -0.796690 -2.466950
      ESP Fit Center 3984 is at   4.606175 -0.386885 -2.812721
      ESP Fit Center 3985 is at   4.566615  0.027410 -2.812721
      ESP Fit Center 3986 is at   4.449364  0.426732 -2.812721
      ESP Fit Center 3987 is at   4.258659  0.796647 -2.812721
      ESP Fit Center 3988 is at   4.001394  1.123786 -2.812721
      ESP Fit Center 3989 is at   3.686866  1.396326 -2.812721
      ESP Fit Center 3990 is at   3.326444  1.604416 -2.812721
      ESP Fit Center 3991 is at   2.933154  1.740535 -2.812721
      ESP Fit Center 3992 is at   2.521210  1.799764 -2.812721
      ESP Fit Center 3993 is at   1.701054 -2.455613 -2.812721
      ESP Fit Center 3994 is at   2.105502 -2.553731 -2.812721
      ESP Fit Center 3995 is at   2.521210 -2.573534 -2.812721
      ESP Fit Center 3996 is at   2.933154 -2.514305 -2.812721
      ESP Fit Center 3997 is at   3.326444 -2.378186 -2.812721
      ESP Fit Center 3998 is at   3.686866 -2.170096 -2.812721
      ESP Fit Center 3999 is at   4.001394 -1.897556 -2.812721
      ESP Fit Center 4000 is at   4.258659 -1.570417 -2.812721
      ESP Fit Center 4001 is at   4.449364 -1.200502 -2.812721
      ESP Fit Center 4002 is at   4.566615 -0.801180 -2.812721
      ESP Fit Center 4003 is at   4.321531 -0.386885 -3.119495
      ESP Fit Center 4004 is at   4.277005  0.022523 -3.119495
      ESP Fit Center 4005 is at   4.145510  0.412787 -3.119495
      ESP Fit Center 4006 is at   3.933193  0.765660 -3.119495
      ESP Fit Center 4007 is at   3.649984  1.064640 -3.119495
      ESP Fit Center 4008 is at   3.309123  1.295749 -3.119495
      ESP Fit Center 4009 is at   2.926551  1.448180 -3.119495
      ESP Fit Center 4010 is at   2.520154  1.514806 -3.119495
      ESP Fit Center 4011 is at   2.108936  1.492510 -3.119495
      ESP Fit Center 4012 is at   1.348276 -1.963205 -3.119495
      ESP Fit Center 4013 is at   1.712125 -2.156106 -3.119495
      ESP Fit Center 4014 is at   2.108936 -2.266280 -3.119495
      ESP Fit Center 4015 is at   2.520154 -2.288575 -3.119495
      ESP Fit Center 4016 is at   2.926551 -2.221950 -3.119495
      ESP Fit Center 4017 is at   3.309123 -2.069519 -3.119495
      ESP Fit Center 4018 is at   3.649984 -1.838410 -3.119495
      ESP Fit Center 4019 is at   3.933193 -1.539429 -3.119495
      ESP Fit Center 4020 is at   4.145510 -1.186557 -3.119495
      ESP Fit Center 4021 is at   4.277005 -0.796293 -3.119495
      ESP Fit Center 4022 is at   3.994343 -0.386885 -3.380418
      ESP Fit Center 4023 is at   3.940598  0.021349 -3.380418
      ESP Fit Center 4024 is at   3.783026  0.401763 -3.380418
      ESP Fit Center 4025 is at   3.532364  0.728432 -3.380418
      ESP Fit Center 4026 is at   3.205695  0.979094 -3.380418
      ESP Fit Center 4027 is at   2.825282  1.136666 -3.380418
      ESP Fit Center 4028 is at   2.417047  1.190411 -3.380418
      ESP Fit Center 4029 is at   2.008813  1.136666 -3.380418
      ESP Fit Center 4030 is at   1.301730 -1.502202 -3.380418
      ESP Fit Center 4031 is at   1.628399 -1.752863 -3.380418
      ESP Fit Center 4032 is at   2.008813 -1.910436 -3.380418
      ESP Fit Center 4033 is at   2.417047 -1.964181 -3.380418
      ESP Fit Center 4034 is at   2.825282 -1.910436 -3.380418
      ESP Fit Center 4035 is at   3.205695 -1.752863 -3.380418
      ESP Fit Center 4036 is at   3.532364 -1.502202 -3.380418
      ESP Fit Center 4037 is at   3.783026 -1.175533 -3.380418
      ESP Fit Center 4038 is at   3.940598 -0.795119 -3.380418
      ESP Fit Center 4039 is at   3.631922 -0.386885 -3.589662
      ESP Fit Center 4040 is at   3.558656  0.028627 -3.589662
      ESP Fit Center 4041 is at   3.347695  0.394021 -3.589662
      ESP Fit Center 4042 is at   3.024484  0.665227 -3.589662
      ESP Fit Center 4043 is at   2.628008  0.809533 -3.589662
      ESP Fit Center 4044 is at   2.206086  0.809533 -3.589662
      ESP Fit Center 4045 is at   1.809610  0.665227 -3.589662
      ESP Fit Center 4046 is at   1.486399  0.394021 -3.589662
      ESP Fit Center 4047 is at   1.275439  0.028627 -3.589662
      ESP Fit Center 4048 is at   1.202173 -0.386885 -3.589662
      ESP Fit Center 4049 is at   1.275439 -0.802396 -3.589662
      ESP Fit Center 4050 is at   1.486399 -1.167791 -3.589662
      ESP Fit Center 4051 is at   1.809610 -1.438997 -3.589662
      ESP Fit Center 4052 is at   2.206086 -1.583303 -3.589662
      ESP Fit Center 4053 is at   2.628008 -1.583303 -3.589662
      ESP Fit Center 4054 is at   3.024484 -1.438997 -3.589662
      ESP Fit Center 4055 is at   3.347695 -1.167791 -3.589662
      ESP Fit Center 4056 is at   3.558656 -0.802396 -3.589662
      ESP Fit Center 4057 is at   3.242362 -0.386885 -3.742553
      ESP Fit Center 4058 is at   3.131791  0.025772 -3.742553
      ESP Fit Center 4059 is at   2.829704  0.327858 -3.742553
      ESP Fit Center 4060 is at   2.417047  0.438430 -3.742553
      ESP Fit Center 4061 is at   2.004390  0.327858 -3.742553
      ESP Fit Center 4062 is at   1.702304  0.025772 -3.742553
      ESP Fit Center 4063 is at   1.591733 -0.386885 -3.742553
      ESP Fit Center 4064 is at   1.702304 -0.799542 -3.742553
      ESP Fit Center 4065 is at   2.004390 -1.101628 -3.742553
      ESP Fit Center 4066 is at   2.417047 -1.212199 -3.742553
      ESP Fit Center 4067 is at   2.829704 -1.101628 -3.742553
      ESP Fit Center 4068 is at   3.131791 -0.799542 -3.742553
      ESP Fit Center 4069 is at   2.834366 -0.386885 -3.835676
      ESP Fit Center 4070 is at   2.625706 -0.025477 -3.835676
      ESP Fit Center 4071 is at   2.208388 -0.025477 -3.835676
      ESP Fit Center 4072 is at   1.999729 -0.386885 -3.835676
      ESP Fit Center 4073 is at   2.208388 -0.748293 -3.835676
      ESP Fit Center 4074 is at   2.625706 -0.748293 -3.835676
      ESP Fit Center 4075 is at   2.417047 -0.386885 -3.866950
      ESP Fit Center 4076 is at  -0.307024 -2.920961 -1.446620
      ESP Fit Center 4077 is at   0.309171  2.810025 -1.840890
      ESP Fit Center 4078 is at  -0.513445 -2.779561 -1.840890
      ESP Fit Center 4079 is at  -0.103237 -2.824696 -1.840890
      ESP Fit Center 4080 is at   0.416690  2.631062 -2.216447
      ESP Fit Center 4081 is at   0.000003  2.663856 -2.216447
      ESP Fit Center 4082 is at  -0.416685 -2.630661 -2.216447
      ESP Fit Center 4083 is at   0.000003 -2.663455 -2.216447
      ESP Fit Center 4084 is at   0.913840  2.274373 -2.566293
      ESP Fit Center 4085 is at   0.516358  2.396100 -2.566293
      ESP Fit Center 4086 is at   0.104022  2.448902 -2.566293
      ESP Fit Center 4087 is at  -0.311307  2.431259 -2.566293
      ESP Fit Center 4088 is at  -0.717680 -2.343278 -2.566293
      ESP Fit Center 4089 is at  -0.311307 -2.430858 -2.566293
      ESP Fit Center 4090 is at   0.104022 -2.448501 -2.566293
      ESP Fit Center 4091 is at   0.910803  1.994576 -2.883911
      ESP Fit Center 4092 is at   0.516906  2.130905 -2.883911
      ESP Fit Center 4093 is at   0.104326  2.190225 -2.883911
      ESP Fit Center 4094 is at  -0.312024  2.170392 -2.883911
      ESP Fit Center 4095 is at  -0.717096 -2.071721 -2.883911
      ESP Fit Center 4096 is at  -0.312024 -2.169991 -2.883911
      ESP Fit Center 4097 is at   0.104326 -2.189824 -2.883911
      ESP Fit Center 4098 is at   0.516906 -2.130504 -2.883911
      ESP Fit Center 4099 is at   0.886823  1.672922 -3.163385
      ESP Fit Center 4100 is at   0.506504  1.824455 -3.163385
      ESP Fit Center 4101 is at   0.102502  1.890688 -3.163385
      ESP Fit Center 4102 is at  -0.306293  1.868524 -3.163385
      ESP Fit Center 4103 is at  -0.700767  1.758999 -3.163385
      ESP Fit Center 4104 is at  -1.062473 -1.566833 -3.163385
      ESP Fit Center 4105 is at  -0.700767 -1.758597 -3.163385
      ESP Fit Center 4106 is at  -0.306293 -1.868122 -3.163385
      ESP Fit Center 4107 is at   0.102502 -1.890287 -3.163385
      ESP Fit Center 4108 is at   0.506504 -1.824054 -3.163385
      ESP Fit Center 4109 is at   1.063934  1.139393 -3.399510
      ESP Fit Center 4110 is at   0.717130  1.384193 -3.399510
      ESP Fit Center 4111 is at   0.317140  1.526350 -3.399510
      ESP Fit Center 4112 is at  -0.106370  1.555319 -3.399510
      ESP Fit Center 4113 is at  -0.521992  1.468952 -3.399510
      ESP Fit Center 4114 is at  -0.898899  1.273654 -3.399510
      ESP Fit Center 4115 is at  -1.209139 -0.983509 -3.399510
      ESP Fit Center 4116 is at  -0.898899 -1.273253 -3.399510
      ESP Fit Center 4117 is at  -0.521992 -1.468550 -3.399510
      ESP Fit Center 4118 is at  -0.106370 -1.554917 -3.399510
      ESP Fit Center 4119 is at   0.317140 -1.525949 -3.399510
      ESP Fit Center 4120 is at   0.717130 -1.383792 -3.399510
      ESP Fit Center 4121 is at   1.195206  0.000201 -3.587886
      ESP Fit Center 4122 is at   1.123126  0.408984 -3.587886
      ESP Fit Center 4123 is at   0.915581  0.768462 -3.587886
      ESP Fit Center 4124 is at   0.597604  1.035277 -3.587886
      ESP Fit Center 4125 is at   0.207547  1.177246 -3.587886
      ESP Fit Center 4126 is at  -0.207542  1.177246 -3.587886
      ESP Fit Center 4127 is at  -0.597599  1.035277 -3.587886
      ESP Fit Center 4128 is at  -0.915576  0.768462 -3.587886
      ESP Fit Center 4129 is at  -1.123121  0.408984 -3.587886
      ESP Fit Center 4130 is at  -1.195201  0.000201 -3.587886
      ESP Fit Center 4131 is at  -1.123121 -0.408583 -3.587886
      ESP Fit Center 4132 is at  -0.915576 -0.768061 -3.587886
      ESP Fit Center 4133 is at  -0.597599 -1.034876 -3.587886
      ESP Fit Center 4134 is at  -0.207542 -1.176845 -3.587886
      ESP Fit Center 4135 is at   0.207547 -1.176845 -3.587886
      ESP Fit Center 4136 is at   0.597604 -1.034876 -3.587886
      ESP Fit Center 4137 is at   0.915581 -0.768061 -3.587886
      ESP Fit Center 4138 is at   1.123126 -0.408583 -3.587886
      ESP Fit Center 4139 is at   0.809393  0.000201 -3.725003
      ESP Fit Center 4140 is at   0.700955  0.404896 -3.725003
      ESP Fit Center 4141 is at   0.404698  0.701153 -3.725003
      ESP Fit Center 4142 is at   0.000003  0.809591 -3.725003
      ESP Fit Center 4143 is at  -0.404693  0.701153 -3.725003
      ESP Fit Center 4144 is at  -0.700950  0.404896 -3.725003
      ESP Fit Center 4145 is at  -0.809388  0.000201 -3.725003
      ESP Fit Center 4146 is at  -0.700950 -0.404495 -3.725003
      ESP Fit Center 4147 is at  -0.404693 -0.700752 -3.725003
      ESP Fit Center 4148 is at   0.000003 -0.809190 -3.725003
      ESP Fit Center 4149 is at   0.404698 -0.700752 -3.725003
      ESP Fit Center 4150 is at   0.700955 -0.404495 -3.725003
      ESP Fit Center 4151 is at   0.408503  0.000201 -3.808309
      ESP Fit Center 4152 is at   0.204253  0.353972 -3.808309
      ESP Fit Center 4153 is at  -0.204247  0.353972 -3.808309
      ESP Fit Center 4154 is at  -0.408497  0.000201 -3.808309
      ESP Fit Center 4155 is at  -0.204247 -0.353571 -3.808309
      ESP Fit Center 4156 is at   0.204253 -0.353571 -3.808309
      ESP Fit Center 4157 is at   0.000003  0.000201 -3.836252
      ESP Fit Center 4158 is at  -2.012025 -0.923405  3.185420
      ESP Fit Center 4159 is at  -1.606984 -1.070827  3.185420
      ESP Fit Center 4160 is at  -1.175949 -1.070827  3.185420
      ESP Fit Center 4161 is at  -0.770908 -0.923405  3.185420
      ESP Fit Center 4162 is at  -2.800084 -0.661831  3.011959
      ESP Fit Center 4163 is at  -2.541597 -0.998697  3.011959
      ESP Fit Center 4164 is at  -3.336245 -0.261941  2.793306
      ESP Fit Center 4165 is at  -3.207802 -0.657250  2.793306
      ESP Fit Center 4166 is at  -2.999975 -1.017216  2.793306
      ESP Fit Center 4167 is at  -3.703052 -0.056612  2.532650
      ESP Fit Center 4168 is at  -3.628756 -0.466018  2.532650
      ESP Fit Center 4169 is at  -3.482551 -0.855579  2.532650
      ESP Fit Center 4170 is at  -4.002759  0.362240  2.233792
      ESP Fit Center 4171 is at  -4.002759 -0.059371  2.233792
      ESP Fit Center 4172 is at  -3.935128 -0.475522  2.233792
      ESP Fit Center 4173 is at  -3.801617 -0.875435  2.233792
      ESP Fit Center 4174 is at  -4.081847  1.180418  1.901089
      ESP Fit Center 4175 is at  -4.202998  0.777730  1.901089
      ESP Fit Center 4176 is at  -4.264226  0.361693  1.901089
      ESP Fit Center 4177 is at  -4.264226 -0.058824  1.901089
      ESP Fit Center 4178 is at  -4.202998 -0.474861  1.901089
      ESP Fit Center 4179 is at  -4.081847 -0.877549  1.901089
      ESP Fit Center 4180 is at  -4.039394  1.761675  1.539394
      ESP Fit Center 4181 is at  -4.233992  1.386118  1.539394
      ESP Fit Center 4182 is at  -4.375639  0.987561  1.539394
      ESP Fit Center 4183 is at  -4.461697  0.573428  1.539394
      ESP Fit Center 4184 is at  -4.490562  0.151434  1.539394
      ESP Fit Center 4185 is at  -4.461697 -0.270559  1.539394
      ESP Fit Center 4186 is at  -4.375639 -0.684692  1.539394
      ESP Fit Center 4187 is at  -4.233992 -1.083249  1.539394
      ESP Fit Center 4188 is at  -3.883341  2.272799  1.153980
      ESP Fit Center 4189 is at  -4.134157  1.936728  1.153980
      ESP Fit Center 4190 is at  -4.339938  1.571344  1.153980
      ESP Fit Center 4191 is at  -4.497305  1.182644  1.153980
      ESP Fit Center 4192 is at  -4.603674  0.777012  1.153980
      ESP Fit Center 4193 is at  -4.657299  0.361108  1.153980
      ESP Fit Center 4194 is at  -4.657299 -0.058239  1.153980
      ESP Fit Center 4195 is at  -4.603674 -0.474143  1.153980
      ESP Fit Center 4196 is at  -4.497305 -0.879775  1.153980
      ESP Fit Center 4197 is at  -4.339938 -1.268475  1.153980
      ESP Fit Center 4198 is at  -3.439397  2.863333  0.750468
      ESP Fit Center 4199 is at  -3.757136  2.591112  0.750468
      ESP Fit Center 4200 is at  -4.039013  2.281907  0.750468
      ESP Fit Center 4201 is at  -4.280756  1.940407  0.750468
      ESP Fit Center 4202 is at  -4.478700  1.571788  0.750468
      ESP Fit Center 4203 is at  -4.629846  1.181637  0.750468
      ESP Fit Center 4204 is at  -4.731900  0.775870  0.750468
      ESP Fit Center 4205 is at  -4.783317  0.360637  0.750468
      ESP Fit Center 4206 is at  -4.783317 -0.057768  0.750468
      ESP Fit Center 4207 is at  -4.731900 -0.473001  0.750468
      ESP Fit Center 4208 is at  -4.629846 -0.878768  0.750468
      ESP Fit Center 4209 is at  -4.478700 -1.268919  0.750468
      ESP Fit Center 4210 is at  -0.159398  3.400131  0.334741
      ESP Fit Center 4211 is at  -0.559969  3.524953  0.334741
      ESP Fit Center 4212 is at  -0.972664  3.600583  0.334741
      ESP Fit Center 4213 is at  -1.391466  3.625915  0.334741
      ESP Fit Center 4214 is at  -1.810269  3.600583  0.334741
      ESP Fit Center 4215 is at  -2.222964  3.524953  0.334741
      ESP Fit Center 4216 is at  -2.623534  3.400131  0.334741
      ESP Fit Center 4217 is at  -3.006138  3.227935  0.334741
      ESP Fit Center 4218 is at  -3.365196  3.010876  0.334741
      ESP Fit Center 4219 is at  -3.695473  2.752121  0.334741
      ESP Fit Center 4220 is at  -3.992153  2.455442  0.334741
      ESP Fit Center 4221 is at  -4.250908  2.125165  0.334741
      ESP Fit Center 4222 is at  -4.467966  1.766106  0.334741
      ESP Fit Center 4223 is at  -4.640162  1.383502  0.334741
      ESP Fit Center 4224 is at  -4.840614  0.570237  0.334741
      ESP Fit Center 4225 is at  -4.865947  0.151434  0.334741
      ESP Fit Center 4226 is at  -4.840614 -0.267368  0.334741
      ESP Fit Center 4227 is at  -4.764985 -0.680063  0.334741
      ESP Fit Center 4228 is at  -4.640162 -1.080634  0.334741
      ESP Fit Center 4229 is at  -4.467966 -1.463237  0.334741
      ESP Fit Center 4230 is at  -0.076070  3.394848 -0.087137
      ESP Fit Center 4231 is at  -0.468911  3.527659 -0.087137
      ESP Fit Center 4232 is at  -0.874703  3.613075 -0.087137
      ESP Fit Center 4233 is at  -1.287750  3.649897 -0.087137
      ESP Fit Center 4234 is at  -1.702252  3.637609 -0.087137
      ESP Fit Center 4235 is at  -2.112391  3.576382 -0.087137
      ESP Fit Center 4236 is at  -2.512411  3.467077 -0.087137
      ESP Fit Center 4237 is at  -2.896694  3.311227 -0.087137
      ESP Fit Center 4238 is at  -3.259848  3.111020 -0.087137
      ESP Fit Center 4239 is at  -3.596774  2.869268 -0.087137
      ESP Fit Center 4240 is at  -3.902742  2.589363 -0.087137
      ESP Fit Center 4241 is at  -4.738870 -0.870764 -0.087137
      ESP Fit Center 4242 is at  -4.594476 -1.259498 -0.087137
      ESP Fit Center 4243 is at  -4.405119 -1.628424 -0.087137
      ESP Fit Center 4244 is at  -0.159398  3.400131 -0.509016
      ESP Fit Center 4245 is at  -0.559969  3.524953 -0.509016
      ESP Fit Center 4246 is at  -0.972664  3.600583 -0.509016
      ESP Fit Center 4247 is at  -1.391466  3.625915 -0.509016
      ESP Fit Center 4248 is at  -1.810269  3.600583 -0.509016
      ESP Fit Center 4249 is at  -2.222964  3.524953 -0.509016
      ESP Fit Center 4250 is at  -2.623534  3.400131 -0.509016
      ESP Fit Center 4251 is at  -3.006138  3.227935 -0.509016
      ESP Fit Center 4252 is at  -3.365196  3.010876 -0.509016
      ESP Fit Center 4253 is at  -4.467966 -1.463237 -0.509016
      ESP Fit Center 4254 is at  -4.250908 -1.822296 -0.509016
      ESP Fit Center 4255 is at   0.123285  3.193465 -0.924742
      ESP Fit Center 4256 is at  -0.262026  3.356553 -0.924742
      ESP Fit Center 4257 is at  -0.664458  3.471054 -0.924742
      ESP Fit Center 4258 is at  -1.077911  3.535234 -0.924742
      ESP Fit Center 4259 is at  -1.496117  3.548119 -0.924742
      ESP Fit Center 4260 is at  -1.912737  3.509514 -0.924742
      ESP Fit Center 4261 is at  -2.321454  3.420003 -0.924742
      ESP Fit Center 4262 is at  -2.716074  3.280944 -0.924742
      ESP Fit Center 4263 is at  -4.039013 -1.979038 -0.924742
      ESP Fit Center 4264 is at   0.305003  2.949938 -1.328254
      ESP Fit Center 4265 is at  -0.066790  3.143902 -1.328254
      ESP Fit Center 4266 is at  -0.460334  3.288729 -1.328254
      ESP Fit Center 4267 is at  -0.869167  3.382043 -1.328254
      ESP Fit Center 4268 is at  -1.286576  3.422310 -1.328254
      ESP Fit Center 4269 is at  -1.705707  3.408869 -1.328254
      ESP Fit Center 4270 is at  -2.119679  3.341941 -1.328254
      ESP Fit Center 4271 is at  -2.521693  3.222626 -1.328254
      ESP Fit Center 4272 is at  -3.591609 -2.271167 -1.328254
      ESP Fit Center 4273 is at   0.034320  2.903076 -1.713668
      ESP Fit Center 4274 is at  -0.353642  3.071592 -1.713668
      ESP Fit Center 4275 is at  -0.760937  3.185710 -1.713668
      ESP Fit Center 4276 is at  -1.179976  3.243306 -1.713668
      ESP Fit Center 4277 is at  -1.602956  3.243306 -1.713668
      ESP Fit Center 4278 is at  -2.021996  3.185710 -1.713668
      ESP Fit Center 4279 is at  -3.178654 -2.380434 -1.713668
      ESP Fit Center 4280 is at  -2.817252 -2.600207 -1.713668
      ESP Fit Center 4281 is at  -0.760937 -2.882841 -1.713668
      ESP Fit Center 4282 is at  -0.264911  2.802440 -2.075364
      ESP Fit Center 4283 is at  -0.662906  2.938217 -2.075364
      ESP Fit Center 4284 is at  -1.076429  3.014598 -2.075364
      ESP Fit Center 4285 is at  -1.496666  3.029956 -2.075364
      ESP Fit Center 4286 is at  -1.914661  2.983964 -2.075364
      ESP Fit Center 4287 is at  -3.067478 -2.191201 -2.075364
      ESP Fit Center 4288 is at  -2.708527 -2.410265 -2.075364
      ESP Fit Center 4289 is at  -2.321505 -2.574732 -2.075364
      ESP Fit Center 4290 is at  -1.914661 -2.681095 -2.075364
      ESP Fit Center 4291 is at  -1.496666 -2.727087 -2.075364
      ESP Fit Center 4292 is at  -1.076429 -2.711729 -2.075364
      ESP Fit Center 4293 is at  -0.662596  2.667788 -2.408066
      ESP Fit Center 4294 is at  -1.075686  2.752121 -2.408066
      ESP Fit Center 4295 is at  -1.496954  2.769097 -2.408066
      ESP Fit Center 4296 is at  -2.701360 -2.117368 -2.408066
      ESP Fit Center 4297 is at  -2.320456 -2.298110 -2.408066
      ESP Fit Center 4298 is at  -1.915491 -2.415409 -2.408066
      ESP Fit Center 4299 is at  -1.496954 -2.466229 -2.408066
      ESP Fit Center 4300 is at  -1.075686 -2.449252 -2.408066
      ESP Fit Center 4301 is at  -0.674260  2.358769 -2.706925
      ESP Fit Center 4302 is at  -1.079920  2.451359 -2.706925
      ESP Fit Center 4303 is at  -1.495594  2.470027 -2.706925
      ESP Fit Center 4304 is at  -2.303650 -1.982725 -2.706925
      ESP Fit Center 4305 is at  -1.907922 -2.111304 -2.706925
      ESP Fit Center 4306 is at  -1.495594 -2.167158 -2.706925
      ESP Fit Center 4307 is at  -1.079920 -2.148490 -2.706925
      ESP Fit Center 4308 is at  -0.777070  2.042350 -2.967581
      ESP Fit Center 4309 is at  -1.183640  2.128769 -2.967581
      ESP Fit Center 4310 is at  -2.005862 -1.739481 -2.967581
      ESP Fit Center 4311 is at  -1.599293 -1.825900 -2.967581
      ESP Fit Center 4312 is at  -1.183640 -1.825900 -2.967581
      ESP Fit Center 4313 is at  -0.970489  1.722543 -3.186233
      ESP Fit Center 4314 is at  -1.812443 -1.419674 -3.186233
      ESP Fit Center 4315 is at  -1.391466 -1.475097 -3.186233
      ESP Fit Center 4316 is at  -1.606984 -1.070827 -3.359694
      ESP Fit Center 4317 is at  -1.391466 -0.686170 -3.485434
      ESP Fit Center 4318 is at  -1.688962 -1.380514  3.124426
      ESP Fit Center 4319 is at  -1.266589 -1.380514  3.091185
      ESP Fit Center 4320 is at  -2.111335 -1.380514  3.091185
      ESP Fit Center 4321 is at  -1.900149 -1.746300  3.091185
      ESP Fit Center 4322 is at  -1.477776 -1.746300  3.091185
      ESP Fit Center 4323 is at  -2.523308 -1.380514  2.992279
      ESP Fit Center 4324 is at  -2.411527 -1.797687  2.992279
      ESP Fit Center 4325 is at  -2.106135 -2.103079  2.992279
      ESP Fit Center 4326 is at  -1.688962 -2.214860  2.992279
      ESP Fit Center 4327 is at  -1.271789 -2.103079  2.992279
      ESP Fit Center 4328 is at  -0.966397 -1.797687  2.992279
      ESP Fit Center 4329 is at  -2.914736 -1.380514  2.830144
      ESP Fit Center 4330 is at  -2.840813 -1.799754  2.830144
      ESP Fit Center 4331 is at  -2.627960 -2.168427  2.830144
      ESP Fit Center 4332 is at  -2.301849 -2.442066  2.830144
      ESP Fit Center 4333 is at  -1.901816 -2.587666  2.830144
      ESP Fit Center 4334 is at  -1.476109 -2.587666  2.830144
      ESP Fit Center 4335 is at  -1.076075 -2.442066  2.830144
      ESP Fit Center 4336 is at  -0.749964 -2.168427  2.830144
      ESP Fit Center 4337 is at  -3.275982 -1.380514  2.608772
      ESP Fit Center 4338 is at  -3.221906 -1.791265  2.608772
      ESP Fit Center 4339 is at  -3.063362 -2.174024  2.608772
      ESP Fit Center 4340 is at  -2.811155 -2.502707  2.608772
      ESP Fit Center 4341 is at  -2.482472 -2.754914  2.608772
      ESP Fit Center 4342 is at  -2.099713 -2.913458  2.608772
      ESP Fit Center 4343 is at  -1.688962 -2.967534  2.608772
      ESP Fit Center 4344 is at  -1.278211 -2.913458  2.608772
      ESP Fit Center 4345 is at  -0.895452 -2.754914  2.608772
      ESP Fit Center 4346 is at  -0.566769 -2.502707  2.608772
      ESP Fit Center 4347 is at  -3.598150 -1.380514  2.333615
      ESP Fit Center 4348 is at  -3.550283 -1.805348  2.333615
      ESP Fit Center 4349 is at  -3.409081 -2.208880  2.333615
      ESP Fit Center 4350 is at  -3.181626 -2.570874  2.333615
      ESP Fit Center 4351 is at  -2.879322 -2.873178  2.333615
      ESP Fit Center 4352 is at  -2.517328 -3.100633  2.333615
      ESP Fit Center 4353 is at  -2.113796 -3.241835  2.333615
      ESP Fit Center 4354 is at  -1.688962 -3.289702  2.333615
      ESP Fit Center 4355 is at  -1.264128 -3.241835  2.333615
      ESP Fit Center 4356 is at  -0.860596 -3.100633  2.333615
      ESP Fit Center 4357 is at  -0.498603 -2.873178  2.333615
      ESP Fit Center 4358 is at  -3.863417 -1.172879  2.011447
      ESP Fit Center 4359 is at  -3.863417 -1.588149  2.011447
      ESP Fit Center 4360 is at  -3.784827 -1.995915  2.011447
      ESP Fit Center 4361 is at  -3.630486 -2.381439  2.011447
      ESP Fit Center 4362 is at  -3.405974 -2.730787  2.011447
      ESP Fit Center 4363 is at  -3.119404 -3.031333  2.011447
      ESP Fit Center 4364 is at  -2.781135 -3.272213  2.011447
      ESP Fit Center 4365 is at  -2.403392 -3.444723  2.011447
      ESP Fit Center 4366 is at  -1.999827 -3.542626  2.011447
      ESP Fit Center 4367 is at  -1.585027 -3.562386  2.011447
      ESP Fit Center 4368 is at  -1.173983 -3.503287  2.011447
      ESP Fit Center 4369 is at  -0.781552 -3.367465  2.011447
      ESP Fit Center 4370 is at  -0.421917 -3.159830  2.011447
      ESP Fit Center 4371 is at  -4.094680 -1.380514  1.650201
      ESP Fit Center 4372 is at  -4.058131 -1.798263  1.650201
      ESP Fit Center 4373 is at  -3.949597 -2.203318  1.650201
      ESP Fit Center 4374 is at  -3.772375 -2.583373  1.650201
      ESP Fit Center 4375 is at  -3.531849 -2.926880  1.650201
      ESP Fit Center 4376 is at  -3.235328 -3.223401  1.650201
      ESP Fit Center 4377 is at  -2.891821 -3.463927  1.650201
      ESP Fit Center 4378 is at  -2.511766 -3.641149  1.650201
      ESP Fit Center 4379 is at  -2.106711 -3.749683  1.650201
      ESP Fit Center 4380 is at  -1.688962 -3.786232  1.650201
      ESP Fit Center 4381 is at  -1.271214 -3.749683  1.650201
      ESP Fit Center 4382 is at  -0.866158 -3.641149  1.650201
      ESP Fit Center 4383 is at  -0.486103 -3.463927  1.650201
      ESP Fit Center 4384 is at  -0.142597 -3.223401  1.650201
      ESP Fit Center 4385 is at  -4.256815 -1.380514  1.258772
      ESP Fit Center 4386 is at  -4.221793 -1.803169  1.258772
      ESP Fit Center 4387 is at  -4.117681 -2.214294  1.258772
      ESP Fit Center 4388 is at  -3.947321 -2.602677  1.258772
      ESP Fit Center 4389 is at  -3.715359 -2.957722  1.258772
      ESP Fit Center 4390 is at  -3.428121 -3.269745  1.258772
      ESP Fit Center 4391 is at  -3.093444 -3.530234  1.258772
      ESP Fit Center 4392 is at  -2.720457 -3.732085  1.258772
      ESP Fit Center 4393 is at  -2.319333 -3.869791  1.258772
      ESP Fit Center 4394 is at  -1.901014 -3.939596  1.258772
      ESP Fit Center 4395 is at  -1.476911 -3.939596  1.258772
      ESP Fit Center 4396 is at  -1.058592 -3.869791  1.258772
      ESP Fit Center 4397 is at  -0.657467 -3.732085  1.258772
      ESP Fit Center 4398 is at  -0.284480 -3.530234  1.258772
      ESP Fit Center 4399 is at  -4.322888 -1.797687  0.846800
      ESP Fit Center 4400 is at  -4.225200 -2.204588  0.846800
      ESP Fit Center 4401 is at  -4.065061 -2.591197  0.846800
      ESP Fit Center 4402 is at  -3.846415 -2.947995  0.846800
      ESP Fit Center 4403 is at  -3.574645 -3.266197  0.846800
      ESP Fit Center 4404 is at  -3.256443 -3.537967  0.846800
      ESP Fit Center 4405 is at  -2.899645 -3.756613  0.846800
      ESP Fit Center 4406 is at  -2.513036 -3.916752  0.846800
      ESP Fit Center 4407 is at  -2.106135 -4.014440  0.846800
      ESP Fit Center 4408 is at  -1.688962 -4.047273  0.846800
      ESP Fit Center 4409 is at  -1.271789 -4.014440  0.846800
      ESP Fit Center 4410 is at  -0.864888 -3.916752  0.846800
      ESP Fit Center 4411 is at  -0.478279 -3.756613  0.846800
      ESP Fit Center 4412 is at  -0.121481 -3.537967  0.846800
      ESP Fit Center 4413 is at  -4.317940 -1.995719  0.424426
      ESP Fit Center 4414 is at  -4.193219 -2.389820  0.424426
      ESP Fit Center 4415 is at  -4.009800 -2.760265  0.424426
      ESP Fit Center 4416 is at  -3.771983 -3.098369  0.424426
      ESP Fit Center 4417 is at  -3.485341 -3.396208  0.424426
      ESP Fit Center 4418 is at  -3.156594 -3.646801  0.424426
      ESP Fit Center 4419 is at  -2.793447 -3.844274  0.424426
      ESP Fit Center 4420 is at  -2.404412 -3.983999  0.424426
      ESP Fit Center 4421 is at  -1.998607 -4.062700  0.424426
      ESP Fit Center 4422 is at  -1.585545 -4.078533  0.424426
      ESP Fit Center 4423 is at  -1.174906 -4.031127  0.424426
      ESP Fit Center 4424 is at  -0.776317 -3.921592  0.424426
      ESP Fit Center 4425 is at  -0.399119 -3.752497  0.424426
      ESP Fit Center 4426 is at  -0.052153 -3.527805  0.424426
      ESP Fit Center 4427 is at  -4.322888 -1.797687  0.002053
      ESP Fit Center 4428 is at  -4.225200 -2.204588  0.002053
      ESP Fit Center 4429 is at  -4.065061 -2.591197  0.002053
      ESP Fit Center 4430 is at  -3.846415 -2.947995  0.002053
      ESP Fit Center 4431 is at  -3.574645 -3.266197  0.002053
      ESP Fit Center 4432 is at  -3.256443 -3.537967  0.002053
      ESP Fit Center 4433 is at  -2.899645 -3.756613  0.002053
      ESP Fit Center 4434 is at  -2.513036 -3.916752  0.002053
      ESP Fit Center 4435 is at  -2.106135 -4.014440  0.002053
      ESP Fit Center 4436 is at  -1.688962 -4.047273  0.002053
      ESP Fit Center 4437 is at  -1.271789 -4.014440  0.002053
      ESP Fit Center 4438 is at  -0.864888 -3.916752  0.002053
      ESP Fit Center 4439 is at  -0.478279 -3.756613  0.002053
      ESP Fit Center 4440 is at  -0.121481 -3.537967  0.002053
      ESP Fit Center 4441 is at  -4.117681 -2.214294 -0.409919
      ESP Fit Center 4442 is at  -3.947321 -2.602677 -0.409919
      ESP Fit Center 4443 is at  -3.715359 -2.957722 -0.409919
      ESP Fit Center 4444 is at  -3.428121 -3.269745 -0.409919
      ESP Fit Center 4445 is at  -3.093444 -3.530234 -0.409919
      ESP Fit Center 4446 is at  -2.720457 -3.732085 -0.409919
      ESP Fit Center 4447 is at  -2.319333 -3.869791 -0.409919
      ESP Fit Center 4448 is at  -1.901014 -3.939596 -0.409919
      ESP Fit Center 4449 is at  -1.476911 -3.939596 -0.409919
      ESP Fit Center 4450 is at  -1.058592 -3.869791 -0.409919
      ESP Fit Center 4451 is at  -0.657467 -3.732085 -0.409919
      ESP Fit Center 4452 is at  -0.284480 -3.530234 -0.409919
      ESP Fit Center 4453 is at  -3.949597 -2.203318 -0.801348
      ESP Fit Center 4454 is at  -3.772375 -2.583373 -0.801348
      ESP Fit Center 4455 is at  -3.531849 -2.926880 -0.801348
      ESP Fit Center 4456 is at  -3.235328 -3.223401 -0.801348
      ESP Fit Center 4457 is at  -2.891821 -3.463927 -0.801348
      ESP Fit Center 4458 is at  -2.511766 -3.641149 -0.801348
      ESP Fit Center 4459 is at  -2.106711 -3.749683 -0.801348
      ESP Fit Center 4460 is at  -1.688962 -3.786232 -0.801348
      ESP Fit Center 4461 is at  -1.271214 -3.749683 -0.801348
      ESP Fit Center 4462 is at  -0.866158 -3.641149 -0.801348
      ESP Fit Center 4463 is at  -0.486103 -3.463927 -0.801348
      ESP Fit Center 4464 is at  -0.142597 -3.223401 -0.801348
      ESP Fit Center 4465 is at  -3.630486 -2.381439 -1.162594
      ESP Fit Center 4466 is at  -3.405974 -2.730787 -1.162594
      ESP Fit Center 4467 is at  -3.119404 -3.031333 -1.162594
      ESP Fit Center 4468 is at  -2.781135 -3.272213 -1.162594
      ESP Fit Center 4469 is at  -2.403392 -3.444723 -1.162594
      ESP Fit Center 4470 is at  -1.999827 -3.542626 -1.162594
      ESP Fit Center 4471 is at  -1.585027 -3.562386 -1.162594
      ESP Fit Center 4472 is at  -1.173983 -3.503287 -1.162594
      ESP Fit Center 4473 is at  -0.781552 -3.367465 -1.162594
      ESP Fit Center 4474 is at  -0.421917 -3.159830 -1.162594
      ESP Fit Center 4475 is at  -3.181626 -2.570874 -1.484762
      ESP Fit Center 4476 is at  -2.879322 -2.873178 -1.484762
      ESP Fit Center 4477 is at  -2.517328 -3.100633 -1.484762
      ESP Fit Center 4478 is at  -2.113796 -3.241835 -1.484762
      ESP Fit Center 4479 is at  -1.688962 -3.289702 -1.484762
      ESP Fit Center 4480 is at  -1.264128 -3.241835 -1.484762
      ESP Fit Center 4481 is at  -0.860596 -3.100633 -1.484762
      ESP Fit Center 4482 is at  -2.482472 -2.754914 -1.759919
      ESP Fit Center 4483 is at  -2.099713 -2.913458 -1.759919
      ESP Fit Center 4484 is at  -1.688962 -2.967534 -1.759919
      ESP Fit Center 4485 is at  -4.764163  0.994495  0.332318
      ESP Fit Center 4486 is at  -4.260571  2.226517 -0.044727
      ESP Fit Center 4487 is at  -4.526194  1.915512 -0.044727
      ESP Fit Center 4488 is at  -4.739896  1.566783 -0.044727
      ESP Fit Center 4489 is at  -4.896413  1.188917 -0.044727
      ESP Fit Center 4490 is at  -4.991892  0.791219 -0.044727
      ESP Fit Center 4491 is at  -5.023981  0.383481 -0.044727
      ESP Fit Center 4492 is at  -4.991892 -0.024257 -0.044727
      ESP Fit Center 4493 is at  -4.896413 -0.421955 -0.044727
      ESP Fit Center 4494 is at  -3.901365  2.674779 -0.444624
      ESP Fit Center 4495 is at  -4.233740  2.421421 -0.444624
      ESP Fit Center 4496 is at  -4.523545  2.120294 -0.444624
      ESP Fit Center 4497 is at  -4.763986  1.778459 -0.444624
      ESP Fit Center 4498 is at  -4.949429  1.403926 -0.444624
      ESP Fit Center 4499 is at  -5.075527  1.005475 -0.444624
      ESP Fit Center 4500 is at  -5.139323  0.592445 -0.444624
      ESP Fit Center 4501 is at  -5.139323  0.174517 -0.444624
      ESP Fit Center 4502 is at  -5.075527 -0.238513 -0.444624
      ESP Fit Center 4503 is at  -4.949429 -0.636964 -0.444624
      ESP Fit Center 4504 is at  -4.763986 -1.011497 -0.444624
      ESP Fit Center 4505 is at  -3.437629  2.982639 -0.858438
      ESP Fit Center 4506 is at  -3.813620  2.801572 -0.858438
      ESP Fit Center 4507 is at  -4.158425  2.566488 -0.858438
      ESP Fit Center 4508 is at  -4.464341  2.282639 -0.858438
      ESP Fit Center 4509 is at  -4.724535  1.956367 -0.858438
      ESP Fit Center 4510 is at  -4.933194  1.594958 -0.858438
      ESP Fit Center 4511 is at  -5.085657  1.206488 -0.858438
      ESP Fit Center 4512 is at  -5.178519  0.799632 -0.858438
      ESP Fit Center 4513 is at  -5.209706  0.383481 -0.858438
      ESP Fit Center 4514 is at  -5.178519 -0.032670 -0.858438
      ESP Fit Center 4515 is at  -5.085657 -0.439526 -0.858438
      ESP Fit Center 4516 is at  -4.933194 -0.827996 -0.858438
      ESP Fit Center 4517 is at  -4.724535 -1.189405 -0.858438
      ESP Fit Center 4518 is at  -4.464341 -1.515677 -0.858438
      ESP Fit Center 4519 is at  -3.038851  3.105646 -1.276927
      ESP Fit Center 4520 is at  -3.437629  2.982639 -1.276927
      ESP Fit Center 4521 is at  -3.813620  2.801572 -1.276927
      ESP Fit Center 4522 is at  -4.158425  2.566488 -1.276927
      ESP Fit Center 4523 is at  -4.464341  2.282639 -1.276927
      ESP Fit Center 4524 is at  -4.724535  1.956367 -1.276927
      ESP Fit Center 4525 is at  -4.933194  1.594958 -1.276927
      ESP Fit Center 4526 is at  -5.085657  1.206488 -1.276927
      ESP Fit Center 4527 is at  -5.178519  0.799632 -1.276927
      ESP Fit Center 4528 is at  -5.209706  0.383481 -1.276927
      ESP Fit Center 4529 is at  -5.178519 -0.032670 -1.276927
      ESP Fit Center 4530 is at  -5.085657 -0.439526 -1.276927
      ESP Fit Center 4531 is at  -4.933194 -0.827996 -1.276927
      ESP Fit Center 4532 is at  -4.724535 -1.189405 -1.276927
      ESP Fit Center 4533 is at  -4.464341 -1.515677 -1.276927
      ESP Fit Center 4534 is at  -4.158425 -1.799526 -1.276927
      ESP Fit Center 4535 is at  -2.730597  3.095268 -1.690741
      ESP Fit Center 4536 is at  -3.140881  3.015698 -1.690741
      ESP Fit Center 4537 is at  -3.534210  2.874432 -1.690741
      ESP Fit Center 4538 is at  -3.901365  2.674779 -1.690741
      ESP Fit Center 4539 is at  -4.233740  2.421421 -1.690741
      ESP Fit Center 4540 is at  -4.523545  2.120294 -1.690741
      ESP Fit Center 4541 is at  -4.763986  1.778459 -1.690741
      ESP Fit Center 4542 is at  -4.949429  1.403926 -1.690741
      ESP Fit Center 4543 is at  -5.075527  1.005475 -1.690741
      ESP Fit Center 4544 is at  -5.139323  0.592445 -1.690741
      ESP Fit Center 4545 is at  -5.139323  0.174517 -1.690741
      ESP Fit Center 4546 is at  -5.075527 -0.238513 -1.690741
      ESP Fit Center 4547 is at  -4.949429 -0.636964 -1.690741
      ESP Fit Center 4548 is at  -4.763986 -1.011497 -1.690741
      ESP Fit Center 4549 is at  -4.523545 -1.353332 -1.690741
      ESP Fit Center 4550 is at  -4.233740 -1.654459 -1.690741
      ESP Fit Center 4551 is at  -3.901365 -1.907817 -1.690741
      ESP Fit Center 4552 is at  -3.534210 -2.107470 -1.690741
      ESP Fit Center 4553 is at  -2.009797  2.957838 -2.090637
      ESP Fit Center 4554 is at  -2.417535  2.989927 -2.090637
      ESP Fit Center 4555 is at  -2.825273  2.957838 -2.090637
      ESP Fit Center 4556 is at  -3.222971  2.862359 -2.090637
      ESP Fit Center 4557 is at  -3.600837  2.705842 -2.090637
      ESP Fit Center 4558 is at  -3.949566  2.492140 -2.090637
      ESP Fit Center 4559 is at  -4.260571  2.226517 -2.090637
      ESP Fit Center 4560 is at  -4.526194  1.915512 -2.090637
      ESP Fit Center 4561 is at  -4.739896  1.566783 -2.090637
      ESP Fit Center 4562 is at  -4.896413  1.188917 -2.090637
      ESP Fit Center 4563 is at  -4.991892  0.791219 -2.090637
      ESP Fit Center 4564 is at  -5.023981  0.383481 -2.090637
      ESP Fit Center 4565 is at  -4.991892 -0.024257 -2.090637
      ESP Fit Center 4566 is at  -4.896413 -0.421955 -2.090637
      ESP Fit Center 4567 is at  -4.739896 -0.799821 -2.090637
      ESP Fit Center 4568 is at  -4.526194 -1.148550 -2.090637
      ESP Fit Center 4569 is at  -4.260571 -1.459555 -2.090637
      ESP Fit Center 4570 is at  -3.949566 -1.725179 -2.090637
      ESP Fit Center 4571 is at  -3.600837 -1.938880 -2.090637
      ESP Fit Center 4572 is at  -3.222971 -2.095397 -2.090637
      ESP Fit Center 4573 is at  -1.906665  2.753926 -2.467682
      ESP Fit Center 4574 is at  -2.314620  2.806167 -2.467682
      ESP Fit Center 4575 is at  -2.725537  2.788712 -2.467682
      ESP Fit Center 4576 is at  -3.127592  2.702062 -2.467682
      ESP Fit Center 4577 is at  -3.509221  2.548711 -2.467682
      ESP Fit Center 4578 is at  -3.859444  2.333070 -2.467682
      ESP Fit Center 4579 is at  -4.168185  2.061344 -2.467682
      ESP Fit Center 4580 is at  -4.426564  1.741348 -2.467682
      ESP Fit Center 4581 is at  -4.627147  1.382288 -2.467682
      ESP Fit Center 4582 is at  -4.764163  0.994495 -2.467682
      ESP Fit Center 4583 is at  -4.833670  0.589124 -2.467682
      ESP Fit Center 4584 is at  -4.833670  0.177838 -2.467682
      ESP Fit Center 4585 is at  -4.764163 -0.227533 -2.467682
      ESP Fit Center 4586 is at  -4.627147 -0.615326 -2.467682
      ESP Fit Center 4587 is at  -4.426564 -0.974386 -2.467682
      ESP Fit Center 4588 is at  -4.168185 -1.294382 -2.467682
      ESP Fit Center 4589 is at  -3.859444 -1.566108 -2.467682
      ESP Fit Center 4590 is at  -3.509221 -1.781749 -2.467682
      ESP Fit Center 4591 is at  -3.127592 -1.935100 -2.467682
      ESP Fit Center 4592 is at  -1.508138  2.374782 -2.813454
      ESP Fit Center 4593 is at  -1.901428  2.510901 -2.813454
      ESP Fit Center 4594 is at  -2.313372  2.570130 -2.813454
      ESP Fit Center 4595 is at  -2.729080  2.550327 -2.813454
      ESP Fit Center 4596 is at  -3.133529  2.452209 -2.813454
      ESP Fit Center 4597 is at  -3.512099  2.279322 -2.813454
      ESP Fit Center 4598 is at  -3.851109  2.037914 -2.813454
      ESP Fit Center 4599 is at  -4.138306  1.736710 -2.813454
      ESP Fit Center 4600 is at  -4.363310  1.386598 -2.813454
      ESP Fit Center 4601 is at  -4.517988  1.000230 -2.813454
      ESP Fit Center 4602 is at  -4.596750  0.591571 -2.813454
      ESP Fit Center 4603 is at  -4.596750  0.175391 -2.813454
      ESP Fit Center 4604 is at  -4.517988 -0.233268 -2.813454
      ESP Fit Center 4605 is at  -4.363310 -0.619636 -2.813454
      ESP Fit Center 4606 is at  -4.138306 -0.969748 -2.813454
      ESP Fit Center 4607 is at  -3.851109 -1.270952 -2.813454
      ESP Fit Center 4608 is at  -3.512099 -1.512360 -2.813454
      ESP Fit Center 4609 is at  -3.133529 -1.685247 -2.813454
      ESP Fit Center 4610 is at  -2.729080 -1.783365 -2.813454
      ESP Fit Center 4611 is at  -1.525459  2.066115 -3.120228
      ESP Fit Center 4612 is at  -1.908032  2.218546 -3.120228
      ESP Fit Center 4613 is at  -2.314428  2.285172 -3.120228
      ESP Fit Center 4614 is at  -2.725646  2.262876 -3.120228
      ESP Fit Center 4615 is at  -3.122457  2.152702 -3.120228
      ESP Fit Center 4616 is at  -3.486306  1.959801 -3.120228
      ESP Fit Center 4617 is at  -3.800181  1.693193 -3.120228
      ESP Fit Center 4618 is at  -4.049405  1.365345 -3.120228
      ESP Fit Center 4619 is at  -4.222325  0.991586 -3.120228
      ESP Fit Center 4620 is at  -4.310854  0.589392 -3.120228
      ESP Fit Center 4621 is at  -4.310854  0.177570 -3.120228
      ESP Fit Center 4622 is at  -4.222325 -0.224624 -3.120228
      ESP Fit Center 4623 is at  -4.049405 -0.598383 -3.120228
      ESP Fit Center 4624 is at  -3.800181 -0.926231 -3.120228
      ESP Fit Center 4625 is at  -3.486306 -1.192839 -3.120228
      ESP Fit Center 4626 is at  -3.122457 -1.385740 -3.120228
      ESP Fit Center 4627 is at  -2.725646 -1.495914 -3.120228
      ESP Fit Center 4628 is at  -2.314428 -1.518210 -3.120228
      ESP Fit Center 4629 is at  -1.302218  1.498798 -3.381151
      ESP Fit Center 4630 is at  -1.628887  1.749460 -3.381151
      ESP Fit Center 4631 is at  -2.009301  1.907032 -3.381151
      ESP Fit Center 4632 is at  -2.417535  1.960777 -3.381151
      ESP Fit Center 4633 is at  -2.825769  1.907032 -3.381151
      ESP Fit Center 4634 is at  -3.206183  1.749460 -3.381151
      ESP Fit Center 4635 is at  -3.532852  1.498798 -3.381151
      ESP Fit Center 4636 is at  -3.783513  1.172129 -3.381151
      ESP Fit Center 4637 is at  -3.941086  0.791715 -3.381151
      ESP Fit Center 4638 is at  -3.994831  0.383481 -3.381151
      ESP Fit Center 4639 is at  -3.941086 -0.024753 -3.381151
      ESP Fit Center 4640 is at  -3.783513 -0.405167 -3.381151
      ESP Fit Center 4641 is at  -3.532852 -0.731836 -3.381151
      ESP Fit Center 4642 is at  -3.206183 -0.982498 -3.381151
      ESP Fit Center 4643 is at  -2.825769 -1.140070 -3.381151
      ESP Fit Center 4644 is at  -2.417535 -1.193815 -3.381151
      ESP Fit Center 4645 is at  -2.009301 -1.140070 -3.381151
      ESP Fit Center 4646 is at  -1.202660  0.383481 -3.590395
      ESP Fit Center 4647 is at  -1.275926  0.798993 -3.590395
      ESP Fit Center 4648 is at  -1.486887  1.164387 -3.590395
      ESP Fit Center 4649 is at  -1.810098  1.435593 -3.590395
      ESP Fit Center 4650 is at  -2.206574  1.579899 -3.590395
      ESP Fit Center 4651 is at  -2.628496  1.579899 -3.590395
      ESP Fit Center 4652 is at  -3.024972  1.435593 -3.590395
      ESP Fit Center 4653 is at  -3.348183  1.164387 -3.590395
      ESP Fit Center 4654 is at  -3.559143  0.798993 -3.590395
      ESP Fit Center 4655 is at  -3.632409  0.383481 -3.590395
      ESP Fit Center 4656 is at  -3.559143 -0.032031 -3.590395
      ESP Fit Center 4657 is at  -3.348183 -0.397425 -3.590395
      ESP Fit Center 4658 is at  -3.024972 -0.668631 -3.590395
      ESP Fit Center 4659 is at  -2.628496 -0.812937 -3.590395
      ESP Fit Center 4660 is at  -2.206574 -0.812937 -3.590395
      ESP Fit Center 4661 is at  -1.810098 -0.668631 -3.590395
      ESP Fit Center 4662 is at  -1.486887 -0.397425 -3.590395
      ESP Fit Center 4663 is at  -1.275926 -0.032031 -3.590395
      ESP Fit Center 4664 is at  -1.592220  0.383481 -3.743286
      ESP Fit Center 4665 is at  -1.702792  0.796138 -3.743286
      ESP Fit Center 4666 is at  -2.004878  1.098224 -3.743286
      ESP Fit Center 4667 is at  -2.417535  1.208795 -3.743286
      ESP Fit Center 4668 is at  -2.830192  1.098224 -3.743286
      ESP Fit Center 4669 is at  -3.132278  0.796138 -3.743286
      ESP Fit Center 4670 is at  -3.242849  0.383481 -3.743286
      ESP Fit Center 4671 is at  -3.132278 -0.029176 -3.743286
      ESP Fit Center 4672 is at  -2.830192 -0.331262 -3.743286
      ESP Fit Center 4673 is at  -2.417535 -0.441834 -3.743286
      ESP Fit Center 4674 is at  -2.004878 -0.331262 -3.743286
      ESP Fit Center 4675 is at  -1.702792 -0.029176 -3.743286
      ESP Fit Center 4676 is at  -2.000217  0.383481 -3.836409
      ESP Fit Center 4677 is at  -2.208876  0.744889 -3.836409
      ESP Fit Center 4678 is at  -2.626194  0.744889 -3.836409
      ESP Fit Center 4679 is at  -2.834853  0.383481 -3.836409
      ESP Fit Center 4680 is at  -2.626194  0.022073 -3.836409
      ESP Fit Center 4681 is at  -2.208876  0.022073 -3.836409
      ESP Fit Center 4682 is at  -2.417535  0.383481 -3.867682
      ESP Fit Center 4683 is at  -1.382912  0.921886  3.930277
      ESP Fit Center 4684 is at  -0.965594  0.921886  3.899003
      ESP Fit Center 4685 is at  -1.174253  1.283294  3.899003
      ESP Fit Center 4686 is at  -1.591572  1.283294  3.899003
      ESP Fit Center 4687 is at  -1.800231  0.921886  3.899003
      ESP Fit Center 4688 is at  -1.591572  0.560478  3.899003
      ESP Fit Center 4689 is at  -1.174253  0.560478  3.899003
      ESP Fit Center 4690 is at  -0.557598  0.921886  3.805881
      ESP Fit Center 4691 is at  -0.668169  1.334543  3.805881
      ESP Fit Center 4692 is at  -0.970255  1.636629  3.805881
      ESP Fit Center 4693 is at  -1.382912  1.747200  3.805881
      ESP Fit Center 4694 is at  -1.795570  1.636629  3.805881
      ESP Fit Center 4695 is at  -2.097656  1.334543  3.805881
      ESP Fit Center 4696 is at  -2.208227  0.921886  3.805881
      ESP Fit Center 4697 is at  -2.097656  0.509229  3.805881
      ESP Fit Center 4698 is at  -1.795570  0.207143  3.805881
      ESP Fit Center 4699 is at  -1.382912  0.096571  3.805881
      ESP Fit Center 4700 is at  -0.970255  0.207143  3.805881
      ESP Fit Center 4701 is at  -0.668169  0.509229  3.805881
      ESP Fit Center 4702 is at  -0.168038  0.921886  3.652990
      ESP Fit Center 4703 is at  -0.241304  1.337397  3.652990
      ESP Fit Center 4704 is at  -0.452265  1.702792  3.652990
      ESP Fit Center 4705 is at  -0.775475  1.973998  3.652990
      ESP Fit Center 4706 is at  -1.171952  2.118304  3.652990
      ESP Fit Center 4707 is at  -1.593873  2.118304  3.652990
      ESP Fit Center 4708 is at  -1.990350  1.973998  3.652990
      ESP Fit Center 4709 is at  -2.313560  1.702792  3.652990
      ESP Fit Center 4710 is at  -2.524521  1.337397  3.652990
      ESP Fit Center 4711 is at  -2.597787  0.921886  3.652990
      ESP Fit Center 4712 is at  -2.524521  0.506374  3.652990
      ESP Fit Center 4713 is at  -2.313560  0.140980  3.652990
      ESP Fit Center 4714 is at  -1.990350 -0.130226  3.652990
      ESP Fit Center 4715 is at  -1.593873 -0.274532  3.652990
      ESP Fit Center 4716 is at  -1.171952 -0.274532  3.652990
      ESP Fit Center 4717 is at  -0.775475 -0.130226  3.652990
      ESP Fit Center 4718 is at  -0.452265  0.140980  3.652990
      ESP Fit Center 4719 is at  -0.241304  0.506374  3.652990
      ESP Fit Center 4720 is at   0.194384  0.921886  3.443746
      ESP Fit Center 4721 is at   0.140639  1.330120  3.443746
      ESP Fit Center 4722 is at  -0.016934  1.710534  3.443746
      ESP Fit Center 4723 is at  -0.267596  2.037203  3.443746
      ESP Fit Center 4724 is at  -0.594264  2.287864  3.443746
      ESP Fit Center 4725 is at  -0.974678  2.445437  3.443746
      ESP Fit Center 4726 is at  -1.382912  2.499182  3.443746
      ESP Fit Center 4727 is at  -1.791147  2.445437  3.443746
      ESP Fit Center 4728 is at  -2.171560  2.287864  3.443746
      ESP Fit Center 4729 is at  -2.498229  2.037203  3.443746
      ESP Fit Center 4730 is at  -2.748891  1.710534  3.443746
      ESP Fit Center 4731 is at  -2.906463  1.330120  3.443746
      ESP Fit Center 4732 is at  -2.960209  0.921886  3.443746
      ESP Fit Center 4733 is at  -2.906463  0.513652  3.443746
      ESP Fit Center 4734 is at  -2.748891  0.133238  3.443746
      ESP Fit Center 4735 is at  -2.498229 -0.193431  3.443746
      ESP Fit Center 4736 is at  -2.171560 -0.444093  3.443746
      ESP Fit Center 4737 is at  -1.791147 -0.601665  3.443746
      ESP Fit Center 4738 is at  -1.382912 -0.655410  3.443746
      ESP Fit Center 4739 is at  -0.974678 -0.601665  3.443746
      ESP Fit Center 4740 is at  -0.594264 -0.444093  3.443746
      ESP Fit Center 4741 is at  -0.267596 -0.193431  3.443746
      ESP Fit Center 4742 is at  -0.016934  0.133238  3.443746
      ESP Fit Center 4743 is at   0.140639  0.513652  3.443746
      ESP Fit Center 4744 is at   0.521571  0.921886  3.182822
      ESP Fit Center 4745 is at   0.477046  1.331294  3.182822
      ESP Fit Center 4746 is at   0.345550  1.721558  3.182822
      ESP Fit Center 4747 is at   0.133234  2.074430  3.182822
      ESP Fit Center 4748 is at  -0.149976  2.373411  3.182822
      ESP Fit Center 4749 is at  -0.490836  2.604520  3.182822
      ESP Fit Center 4750 is at  -0.873409  2.756951  3.182822
      ESP Fit Center 4751 is at  -1.279806  2.823576  3.182822
      ESP Fit Center 4752 is at  -1.691024  2.801281  3.182822
      ESP Fit Center 4753 is at  -2.087834  2.691107  3.182822
      ESP Fit Center 4754 is at  -2.451684  2.498206  3.182822
      ESP Fit Center 4755 is at  -2.765559  2.231598  3.182822
      ESP Fit Center 4756 is at  -3.014783  1.903750  3.182822
      ESP Fit Center 4757 is at  -3.187702  1.529990  3.182822
      ESP Fit Center 4758 is at  -3.276232  1.127797  3.182822
      ESP Fit Center 4759 is at  -3.276232  0.715975  3.182822
      ESP Fit Center 4760 is at  -3.187702  0.313781  3.182822
      ESP Fit Center 4761 is at  -3.014783 -0.059978  3.182822
      ESP Fit Center 4762 is at  -2.765559 -0.387827  3.182822
      ESP Fit Center 4763 is at  -2.451684 -0.654434  3.182822
      ESP Fit Center 4764 is at   0.458699  2.105418  2.876048
      ESP Fit Center 4765 is at   0.201434  2.432557  2.876048
      ESP Fit Center 4766 is at  -0.113093  2.705097  2.876048
      ESP Fit Center 4767 is at  -0.473516  2.913187  2.876048
      ESP Fit Center 4768 is at  -0.866806  3.049306  2.876048
      ESP Fit Center 4769 is at  -1.278749  3.108534  2.876048
      ESP Fit Center 4770 is at  -1.694458  3.088732  2.876048
      ESP Fit Center 4771 is at  -2.098906  2.990614  2.876048
      ESP Fit Center 4772 is at  -2.477476  2.817726  2.876048
      ESP Fit Center 4773 is at  -2.816486  2.576319  2.876048
      ESP Fit Center 4774 is at  -3.103683  2.275115  2.876048
      ESP Fit Center 4775 is at  -3.328687  1.925002  2.876048
      ESP Fit Center 4776 is at  -3.483365  1.538635  2.876048
      ESP Fit Center 4777 is at  -3.562128  1.129976  2.876048
      ESP Fit Center 4778 is at  -3.562128  0.713796  2.876048
      ESP Fit Center 4779 is at  -3.483365  0.305137  2.876048
      ESP Fit Center 4780 is at  -3.328687 -0.081231  2.876048
      ESP Fit Center 4781 is at   0.219139  2.742169  2.530277
      ESP Fit Center 4782 is at  -0.111535  2.986734  2.530277
      ESP Fit Center 4783 is at  -0.478783  3.171897  2.530277
      ESP Fit Center 4784 is at  -0.872042  3.292331  2.530277
      ESP Fit Center 4785 is at  -1.279998  3.344572  2.530277
      ESP Fit Center 4786 is at  -1.690914  3.327117  2.530277
      ESP Fit Center 4787 is at  -2.092970  3.240467  2.530277
      ESP Fit Center 4788 is at  -2.474598  3.087116  2.530277
      ESP Fit Center 4789 is at  -2.824821  2.871475  2.530277
      ESP Fit Center 4790 is at  -3.133563  2.599748  2.530277
      ESP Fit Center 4791 is at  -3.391942  2.279753  2.530277
      ESP Fit Center 4792 is at  -3.592524  1.920693  2.530277
      ESP Fit Center 4793 is at  -3.729540  1.532900  2.530277
      ESP Fit Center 4794 is at  -3.799048  1.127529  2.530277
      ESP Fit Center 4795 is at  -3.799048  0.716242  2.530277
      ESP Fit Center 4796 is at  -3.729540  0.310872  2.530277
      ESP Fit Center 4797 is at   0.149118  3.030545  2.153232
      ESP Fit Center 4798 is at  -0.199610  3.244247  2.153232
      ESP Fit Center 4799 is at  -0.577476  3.400764  2.153232
      ESP Fit Center 4800 is at  -0.975174  3.496243  2.153232
      ESP Fit Center 4801 is at  -1.382912  3.528332  2.153232
      ESP Fit Center 4802 is at  -1.790650  3.496243  2.153232
      ESP Fit Center 4803 is at  -2.188349  3.400764  2.153232
      ESP Fit Center 4804 is at  -2.566214  3.244247  2.153232
      ESP Fit Center 4805 is at  -2.914943  3.030545  2.153232
      ESP Fit Center 4806 is at  -3.225948  2.764922  2.153232
      ESP Fit Center 4807 is at  -3.491572  2.453917  2.153232
      ESP Fit Center 4808 is at  -3.705273  2.105188  2.153232
      ESP Fit Center 4809 is at  -3.861790  1.727322  2.153232
      ESP Fit Center 4810 is at  -3.957269  1.329624  2.153232
      ESP Fit Center 4811 is at  -3.989359  0.921886  2.153232
      ESP Fit Center 4812 is at  -0.078834  3.320047  1.753336
      ESP Fit Center 4813 is at  -0.460195  3.491008  1.753336
      ESP Fit Center 4814 is at  -0.863183  3.601751  1.753336
      ESP Fit Center 4815 is at  -1.278354  3.649681  1.753336
      ESP Fit Center 4816 is at  -1.695975  3.633673  1.753336
      ESP Fit Center 4817 is at  -2.106258  3.554103  1.753336
      ESP Fit Center 4818 is at  -2.499587  3.412837  1.753336
      ESP Fit Center 4819 is at  -2.866742  3.213184  1.753336
      ESP Fit Center 4820 is at  -3.199117  2.959825  1.753336
      ESP Fit Center 4821 is at  -3.488922  2.658699  1.753336
      ESP Fit Center 4822 is at  -3.729364  2.316864  1.753336
      ESP Fit Center 4823 is at  -3.914807  1.942331  1.753336
      ESP Fit Center 4824 is at  -4.040904  1.543880  1.753336
      ESP Fit Center 4825 is at   0.013173  3.339977  1.339521
      ESP Fit Center 4826 is at  -0.362818  3.521044  1.339521
      ESP Fit Center 4827 is at  -0.761596  3.644051  1.339521
      ESP Fit Center 4828 is at  -1.174253  3.706249  1.339521
      ESP Fit Center 4829 is at  -1.591572  3.706249  1.339521
      ESP Fit Center 4830 is at  -2.004229  3.644051  1.339521
      ESP Fit Center 4831 is at  -2.403007  3.521044  1.339521
      ESP Fit Center 4832 is at  -2.778998  3.339977  1.339521
      ESP Fit Center 4833 is at  -3.123802  3.104893  1.339521
      ESP Fit Center 4834 is at  -3.429718  2.821044  1.339521
      ESP Fit Center 4835 is at  -3.689912  2.494772  1.339521
      ESP Fit Center 4836 is at  -0.362818  3.521044  0.921033
      ESP Fit Center 4837 is at  -0.761596  3.644051  0.921033
      ESP Fit Center 4838 is at  -1.174253  3.706249  0.921033
      ESP Fit Center 4839 is at  -1.591572  3.706249  0.921033
      ESP Fit Center 4840 is at  -2.004229  3.644051  0.921033
      ESP Fit Center 4841 is at  -2.403007  3.521044  0.921033
      ESP Fit Center 4842 is at  -2.778998  3.339977  0.921033
      ESP Fit Center 4843 is at  -3.123802  3.104893  0.921033
      ESP Fit Center 4844 is at  -3.429718  2.821044  0.921033
      ESP Fit Center 4845 is at  -0.460195  3.491008  0.507218
      ESP Fit Center 4846 is at  -0.863183  3.601751  0.507218
      ESP Fit Center 4847 is at  -1.278354  3.649681  0.507218
      ESP Fit Center 4848 is at  -1.695975  3.633673  0.507218
      ESP Fit Center 4849 is at  -2.106258  3.554103  0.507218
 Entering OneElI...
 OneElI was handed  4294882754 working-precision words.
 Calculate electrostatic properties
    NBasis =   143  MinDer = 0  MaxDer = 0
    NGrid  =  4849  NMatD  =   1
 Requested accuracy = 0.1000D-05
 ShPair: Thresh= 1.00D-06 NBox=     0 BxSize= 0.00D+00 RnKept= 9.25D+00
         NSMCal=                  741 NSMKep=                 500
 PrmmSu-InSpLW:  IPartL=    0 NPrtUS=   32 NPrtUL=    1 DoSpLW=F IThBeg=    0 IThEnd=   31 NThAct=   32.
 PrSmSu:  IncTry=   512 NBBP=        2424500 NTPThr=   100 NPartT=   32 Incr=         512 LDynOK=F GPUOK=F.
 PrsmSu:  NPrtUS=  32 ThrOK=T IAlg=2 LenDen=           0 ISkipM=0 DoSpLW=F IThBeg=    0 IThEnd=   31.
 PRISM was handed   134127696 working-precision words and   500 shell-pairs
 PRISM was handed   134127696 working-precision words and   500 shell-pairs
 PRISM was handed   134127696 working-precision words and   500 shell-pairs
 PRISM was handed   134127696 working-precision words and   500 shell-pairs
 PRISM was handed   134127696 working-precision words and   500 shell-pairs
 PRISM was handed   134127696 working-precision words and   500 shell-pairs
 PRISM was handed   134127696 working-precision words and   500 shell-pairs
 PRISM was handed   134127696 working-precision words and   500 shell-pairs
 Prism:   IPart=     0 DynPar=F LinDyn=F Incr=         512.
 PRISM was handed   134127696 working-precision words and   500 shell-pairs
 PRISM was handed   134127696 working-precision words and   500 shell-pairs
 PRISM was handed   134127696 working-precision words and   500 shell-pairs
 PRISM was handed   134127696 working-precision words and   500 shell-pairs
 PRISM was handed   134127696 working-precision words and   500 shell-pairs
 PRISM was handed   134127696 working-precision words and   500 shell-pairs
 PRISM was handed   134127696 working-precision words and   500 shell-pairs
 PRISM was handed   134127696 working-precision words and   500 shell-pairs
 PRISM was handed   134127696 working-precision words and   500 shell-pairs
 PRISM was handed   134127696 working-precision words and   500 shell-pairs
 PRISM was handed   134127696 working-precision words and   500 shell-pairs
 PRISM was handed   134127696 working-precision words and   500 shell-pairs
 PRISM was handed   134127696 working-precision words and   500 shell-pairs
 PRISM was handed   134127696 working-precision words and   500 shell-pairs
 PRISM was handed   134127696 working-precision words and   500 shell-pairs
 PRISM was handed   134127696 working-precision words and   500 shell-pairs
 PRISM was handed   134127696 working-precision words and   500 shell-pairs
 PRISM was handed   134127696 working-precision words and   500 shell-pairs
 PRISM was handed   134127696 working-precision words and   500 shell-pairs
 PRISM was handed   134127696 working-precision words and   500 shell-pairs
 PRISM was handed   134127696 working-precision words and   500 shell-pairs
 PRISM was handed   134127696 working-precision words and   500 shell-pairs
 PRISM was handed   134127696 working-precision words and   500 shell-pairs
 PRISM was handed   134127696 working-precision words and   500 shell-pairs
 IPart= 27 NShTot=       38792 NBatch=          95 AvBLen=       408.3
 IPart= 24 NShTot=       43641 NBatch=         105 AvBLen=       415.6
 PrsmSu-ThDecC:  IPartSL=   24    0 NPrtUSL=   32    1 IThBeg=    0 IThEnd=   31 CPU=   -1 GPU=   -1 NThAct=   32.
 IPart= 28 NShTot=       33943 NBatch=          86 AvBLen=       394.7
 PrsmSu-ThDecC:  IPartSL=   28    0 NPrtUSL=   32    1 IThBeg=    0 IThEnd=   31 CPU=   -1 GPU=   -1 NThAct=   31.
 IPart= 26 NShTot=       43641 NBatch=         105 AvBLen=       415.6
 PrsmSu-ThDecC:  IPartSL=   26    0 NPrtUSL=   32    1 IThBeg=    0 IThEnd=   31 CPU=   -1 GPU=   -1 NThAct=   30.
 PrsmSu-ThDecC:  IPartSL=   27    0 NPrtUSL=   32    1 IThBeg=    0 IThEnd=   31 CPU=   -1 GPU=   -1 NThAct=   29.
 IPart= 16 NShTot=       63037 NBatch=         156 AvBLen=       404.1
 PrsmSu-ThDecC:  IPartSL=   16    0 NPrtUSL=   32    1 IThBeg=    0 IThEnd=   31 CPU=   -1 GPU=   -1 NThAct=   28.
 IPart= 14 NShTot=       67886 NBatch=         180 AvBLen=       377.1
 PrsmSu-ThDecC:  IPartSL=   14    0 NPrtUSL=   32    1 IThBeg=    0 IThEnd=   31 CPU=   -1 GPU=   -1 NThAct=   27.
 IPart= 23 NShTot=       43641 NBatch=         105 AvBLen=       415.6
 PrsmSu-ThDecC:  IPartSL=   23    0 NPrtUSL=   32    1 IThBeg=    0 IThEnd=   31 CPU=   -1 GPU=   -1 NThAct=   26.
 IPart= 22 NShTot=       43641 NBatch=         105 AvBLen=       415.6
 IPart=  5 NShTot=      130923 NBatch=         383 AvBLen=       341.8
 PrsmSu-ThDecC:  IPartSL=   22    0 NPrtUSL=   32    1 IThBeg=    0 IThEnd=   31 CPU=   -1 GPU=   -1 NThAct=   25.
 PrsmSu-ThDecC:  IPartSL=    5    0 NPrtUSL=   32    1 IThBeg=    0 IThEnd=   31 CPU=   -1 GPU=   -1 NThAct=   24.
 IPart= 11 NShTot=       67886 NBatch=         180 AvBLen=       377.1
 IPart=  4 NShTot=      130923 NBatch=         383 AvBLen=       341.8
 PrsmSu-ThDecC:  IPartSL=    4    0 NPrtUSL=   32    1 IThBeg=    0 IThEnd=   31 CPU=   -1 GPU=   -1 NThAct=   23.
 PrsmSu-ThDecC:  IPartSL=   11    0 NPrtUSL=   32    1 IThBeg=    0 IThEnd=   31 CPU=   -1 GPU=   -1 NThAct=   22.
 IPart= 31 NShTot=       29094 NBatch=          70 AvBLen=       415.6
 IPart= 10 NShTot=       72735 NBatch=         194 AvBLen=       374.9
 PrsmSu-ThDecC:  IPartSL=   31    0 NPrtUSL=   32    1 IThBeg=    0 IThEnd=   31 CPU=   -1 GPU=   -1 NThAct=   21.
 PrsmSu-ThDecC:  IPartSL=   10    0 NPrtUSL=   32    1 IThBeg=    0 IThEnd=   31 CPU=   -1 GPU=   -1 NThAct=   20.
 IPart= 25 NShTot=       43641 NBatch=         105 AvBLen=       415.6
 PrsmSu-ThDecC:  IPartSL=   25    0 NPrtUSL=   32    1 IThBeg=    0 IThEnd=   31 CPU=   -1 GPU=   -1 NThAct=   19.
 IPart= 19 NShTot=       53339 NBatch=         128 AvBLen=       416.7
 PrsmSu-ThDecC:  IPartSL=   19    0 NPrtUSL=   32    1 IThBeg=    0 IThEnd=   31 CPU=   -1 GPU=   -1 NThAct=   18.
 IPart=  9 NShTot=       82433 NBatch=         232 AvBLen=       355.3
 PrsmSu-ThDecC:  IPartSL=    9    0 NPrtUSL=   32    1 IThBeg=    0 IThEnd=   31 CPU=   -1 GPU=   -1 NThAct=   17.
 IPart=  8 NShTot=       96980 NBatch=         290 AvBLen=       334.4
 PrsmSu-ThDecC:  IPartSL=    8    0 NPrtUSL=   32    1 IThBeg=    0 IThEnd=   31 CPU=   -1 GPU=   -1 NThAct=   16.
 IPart= 20 NShTot=       53339 NBatch=         128 AvBLen=       416.7
 PrsmSu-ThDecC:  IPartSL=   20    0 NPrtUSL=   32    1 IThBeg=    0 IThEnd=   31 CPU=   -1 GPU=   -1 NThAct=   15.
 IPart= 21 NShTot=       48490 NBatch=         118 AvBLen=       410.9
 PrsmSu-ThDecC:  IPartSL=   21    0 NPrtUSL=   32    1 IThBeg=    0 IThEnd=   31 CPU=   -1 GPU=   -1 NThAct=   14.
 IPart= 12 NShTot=       67886 NBatch=         180 AvBLen=       377.1
 PrsmSu-ThDecC:  IPartSL=   12    0 NPrtUSL=   32    1 IThBeg=    0 IThEnd=   31 CPU=   -1 GPU=   -1 NThAct=   13.
 IPart=  1 NShTot=      174564 NBatch=         615 AvBLen=       283.8
 PrsmSu-ThDecC:  IPartSL=    1    0 NPrtUSL=   32    1 IThBeg=    0 IThEnd=   31 CPU=   -1 GPU=   -1 NThAct=   12.
 IPart=  6 NShTot=      116376 NBatch=         330 AvBLen=       352.7
 PrsmSu-ThDecC:  IPartSL=    6    0 NPrtUSL=   32    1 IThBeg=    0 IThEnd=   31 CPU=   -1 GPU=   -1 NThAct=   11.
 IPart= 15 NShTot=       63037 NBatch=         156 AvBLen=       404.1
 PrsmSu-ThDecC:  IPartSL=   15    0 NPrtUSL=   32    1 IThBeg=    0 IThEnd=   31 CPU=   -1 GPU=   -1 NThAct=   10.
 IPart= 29 NShTot=       29094 NBatch=          70 AvBLen=       415.6
 PrsmSu-ThDecC:  IPartSL=   29    0 NPrtUSL=   32    1 IThBeg=    0 IThEnd=   31 CPU=   -1 GPU=   -1 NThAct=    9.
 IPart= 30 NShTot=       29094 NBatch=          70 AvBLen=       415.6
 PrsmSu-ThDecC:  IPartSL=   30    0 NPrtUSL=   32    1 IThBeg=    0 IThEnd=   31 CPU=   -1 GPU=   -1 NThAct=    8.
 IPart= 17 NShTot=       58188 NBatch=         137 AvBLen=       424.7
 PrsmSu-ThDecC:  IPartSL=   17    0 NPrtUSL=   32    1 IThBeg=    0 IThEnd=   31 CPU=   -1 GPU=   -1 NThAct=    7.
 IPart= 18 NShTot=       58188 NBatch=         137 AvBLen=       424.7
 PrsmSu-ThDecC:  IPartSL=   18    0 NPrtUSL=   32    1 IThBeg=    0 IThEnd=   31 CPU=   -1 GPU=   -1 NThAct=    6.
 IPart= 13 NShTot=       67886 NBatch=         180 AvBLen=       377.1
 PrsmSu-ThDecC:  IPartSL=   13    0 NPrtUSL=   32    1 IThBeg=    0 IThEnd=   31 CPU=   -1 GPU=   -1 NThAct=    5.
 IPart=  2 NShTot=      140621 NBatch=         409 AvBLen=       343.8
 PrsmSu-ThDecC:  IPartSL=    2    0 NPrtUSL=   32    1 IThBeg=    0 IThEnd=   31 CPU=   -1 GPU=   -1 NThAct=    4.
 IPart=  3 NShTot=      140621 NBatch=         409 AvBLen=       343.8
 PrsmSu-ThDecC:  IPartSL=    3    0 NPrtUSL=   32    1 IThBeg=    0 IThEnd=   31 CPU=   -1 GPU=   -1 NThAct=    3.
 IPart=  0 NShTot=      174564 NBatch=         615 AvBLen=       283.8
 PrsmSu-ThDecC:  IPartSL=    0    0 NPrtUSL=   32    1 IThBeg=    0 IThEnd=   31 CPU=   -1 GPU=   -1 NThAct=    2.
 IPart=  7 NShTot=      116376 NBatch=         330 AvBLen=       352.7
 PrsmSu-ThDecC:  IPartSL=    7    0 NPrtUSL=   32    1 IThBeg=    0 IThEnd=   31 CPU=   -1 GPU=   -1 NThAct=    1.
 PrSmSu:  NxtVal=          16385.
    4840 points will be used for fitting atomic charges
 Fitting point charges to electrostatic potential
 Charges from ESP fit, RMS=   0.00175 RRMS=   0.01314:
 ESP charges:
               1
     1  S    1.292401
     2  F   -0.274804
     3  O   -0.573679
     4  O   -0.582600
     5  N   -0.722532
     6  S    1.291657
     7  F   -0.274685
     8  O   -0.582490
     9  O   -0.573268
 Sum of ESP charges =  -1.00000
 ESP charges with hydrogens summed into heavy atoms:
               1
     1  S    1.292401
     2  F   -0.274804
     3  O   -0.573679
     4  O   -0.582600
     5  N   -0.722532
     6  S    1.291657
     7  F   -0.274685
     8  O   -0.582490
     9  O   -0.573268
 Charge=  -1.00000 Dipole=     0.0013     0.0022     0.4466 Tot=     0.4466
 -----------------------------------------------------------------

              Electrostatic Properties (Atomic Units)

 -----------------------------------------------------------------
    Center     Electric         -------- Electric Field --------
               Potential          X             Y             Z
 -----------------------------------------------------------------
    1 Atom    -59.005287
    2 Atom    -26.672046
    3 Atom    -22.441071
    4 Atom    -22.443270
    5 Atom    -18.460439
    6 Atom    -59.005303
    7 Atom    -26.672094
    8 Atom    -22.443287
    9 Atom    -22.441061
   10 Fit      -0.163547
   11 Fit      -0.170414
   12 Fit      -0.141509
   13 Fit      -0.137657
   14 Fit      -0.132878
   15 Fit      -0.134427
   16 Fit      -0.131731
   17 Fit      -0.128411
   18 Fit      -0.129963
   19 Fit      -0.147202
   20 Fit      -0.138362
   21 Fit      -0.132746
   22 Fit      -0.129572
   23 Fit      -0.130080
   24 Fit      -0.149130
   25 Fit      -0.143341
   26 Fit      -0.137726
   27 Fit      -0.141583
   28 Fit      -0.137360
   29 Fit      -0.135257
   30 Fit      -0.152109
   31 Fit      -0.151755
   32 Fit      -0.151450
   33 Fit      -0.150766
   34 Fit      -0.149051
   35 Fit      -0.143493
   36 Fit      -0.139521
   37 Fit      -0.137381
   38 Fit      -0.137108
   39 Fit      -0.138224
   40 Fit      -0.140440
   41 Fit      -0.143699
   42 Fit      -0.147999
   43 Fit      -0.153096
   44 Fit      -0.135726
   45 Fit      -0.130880
   46 Fit      -0.129151
   47 Fit      -0.130441
   48 Fit      -0.134475
   49 Fit      -0.141066
   50 Fit      -0.134210
   51 Fit      -0.128864
   52 Fit      -0.128410
   53 Fit      -0.132640
   54 Fit      -0.141226
   55 Fit      -0.148925
   56 Fit      -0.144149
   57 Fit      -0.136614
   58 Fit      -0.132517
   59 Fit      -0.135110
   60 Fit      -0.147174
   61 Fit      -0.141522
   62 Fit      -0.141432
   63 Fit      -0.147924
   64 Fit      -0.141106
   65 Fit      -0.144165
   66 Fit      -0.147087
   67 Fit      -0.148188
   68 Fit      -0.153122
   69 Fit      -0.153172
   70 Fit      -0.155812
   71 Fit      -0.164694
   72 Fit      -0.148181
   73 Fit      -0.143735
   74 Fit      -0.142032
   75 Fit      -0.146604
   76 Fit      -0.153109
   77 Fit      -0.155435
   78 Fit      -0.150729
   79 Fit      -0.139695
   80 Fit      -0.137042
   81 Fit      -0.136792
   82 Fit      -0.139600
   83 Fit      -0.145597
   84 Fit      -0.153306
   85 Fit      -0.159077
   86 Fit      -0.161167
   87 Fit      -0.154284
   88 Fit      -0.145013
   89 Fit      -0.136244
   90 Fit      -0.134041
   91 Fit      -0.132624
   92 Fit      -0.132500
   93 Fit      -0.134272
   94 Fit      -0.138341
   95 Fit      -0.144784
   96 Fit      -0.153203
   97 Fit      -0.162021
   98 Fit      -0.167238
   99 Fit      -0.139409
  100 Fit      -0.133695
  101 Fit      -0.132046
  102 Fit      -0.130412
  103 Fit      -0.129368
  104 Fit      -0.129525
  105 Fit      -0.131379
  106 Fit      -0.135258
  107 Fit      -0.141343
  108 Fit      -0.149754
  109 Fit      -0.160462
  110 Fit      -0.135125
  111 Fit      -0.132417
  112 Fit      -0.131289
  113 Fit      -0.129684
  114 Fit      -0.128205
  115 Fit      -0.127396
  116 Fit      -0.127711
  117 Fit      -0.129486
  118 Fit      -0.132935
  119 Fit      -0.138186
  120 Fit      -0.145386
  121 Fit      -0.154855
  122 Fit      -0.166945
  123 Fit      -0.132443
  124 Fit      -0.132801
  125 Fit      -0.131756
  126 Fit      -0.130043
  127 Fit      -0.128308
  128 Fit      -0.127069
  129 Fit      -0.126747
  130 Fit      -0.127659
  131 Fit      -0.130006
  132 Fit      -0.133879
  133 Fit      -0.139298
  134 Fit      -0.146299
  135 Fit      -0.155033
  136 Fit      -0.132250
  137 Fit      -0.135197
  138 Fit      -0.133593
  139 Fit      -0.131525
  140 Fit      -0.129526
  141 Fit      -0.128016
  142 Fit      -0.127348
  143 Fit      -0.127790
  144 Fit      -0.129504
  145 Fit      -0.132534
  146 Fit      -0.136800
  147 Fit      -0.142091
  148 Fit      -0.147993
  149 Fit      -0.153473
  150 Fit      -0.135437
  151 Fit      -0.139751
  152 Fit      -0.136629
  153 Fit      -0.133779
  154 Fit      -0.131402
  155 Fit      -0.129745
  156 Fit      -0.129061
  157 Fit      -0.129546
  158 Fit      -0.131286
  159 Fit      -0.134215
  160 Fit      -0.138071
  161 Fit      -0.142278
  162 Fit      -0.145591
  163 Fit      -0.144981
  164 Fit      -0.146046
  165 Fit      -0.140483
  166 Fit      -0.136548
  167 Fit      -0.133774
  168 Fit      -0.132094
  169 Fit      -0.131600
  170 Fit      -0.132364
  171 Fit      -0.134335
  172 Fit      -0.137258
  173 Fit      -0.140566
  174 Fit      -0.143161
  175 Fit      -0.142907
  176 Fit      -0.143958
  177 Fit      -0.138887
  178 Fit      -0.135937
  179 Fit      -0.134653
  180 Fit      -0.134909
  181 Fit      -0.136549
  182 Fit      -0.139203
  183 Fit      -0.142241
  184 Fit      -0.144941
  185 Fit      -0.146132
  186 Fit      -0.140662
  187 Fit      -0.138071
  188 Fit      -0.137568
  189 Fit      -0.138745
  190 Fit      -0.141196
  191 Fit      -0.144730
  192 Fit      -0.145007
  193 Fit      -0.140683
  194 Fit      -0.139872
  195 Fit      -0.141432
  196 Fit      -0.156101
  197 Fit      -0.154191
  198 Fit      -0.157025
  199 Fit      -0.159714
  200 Fit      -0.158979
  201 Fit      -0.155303
  202 Fit      -0.153184
  203 Fit      -0.153100
  204 Fit      -0.155033
  205 Fit      -0.157628
  206 Fit      -0.160773
  207 Fit      -0.163672
  208 Fit      -0.164678
  209 Fit      -0.162762
  210 Fit      -0.158972
  211 Fit      -0.154986
  212 Fit      -0.152189
  213 Fit      -0.151195
  214 Fit      -0.151718
  215 Fit      -0.152524
  216 Fit      -0.153701
  217 Fit      -0.155399
  218 Fit      -0.157950
  219 Fit      -0.161227
  220 Fit      -0.164981
  221 Fit      -0.168585
  222 Fit      -0.170186
  223 Fit      -0.168658
  224 Fit      -0.165171
  225 Fit      -0.160927
  226 Fit      -0.156644
  227 Fit      -0.153133
  228 Fit      -0.150966
  229 Fit      -0.150226
  230 Fit      -0.150575
  231 Fit      -0.151479
  232 Fit      -0.152065
  233 Fit      -0.152286
  234 Fit      -0.152880
  235 Fit      -0.154488
  236 Fit      -0.157240
  237 Fit      -0.160548
  238 Fit      -0.164159
  239 Fit      -0.168705
  240 Fit      -0.173629
  241 Fit      -0.176003
  242 Fit      -0.174325
  243 Fit      -0.170876
  244 Fit      -0.167302
  245 Fit      -0.163311
  246 Fit      -0.159043
  247 Fit      -0.155208
  248 Fit      -0.152363
  249 Fit      -0.150713
  250 Fit      -0.150168
  251 Fit      -0.150429
  252 Fit      -0.151076
  253 Fit      -0.151699
  254 Fit      -0.151305
  255 Fit      -0.150280
  256 Fit      -0.149521
  257 Fit      -0.150216
  258 Fit      -0.153177
  259 Fit      -0.175809
  260 Fit      -0.177995
  261 Fit      -0.173269
  262 Fit      -0.171009
  263 Fit      -0.168934
  264 Fit      -0.165184
  265 Fit      -0.160686
  266 Fit      -0.156619
  267 Fit      -0.153565
  268 Fit      -0.151680
  269 Fit      -0.150873
  270 Fit      -0.150887
  271 Fit      -0.151345
  272 Fit      -0.151808
  273 Fit      -0.151869
  274 Fit      -0.149938
  275 Fit      -0.147216
  276 Fit      -0.144368
  277 Fit      -0.170800
  278 Fit      -0.166955
  279 Fit      -0.162168
  280 Fit      -0.158002
  281 Fit      -0.154904
  282 Fit      -0.152922
  283 Fit      -0.151943
  284 Fit      -0.151751
  285 Fit      -0.152038
  286 Fit      -0.152417
  287 Fit      -0.152451
  288 Fit      -0.151717
  289 Fit      -0.147979
  290 Fit      -0.166306
  291 Fit      -0.161235
  292 Fit      -0.157344
  293 Fit      -0.154688
  294 Fit      -0.153142
  295 Fit      -0.152515
  296 Fit      -0.152556
  297 Fit      -0.152929
  298 Fit      -0.153205
  299 Fit      -0.152860
  300 Fit      -0.151300
  301 Fit      -0.164592
  302 Fit      -0.159699
  303 Fit      -0.156137
  304 Fit      -0.153843
  305 Fit      -0.152630
  306 Fit      -0.152298
  307 Fit      -0.152599
  308 Fit      -0.153201
  309 Fit      -0.153641
  310 Fit      -0.153269
  311 Fit      -0.151175
  312 Fit      -0.155806
  313 Fit      -0.152945
  314 Fit      -0.151107
  315 Fit      -0.150281
  316 Fit      -0.150348
  317 Fit      -0.151134
  318 Fit      -0.152382
  319 Fit      -0.153679
  320 Fit      -0.144375
  321 Fit      -0.144914
  322 Fit      -0.145786
  323 Fit      -0.142605
  324 Fit      -0.151172
  325 Fit      -0.148627
  326 Fit      -0.148912
  327 Fit      -0.147395
  328 Fit      -0.145947
  329 Fit      -0.153778
  330 Fit      -0.153108
  331 Fit      -0.151875
  332 Fit      -0.150423
  333 Fit      -0.149907
  334 Fit      -0.149367
  335 Fit      -0.149009
  336 Fit      -0.148886
  337 Fit      -0.149299
  338 Fit      -0.151348
  339 Fit      -0.152911
  340 Fit      -0.153029
  341 Fit      -0.152411
  342 Fit      -0.151518
  343 Fit      -0.150636
  344 Fit      -0.149500
  345 Fit      -0.149560
  346 Fit      -0.149895
  347 Fit      -0.150414
  348 Fit      -0.151059
  349 Fit      -0.151841
  350 Fit      -0.148938
  351 Fit      -0.151476
  352 Fit      -0.152225
  353 Fit      -0.151944
  354 Fit      -0.151197
  355 Fit      -0.150389
  356 Fit      -0.149781
  357 Fit      -0.148396
  358 Fit      -0.148873
  359 Fit      -0.149715
  360 Fit      -0.150743
  361 Fit      -0.151733
  362 Fit      -0.152394
  363 Fit      -0.152220
  364 Fit      -0.146941
  365 Fit      -0.150054
  366 Fit      -0.151338
  367 Fit      -0.151352
  368 Fit      -0.150646
  369 Fit      -0.149693
  370 Fit      -0.148859
  371 Fit      -0.148389
  372 Fit      -0.147235
  373 Fit      -0.148011
  374 Fit      -0.149238
  375 Fit      -0.150680
  376 Fit      -0.152024
  377 Fit      -0.152876
  378 Fit      -0.152716
  379 Fit      -0.150883
  380 Fit      -0.147525
  381 Fit      -0.149702
  382 Fit      -0.151060
  383 Fit      -0.151325
  384 Fit      -0.150709
  385 Fit      -0.149601
  386 Fit      -0.148408
  387 Fit      -0.147477
  388 Fit      -0.147050
  389 Fit      -0.146552
  390 Fit      -0.147592
  391 Fit      -0.149201
  392 Fit      -0.151055
  393 Fit      -0.152738
  394 Fit      -0.153807
  395 Fit      -0.153916
  396 Fit      -0.153232
  397 Fit      -0.154960
  398 Fit      -0.153253
  399 Fit      -0.152806
  400 Fit      -0.152208
  401 Fit      -0.151072
  402 Fit      -0.149546
  403 Fit      -0.147995
  404 Fit      -0.146808
  405 Fit      -0.146280
  406 Fit      -0.146724
  407 Fit      -0.147925
  408 Fit      -0.149802
  409 Fit      -0.151963
  410 Fit      -0.153976
  411 Fit      -0.155552
  412 Fit      -0.156879
  413 Fit      -0.159090
  414 Fit      -0.164128
  415 Fit      -0.165735
  416 Fit      -0.159863
  417 Fit      -0.156572
  418 Fit      -0.154457
  419 Fit      -0.152529
  420 Fit      -0.150513
  421 Fit      -0.148590
  422 Fit      -0.147123
  423 Fit      -0.146443
  424 Fit      -0.147941
  425 Fit      -0.149382
  426 Fit      -0.151707
  427 Fit      -0.154360
  428 Fit      -0.156975
  429 Fit      -0.159838
  430 Fit      -0.163901
  431 Fit      -0.169127
  432 Fit      -0.172399
  433 Fit      -0.170601
  434 Fit      -0.165450
  435 Fit      -0.160491
  436 Fit      -0.156764
  437 Fit      -0.153731
  438 Fit      -0.151045
  439 Fit      -0.148910
  440 Fit      -0.147772
  441 Fit      -0.150209
  442 Fit      -0.151897
  443 Fit      -0.154763
  444 Fit      -0.158117
  445 Fit      -0.161811
  446 Fit      -0.165311
  447 Fit      -0.166211
  448 Fit      -0.163428
  449 Fit      -0.159241
  450 Fit      -0.155371
  451 Fit      -0.152234
  452 Fit      -0.150327
  453 Fit      -0.153371
  454 Fit      -0.155887
  455 Fit      -0.159819
  456 Fit      -0.161446
  457 Fit      -0.158426
  458 Fit      -0.154510
  459 Fit      -0.157185
  460 Fit      -0.146012
  461 Fit      -0.141043
  462 Fit      -0.145987
  463 Fit      -0.141029
  464 Fit      -0.147314
  465 Fit      -0.147690
  466 Fit      -0.144362
  467 Fit      -0.148001
  468 Fit      -0.146467
  469 Fit      -0.141492
  470 Fit      -0.148611
  471 Fit      -0.151508
  472 Fit      -0.151434
  473 Fit      -0.148918
  474 Fit      -0.150448
  475 Fit      -0.151855
  476 Fit      -0.150452
  477 Fit      -0.147295
  478 Fit      -0.153377
  479 Fit      -0.155552
  480 Fit      -0.156566
  481 Fit      -0.156030
  482 Fit      -0.155464
  483 Fit      -0.153439
  484 Fit      -0.155593
  485 Fit      -0.156608
  486 Fit      -0.156089
  487 Fit      -0.155556
  488 Fit      -0.159867
  489 Fit      -0.160204
  490 Fit      -0.161030
  491 Fit      -0.161334
  492 Fit      -0.162376
  493 Fit      -0.166973
  494 Fit      -0.159943
  495 Fit      -0.160257
  496 Fit      -0.161078
  497 Fit      -0.161392
  498 Fit      -0.162455
  499 Fit      -0.167073
  500 Fit      -0.173716
  501 Fit      -0.168967
  502 Fit      -0.165214
  503 Fit      -0.164422
  504 Fit      -0.164854
  505 Fit      -0.165635
  506 Fit      -0.167879
  507 Fit      -0.172125
  508 Fit      -0.174628
  509 Fit      -0.171641
  510 Fit      -0.166768
  511 Fit      -0.164590
  512 Fit      -0.164638
  513 Fit      -0.165212
  514 Fit      -0.166526
  515 Fit      -0.169920
  516 Fit      -0.173971
  517 Fit      -0.170413
  518 Fit      -0.168554
  519 Fit      -0.167479
  520 Fit      -0.167682
  521 Fit      -0.168680
  522 Fit      -0.170296
  523 Fit      -0.170432
  524 Fit      -0.168591
  525 Fit      -0.167516
  526 Fit      -0.167716
  527 Fit      -0.168710
  528 Fit      -0.170308
  529 Fit      -0.169798
  530 Fit      -0.169228
  531 Fit      -0.169541
  532 Fit      -0.169806
  533 Fit      -0.169247
  534 Fit      -0.169554
  535 Fit      -0.169799
  536 Fit      -0.163578
  537 Fit      -0.170411
  538 Fit      -0.144208
  539 Fit      -0.140714
  540 Fit      -0.137647
  541 Fit      -0.132866
  542 Fit      -0.134425
  543 Fit      -0.147239
  544 Fit      -0.138379
  545 Fit      -0.131741
  546 Fit      -0.128418
  547 Fit      -0.129967
  548 Fit      -0.149160
  549 Fit      -0.143352
  550 Fit      -0.137737
  551 Fit      -0.132767
  552 Fit      -0.129598
  553 Fit      -0.130099
  554 Fit      -0.152181
  555 Fit      -0.151773
  556 Fit      -0.151427
  557 Fit      -0.150726
  558 Fit      -0.149021
  559 Fit      -0.141617
  560 Fit      -0.137415
  561 Fit      -0.135308
  562 Fit      -0.141434
  563 Fit      -0.138264
  564 Fit      -0.137135
  565 Fit      -0.137607
  566 Fit      -0.139271
  567 Fit      -0.141966
  568 Fit      -0.145700
  569 Fit      -0.150403
  570 Fit      -0.144306
  571 Fit      -0.135758
  572 Fit      -0.130912
  573 Fit      -0.129173
  574 Fit      -0.130439
  575 Fit      -0.134430
  576 Fit      -0.140964
  577 Fit      -0.134208
  578 Fit      -0.128839
  579 Fit      -0.128351
  580 Fit      -0.132531
  581 Fit      -0.141053
  582 Fit      -0.136564
  583 Fit      -0.132427
  584 Fit      -0.134966
  585 Fit      -0.143678
  586 Fit      -0.149048
  587 Fit      -0.144128
  588 Fit      -0.140986
  589 Fit      -0.143984
  590 Fit      -0.147330
  591 Fit      -0.141607
  592 Fit      -0.141474
  593 Fit      -0.147943
  594 Fit      -0.151471
  595 Fit      -0.150243
  596 Fit      -0.146517
  597 Fit      -0.155970
  598 Fit      -0.164817
  599 Fit      -0.148177
  600 Fit      -0.153120
  601 Fit      -0.155414
  602 Fit      -0.150709
  603 Fit      -0.143733
  604 Fit      -0.142034
  605 Fit      -0.146613
  606 Fit      -0.159127
  607 Fit      -0.161188
  608 Fit      -0.154254
  609 Fit      -0.145013
  610 Fit      -0.139700
  611 Fit      -0.137048
  612 Fit      -0.136797
  613 Fit      -0.139608
  614 Fit      -0.145612
  615 Fit      -0.153339
  616 Fit      -0.167358
  617 Fit      -0.139427
  618 Fit      -0.136259
  619 Fit      -0.134054
  620 Fit      -0.132635
  621 Fit      -0.132510
  622 Fit      -0.134281
  623 Fit      -0.138351
  624 Fit      -0.144802
  625 Fit      -0.153240
  626 Fit      -0.162095
  627 Fit      -0.135151
  628 Fit      -0.133715
  629 Fit      -0.132066
  630 Fit      -0.130431
  631 Fit      -0.129386
  632 Fit      -0.129541
  633 Fit      -0.131393
  634 Fit      -0.135271
  635 Fit      -0.141360
  636 Fit      -0.149784
  637 Fit      -0.160522
  638 Fit      -0.132464
  639 Fit      -0.132439
  640 Fit      -0.131314
  641 Fit      -0.129711
  642 Fit      -0.128232
  643 Fit      -0.127422
  644 Fit      -0.127734
  645 Fit      -0.129506
  646 Fit      -0.132952
  647 Fit      -0.138203
  648 Fit      -0.145410
  649 Fit      -0.154896
  650 Fit      -0.167029
  651 Fit      -0.132260
  652 Fit      -0.132824
  653 Fit      -0.131787
  654 Fit      -0.130079
  655 Fit      -0.128345
  656 Fit      -0.127105
  657 Fit      -0.126780
  658 Fit      -0.127689
  659 Fit      -0.130032
  660 Fit      -0.133901
  661 Fit      -0.139319
  662 Fit      -0.146323
  663 Fit      -0.155073
  664 Fit      -0.135594
  665 Fit      -0.134531
  666 Fit      -0.132623
  667 Fit      -0.130535
  668 Fit      -0.128732
  669 Fit      -0.127603
  670 Fit      -0.127458
  671 Fit      -0.128518
  672 Fit      -0.130888
  673 Fit      -0.134549
  674 Fit      -0.139359
  675 Fit      -0.145026
  676 Fit      -0.150933
  677 Fit      -0.155159
  678 Fit      -0.139800
  679 Fit      -0.136684
  680 Fit      -0.133836
  681 Fit      -0.131458
  682 Fit      -0.129799
  683 Fit      -0.129111
  684 Fit      -0.129590
  685 Fit      -0.131323
  686 Fit      -0.134246
  687 Fit      -0.138095
  688 Fit      -0.142294
  689 Fit      -0.145596
  690 Fit      -0.144963
  691 Fit      -0.146133
  692 Fit      -0.140560
  693 Fit      -0.136618
  694 Fit      -0.133838
  695 Fit      -0.132153
  696 Fit      -0.131652
  697 Fit      -0.132409
  698 Fit      -0.134372
  699 Fit      -0.137285
  700 Fit      -0.140582
  701 Fit      -0.143157
  702 Fit      -0.142861
  703 Fit      -0.144059
  704 Fit      -0.138967
  705 Fit      -0.136004
  706 Fit      -0.134709
  707 Fit      -0.134956
  708 Fit      -0.136585
  709 Fit      -0.139227
  710 Fit      -0.142248
  711 Fit      -0.144916
  712 Fit      -0.146246
  713 Fit      -0.140742
  714 Fit      -0.138131
  715 Fit      -0.137614
  716 Fit      -0.138778
  717 Fit      -0.141214
  718 Fit      -0.144729
  719 Fit      -0.145101
  720 Fit      -0.140740
  721 Fit      -0.139906
  722 Fit      -0.141446
  723 Fit      -0.151158
  724 Fit      -0.148615
  725 Fit      -0.145786
  726 Fit      -0.142626
  727 Fit      -0.153722
  728 Fit      -0.153542
  729 Fit      -0.152534
  730 Fit      -0.151162
  731 Fit      -0.149672
  732 Fit      -0.148162
  733 Fit      -0.146674
  734 Fit      -0.145388
  735 Fit      -0.151329
  736 Fit      -0.152908
  737 Fit      -0.153034
  738 Fit      -0.152418
  739 Fit      -0.151525
  740 Fit      -0.150642
  741 Fit      -0.149913
  742 Fit      -0.149377
  743 Fit      -0.149027
  744 Fit      -0.148914
  745 Fit      -0.149336
  746 Fit      -0.146628
  747 Fit      -0.150460
  748 Fit      -0.152016
  749 Fit      -0.152181
  750 Fit      -0.151612
  751 Fit      -0.150794
  752 Fit      -0.150059
  753 Fit      -0.149603
  754 Fit      -0.149495
  755 Fit      -0.149705
  756 Fit      -0.150147
  757 Fit      -0.150738
  758 Fit      -0.151454
  759 Fit      -0.152280
  760 Fit      -0.144465
  761 Fit      -0.148708
  762 Fit      -0.150871
  763 Fit      -0.151469
  764 Fit      -0.151070
  765 Fit      -0.150192
  766 Fit      -0.149259
  767 Fit      -0.148580
  768 Fit      -0.148336
  769 Fit      -0.148581
  770 Fit      -0.149258
  771 Fit      -0.150220
  772 Fit      -0.151265
  773 Fit      -0.152142
  774 Fit      -0.152485
  775 Fit      -0.151544
  776 Fit      -0.147440
  777 Fit      -0.149647
  778 Fit      -0.151033
  779 Fit      -0.151320
  780 Fit      -0.150719
  781 Fit      -0.149618
  782 Fit      -0.148426
  783 Fit      -0.147492
  784 Fit      -0.147057
  785 Fit      -0.147236
  786 Fit      -0.148007
  787 Fit      -0.149232
  788 Fit      -0.150677
  789 Fit      -0.152028
  790 Fit      -0.152893
  791 Fit      -0.152752
  792 Fit      -0.150950
  793 Fit      -0.153754
  794 Fit      -0.152953
  795 Fit      -0.152550
  796 Fit      -0.151706
  797 Fit      -0.150349
  798 Fit      -0.148766
  799 Fit      -0.147351
  800 Fit      -0.146459
  801 Fit      -0.146317
  802 Fit      -0.146980
  803 Fit      -0.148334
  804 Fit      -0.150114
  805 Fit      -0.151943
  806 Fit      -0.153387
  807 Fit      -0.154022
  808 Fit      -0.153676
  809 Fit      -0.153089
  810 Fit      -0.165717
  811 Fit      -0.159837
  812 Fit      -0.156550
  813 Fit      -0.154446
  814 Fit      -0.152532
  815 Fit      -0.150524
  816 Fit      -0.148604
  817 Fit      -0.147134
  818 Fit      -0.146448
  819 Fit      -0.146721
  820 Fit      -0.147916
  821 Fit      -0.149791
  822 Fit      -0.151956
  823 Fit      -0.153980
  824 Fit      -0.155572
  825 Fit      -0.156916
  826 Fit      -0.159135
  827 Fit      -0.164162
  828 Fit      -0.172141
  829 Fit      -0.168179
  830 Fit      -0.162804
  831 Fit      -0.158488
  832 Fit      -0.155195
  833 Fit      -0.152349
  834 Fit      -0.149891
  835 Fit      -0.148198
  836 Fit      -0.147687
  837 Fit      -0.148513
  838 Fit      -0.150459
  839 Fit      -0.153020
  840 Fit      -0.155678
  841 Fit      -0.158339
  842 Fit      -0.161684
  843 Fit      -0.166502
  844 Fit      -0.171284
  845 Fit      -0.166208
  846 Fit      -0.163422
  847 Fit      -0.159237
  848 Fit      -0.155372
  849 Fit      -0.152239
  850 Fit      -0.150329
  851 Fit      -0.150205
  852 Fit      -0.151890
  853 Fit      -0.154758
  854 Fit      -0.158119
  855 Fit      -0.161816
  856 Fit      -0.165312
  857 Fit      -0.161444
  858 Fit      -0.158424
  859 Fit      -0.154510
  860 Fit      -0.153368
  861 Fit      -0.155883
  862 Fit      -0.159818
  863 Fit      -0.157182
  864 Fit      -0.156115
  865 Fit      -0.158996
  866 Fit      -0.155313
  867 Fit      -0.153190
  868 Fit      -0.154200
  869 Fit      -0.157037
  870 Fit      -0.159732
  871 Fit      -0.162780
  872 Fit      -0.158981
  873 Fit      -0.154988
  874 Fit      -0.152186
  875 Fit      -0.151192
  876 Fit      -0.151717
  877 Fit      -0.153102
  878 Fit      -0.155037
  879 Fit      -0.157635
  880 Fit      -0.160785
  881 Fit      -0.163690
  882 Fit      -0.164699
  883 Fit      -0.167075
  884 Fit      -0.163102
  885 Fit      -0.158735
  886 Fit      -0.154736
  887 Fit      -0.151851
  888 Fit      -0.150417
  889 Fit      -0.150284
  890 Fit      -0.150981
  891 Fit      -0.151991
  892 Fit      -0.153074
  893 Fit      -0.154452
  894 Fit      -0.156564
  895 Fit      -0.159518
  896 Fit      -0.163066
  897 Fit      -0.166907
  898 Fit      -0.169788
  899 Fit      -0.169796
  900 Fit      -0.170877
  901 Fit      -0.167289
  902 Fit      -0.163292
  903 Fit      -0.159022
  904 Fit      -0.155186
  905 Fit      -0.152340
  906 Fit      -0.150689
  907 Fit      -0.150145
  908 Fit      -0.150408
  909 Fit      -0.151060
  910 Fit      -0.151688
  911 Fit      -0.152056
  912 Fit      -0.152277
  913 Fit      -0.152867
  914 Fit      -0.154473
  915 Fit      -0.157231
  916 Fit      -0.160548
  917 Fit      -0.164160
  918 Fit      -0.168708
  919 Fit      -0.173644
  920 Fit      -0.176029
  921 Fit      -0.174343
  922 Fit      -0.171849
  923 Fit      -0.170110
  924 Fit      -0.167197
  925 Fit      -0.162902
  926 Fit      -0.158515
  927 Fit      -0.154916
  928 Fit      -0.152446
  929 Fit      -0.151123
  930 Fit      -0.150768
  931 Fit      -0.151060
  932 Fit      -0.151582
  933 Fit      -0.151894
  934 Fit      -0.151657
  935 Fit      -0.150810
  936 Fit      -0.149783
  937 Fit      -0.149583
  938 Fit      -0.151387
  939 Fit      -0.171924
  940 Fit      -0.175433
  941 Fit      -0.170711
  942 Fit      -0.166888
  943 Fit      -0.162118
  944 Fit      -0.157962
  945 Fit      -0.154868
  946 Fit      -0.152886
  947 Fit      -0.151908
  948 Fit      -0.151717
  949 Fit      -0.152008
  950 Fit      -0.152393
  951 Fit      -0.152435
  952 Fit      -0.151710
  953 Fit      -0.149936
  954 Fit      -0.147210
  955 Fit      -0.144346
  956 Fit      -0.168941
  957 Fit      -0.163585
  958 Fit      -0.159087
  959 Fit      -0.155832
  960 Fit      -0.153754
  961 Fit      -0.152694
  962 Fit      -0.152438
  963 Fit      -0.152694
  964 Fit      -0.153084
  965 Fit      -0.153129
  966 Fit      -0.152263
  967 Fit      -0.149893
  968 Fit      -0.145587
  969 Fit      -0.161940
  970 Fit      -0.157715
  971 Fit      -0.154818
  972 Fit      -0.153091
  973 Fit      -0.152344
  974 Fit      -0.152363
  975 Fit      -0.152861
  976 Fit      -0.153452
  977 Fit      -0.153589
  978 Fit      -0.152505
  979 Fit      -0.155782
  980 Fit      -0.152940
  981 Fit      -0.151107
  982 Fit      -0.150279
  983 Fit      -0.150340
  984 Fit      -0.151118
  985 Fit      -0.152358
  986 Fit      -0.153652
  987 Fit      -0.144495
  988 Fit      -0.144557
  989 Fit      -0.145571
  990 Fit      -0.159283
  991 Fit      -0.138579
  992 Fit      -0.133054
  993 Fit      -0.132685
  994 Fit      -0.130741
  995 Fit      -0.127957
  996 Fit      -0.128160
  997 Fit      -0.135941
  998 Fit      -0.127408
  999 Fit      -0.125293
 1000 Fit      -0.125514
 1001 Fit      -0.136247
 1002 Fit      -0.131231
 1003 Fit      -0.127551
 1004 Fit      -0.125614
 1005 Fit      -0.125400
 1006 Fit      -0.141606
 1007 Fit      -0.137769
 1008 Fit      -0.134030
 1009 Fit      -0.130526
 1010 Fit      -0.131528
 1011 Fit      -0.129246
 1012 Fit      -0.128157
 1013 Fit      -0.129159
 1014 Fit      -0.142795
 1015 Fit      -0.141616
 1016 Fit      -0.140308
 1017 Fit      -0.138711
 1018 Fit      -0.136674
 1019 Fit      -0.134192
 1020 Fit      -0.133781
 1021 Fit      -0.132845
 1022 Fit      -0.139882
 1023 Fit      -0.137740
 1024 Fit      -0.136879
 1025 Fit      -0.136803
 1026 Fit      -0.137252
 1027 Fit      -0.138111
 1028 Fit      -0.139326
 1029 Fit      -0.140810
 1030 Fit      -0.142357
 1031 Fit      -0.138447
 1032 Fit      -0.133654
 1033 Fit      -0.131074
 1034 Fit      -0.130229
 1035 Fit      -0.130769
 1036 Fit      -0.132461
 1037 Fit      -0.135152
 1038 Fit      -0.138682
 1039 Fit      -0.137857
 1040 Fit      -0.132037
 1041 Fit      -0.128465
 1042 Fit      -0.127164
 1043 Fit      -0.127925
 1044 Fit      -0.130530
 1045 Fit      -0.134774
 1046 Fit      -0.134142
 1047 Fit      -0.129434
 1048 Fit      -0.127447
 1049 Fit      -0.128130
 1050 Fit      -0.131293
 1051 Fit      -0.136689
 1052 Fit      -0.139511
 1053 Fit      -0.138224
 1054 Fit      -0.137185
 1055 Fit      -0.132029
 1056 Fit      -0.130440
 1057 Fit      -0.132312
 1058 Fit      -0.138949
 1059 Fit      -0.136489
 1060 Fit      -0.136695
 1061 Fit      -0.139930
 1062 Fit      -0.137867
 1063 Fit      -0.135682
 1064 Fit      -0.138010
 1065 Fit      -0.140103
 1066 Fit      -0.139848
 1067 Fit      -0.143964
 1068 Fit      -0.145173
 1069 Fit      -0.142273
 1070 Fit      -0.145326
 1071 Fit      -0.145472
 1072 Fit      -0.149641
 1073 Fit      -0.150902
 1074 Fit      -0.156738
 1075 Fit      -0.141071
 1076 Fit      -0.136669
 1077 Fit      -0.134660
 1078 Fit      -0.139170
 1079 Fit      -0.146220
 1080 Fit      -0.149313
 1081 Fit      -0.144330
 1082 Fit      -0.132801
 1083 Fit      -0.129745
 1084 Fit      -0.129535
 1085 Fit      -0.132321
 1086 Fit      -0.138113
 1087 Fit      -0.145861
 1088 Fit      -0.152763
 1089 Fit      -0.139212
 1090 Fit      -0.129492
 1091 Fit      -0.126700
 1092 Fit      -0.125327
 1093 Fit      -0.125445
 1094 Fit      -0.127340
 1095 Fit      -0.131293
 1096 Fit      -0.137469
 1097 Fit      -0.145718
 1098 Fit      -0.154924
 1099 Fit      -0.134244
 1100 Fit      -0.126891
 1101 Fit      -0.124537
 1102 Fit      -0.122925
 1103 Fit      -0.122145
 1104 Fit      -0.122435
 1105 Fit      -0.124065
 1106 Fit      -0.127289
 1107 Fit      -0.132357
 1108 Fit      -0.139556
 1109 Fit      -0.149183
 1110 Fit      -0.130304
 1111 Fit      -0.125219
 1112 Fit      -0.123255
 1113 Fit      -0.121613
 1114 Fit      -0.120446
 1115 Fit      -0.119980
 1116 Fit      -0.120453
 1117 Fit      -0.122087
 1118 Fit      -0.125087
 1119 Fit      -0.129674
 1120 Fit      -0.136168
 1121 Fit      -0.145128
 1122 Fit      -0.127557
 1123 Fit      -0.124737
 1124 Fit      -0.122958
 1125 Fit      -0.121263
 1126 Fit      -0.119861
 1127 Fit      -0.118969
 1128 Fit      -0.118801
 1129 Fit      -0.119549
 1130 Fit      -0.121383
 1131 Fit      -0.124459
 1132 Fit      -0.128957
 1133 Fit      -0.135170
 1134 Fit      -0.143673
 1135 Fit      -0.126427
 1136 Fit      -0.125724
 1137 Fit      -0.123763
 1138 Fit      -0.121858
 1139 Fit      -0.120216
 1140 Fit      -0.119025
 1141 Fit      -0.118462
 1142 Fit      -0.118689
 1143 Fit      -0.119847
 1144 Fit      -0.122053
 1145 Fit      -0.125412
 1146 Fit      -0.130055
 1147 Fit      -0.136211
 1148 Fit      -0.144356
 1149 Fit      -0.128438
 1150 Fit      -0.125758
 1151 Fit      -0.123382
 1152 Fit      -0.121409
 1153 Fit      -0.119947
 1154 Fit      -0.119114
 1155 Fit      -0.119033
 1156 Fit      -0.119808
 1157 Fit      -0.121524
 1158 Fit      -0.124237
 1159 Fit      -0.127986
 1160 Fit      -0.132801
 1161 Fit      -0.138710
 1162 Fit      -0.145692
 1163 Fit      -0.133021
 1164 Fit      -0.128826
 1165 Fit      -0.125591
 1166 Fit      -0.123135
 1167 Fit      -0.121413
 1168 Fit      -0.120461
 1169 Fit      -0.120350
 1170 Fit      -0.121146
 1171 Fit      -0.122892
 1172 Fit      -0.125591
 1173 Fit      -0.129185
 1174 Fit      -0.133511
 1175 Fit      -0.138139
 1176 Fit      -0.132784
 1177 Fit      -0.128363
 1178 Fit      -0.125328
 1179 Fit      -0.123377
 1180 Fit      -0.122418
 1181 Fit      -0.122444
 1182 Fit      -0.123466
 1183 Fit      -0.125464
 1184 Fit      -0.128352
 1185 Fit      -0.131913
 1186 Fit      -0.135645
 1187 Fit      -0.138338
 1188 Fit      -0.137079
 1189 Fit      -0.131304
 1190 Fit      -0.127724
 1191 Fit      -0.125684
 1192 Fit      -0.124926
 1193 Fit      -0.125349
 1194 Fit      -0.126880
 1195 Fit      -0.129407
 1196 Fit      -0.132711
 1197 Fit      -0.136384
 1198 Fit      -0.140794
 1199 Fit      -0.133881
 1200 Fit      -0.130053
 1201 Fit      -0.128283
 1202 Fit      -0.128145
 1203 Fit      -0.129433
 1204 Fit      -0.131997
 1205 Fit      -0.135725
 1206 Fit      -0.140766
 1207 Fit      -0.135591
 1208 Fit      -0.132281
 1209 Fit      -0.131611
 1210 Fit      -0.133067
 1211 Fit      -0.136532
 1212 Fit      -0.135737
 1213 Fit      -0.143043
 1214 Fit      -0.141075
 1215 Fit      -0.143638
 1216 Fit      -0.146252
 1217 Fit      -0.145772
 1218 Fit      -0.142592
 1219 Fit      -0.140493
 1220 Fit      -0.139754
 1221 Fit      -0.141587
 1222 Fit      -0.144210
 1223 Fit      -0.147333
 1224 Fit      -0.150087
 1225 Fit      -0.151010
 1226 Fit      -0.149312
 1227 Fit      -0.145964
 1228 Fit      -0.142441
 1229 Fit      -0.139838
 1230 Fit      -0.138635
 1231 Fit      -0.138719
 1232 Fit      -0.138926
 1233 Fit      -0.140301
 1234 Fit      -0.142336
 1235 Fit      -0.145151
 1236 Fit      -0.148564
 1237 Fit      -0.152254
 1238 Fit      -0.155490
 1239 Fit      -0.156742
 1240 Fit      -0.155174
 1241 Fit      -0.151777
 1242 Fit      -0.147767
 1243 Fit      -0.143871
 1244 Fit      -0.140674
 1245 Fit      -0.138547
 1246 Fit      -0.137543
 1247 Fit      -0.137458
 1248 Fit      -0.137989
 1249 Fit      -0.138414
 1250 Fit      -0.139267
 1251 Fit      -0.140659
 1252 Fit      -0.142910
 1253 Fit      -0.146014
 1254 Fit      -0.149626
 1255 Fit      -0.153607
 1256 Fit      -0.158114
 1257 Fit      -0.162371
 1258 Fit      -0.164149
 1259 Fit      -0.162286
 1260 Fit      -0.158416
 1261 Fit      -0.154216
 1262 Fit      -0.149979
 1263 Fit      -0.145876
 1264 Fit      -0.142316
 1265 Fit      -0.139622
 1266 Fit      -0.137901
 1267 Fit      -0.137076
 1268 Fit      -0.136948
 1269 Fit      -0.137259
 1270 Fit      -0.137782
 1271 Fit      -0.138056
 1272 Fit      -0.138315
 1273 Fit      -0.138999
 1274 Fit      -0.140606
 1275 Fit      -0.143454
 1276 Fit      -0.147260
 1277 Fit      -0.165303
 1278 Fit      -0.165426
 1279 Fit      -0.160795
 1280 Fit      -0.156849
 1281 Fit      -0.152664
 1282 Fit      -0.148387
 1283 Fit      -0.144535
 1284 Fit      -0.141438
 1285 Fit      -0.139208
 1286 Fit      -0.137816
 1287 Fit      -0.137145
 1288 Fit      -0.137020
 1289 Fit      -0.137228
 1290 Fit      -0.137560
 1291 Fit      -0.137851
 1292 Fit      -0.137757
 1293 Fit      -0.137319
 1294 Fit      -0.137226
 1295 Fit      -0.155032
 1296 Fit      -0.150149
 1297 Fit      -0.145888
 1298 Fit      -0.142539
 1299 Fit      -0.140129
 1300 Fit      -0.138581
 1301 Fit      -0.137763
 1302 Fit      -0.137511
 1303 Fit      -0.137626
 1304 Fit      -0.137892
 1305 Fit      -0.138095
 1306 Fit      -0.138068
 1307 Fit      -0.137587
 1308 Fit      -0.136233
 1309 Fit      -0.153903
 1310 Fit      -0.148649
 1311 Fit      -0.144630
 1312 Fit      -0.141743
 1313 Fit      -0.139831
 1314 Fit      -0.138733
 1315 Fit      -0.138280
 1316 Fit      -0.138288
 1317 Fit      -0.138548
 1318 Fit      -0.138829
 1319 Fit      -0.138889
 1320 Fit      -0.138514
 1321 Fit      -0.153441
 1322 Fit      -0.147949
 1323 Fit      -0.144099
 1324 Fit      -0.141513
 1325 Fit      -0.139927
 1326 Fit      -0.139140
 1327 Fit      -0.138969
 1328 Fit      -0.139222
 1329 Fit      -0.139680
 1330 Fit      -0.140086
 1331 Fit      -0.140141
 1332 Fit      -0.139524
 1333 Fit      -0.147645
 1334 Fit      -0.143760
 1335 Fit      -0.141302
 1336 Fit      -0.139923
 1337 Fit      -0.139394
 1338 Fit      -0.139531
 1339 Fit      -0.140149
 1340 Fit      -0.141032
 1341 Fit      -0.141900
 1342 Fit      -0.147284
 1343 Fit      -0.143114
 1344 Fit      -0.140605
 1345 Fit      -0.139337
 1346 Fit      -0.139066
 1347 Fit      -0.139626
 1348 Fit      -0.140872
 1349 Fit      -0.142637
 1350 Fit      -0.136094
 1351 Fit      -0.139731
 1352 Fit      -0.137752
 1353 Fit      -0.136295
 1354 Fit      -0.135706
 1355 Fit      -0.135560
 1356 Fit      -0.136157
 1357 Fit      -0.142640
 1358 Fit      -0.141178
 1359 Fit      -0.139711
 1360 Fit      -0.138358
 1361 Fit      -0.137200
 1362 Fit      -0.135997
 1363 Fit      -0.135837
 1364 Fit      -0.136039
 1365 Fit      -0.136727
 1366 Fit      -0.138178
 1367 Fit      -0.140733
 1368 Fit      -0.140060
 1369 Fit      -0.139113
 1370 Fit      -0.138104
 1371 Fit      -0.137186
 1372 Fit      -0.136462
 1373 Fit      -0.135324
 1374 Fit      -0.135457
 1375 Fit      -0.135923
 1376 Fit      -0.136750
 1377 Fit      -0.138012
 1378 Fit      -0.139875
 1379 Fit      -0.138447
 1380 Fit      -0.139111
 1381 Fit      -0.138980
 1382 Fit      -0.138373
 1383 Fit      -0.137548
 1384 Fit      -0.136704
 1385 Fit      -0.135991
 1386 Fit      -0.135511
 1387 Fit      -0.134491
 1388 Fit      -0.134837
 1389 Fit      -0.135518
 1390 Fit      -0.136505
 1391 Fit      -0.137770
 1392 Fit      -0.139294
 1393 Fit      -0.141039
 1394 Fit      -0.137048
 1395 Fit      -0.138018
 1396 Fit      -0.138226
 1397 Fit      -0.137859
 1398 Fit      -0.137140
 1399 Fit      -0.136281
 1400 Fit      -0.135466
 1401 Fit      -0.134839
 1402 Fit      -0.134496
 1403 Fit      -0.133739
 1404 Fit      -0.134247
 1405 Fit      -0.135112
 1406 Fit      -0.136267
 1407 Fit      -0.137625
 1408 Fit      -0.139079
 1409 Fit      -0.140483
 1410 Fit      -0.141608
 1411 Fit      -0.138212
 1412 Fit      -0.138263
 1413 Fit      -0.137949
 1414 Fit      -0.137272
 1415 Fit      -0.136361
 1416 Fit      -0.135389
 1417 Fit      -0.134523
 1418 Fit      -0.133902
 1419 Fit      -0.133625
 1420 Fit      -0.133297
 1421 Fit      -0.133933
 1422 Fit      -0.134964
 1423 Fit      -0.136293
 1424 Fit      -0.137793
 1425 Fit      -0.139321
 1426 Fit      -0.140720
 1427 Fit      -0.141868
 1428 Fit      -0.140502
 1429 Fit      -0.139401
 1430 Fit      -0.138436
 1431 Fit      -0.137368
 1432 Fit      -0.136199
 1433 Fit      -0.135047
 1434 Fit      -0.134061
 1435 Fit      -0.133382
 1436 Fit      -0.133111
 1437 Fit      -0.133350
 1438 Fit      -0.134094
 1439 Fit      -0.135290
 1440 Fit      -0.136813
 1441 Fit      -0.138510
 1442 Fit      -0.140239
 1443 Fit      -0.141932
 1444 Fit      -0.143748
 1445 Fit      -0.146356
 1446 Fit      -0.144982
 1447 Fit      -0.142071
 1448 Fit      -0.140088
 1449 Fit      -0.138432
 1450 Fit      -0.136888
 1451 Fit      -0.135464
 1452 Fit      -0.134276
 1453 Fit      -0.133463
 1454 Fit      -0.133135
 1455 Fit      -0.134025
 1456 Fit      -0.134926
 1457 Fit      -0.136418
 1458 Fit      -0.138314
 1459 Fit      -0.140439
 1460 Fit      -0.142753
 1461 Fit      -0.145549
 1462 Fit      -0.149627
 1463 Fit      -0.156128
 1464 Fit      -0.149427
 1465 Fit      -0.144839
 1466 Fit      -0.141681
 1467 Fit      -0.139252
 1468 Fit      -0.137218
 1469 Fit      -0.135549
 1470 Fit      -0.134371
 1471 Fit      -0.133834
 1472 Fit      -0.135383
 1473 Fit      -0.136456
 1474 Fit      -0.138326
 1475 Fit      -0.140752
 1476 Fit      -0.143643
 1477 Fit      -0.147260
 1478 Fit      -0.151999
 1479 Fit      -0.157170
 1480 Fit      -0.159989
 1481 Fit      -0.158152
 1482 Fit      -0.153105
 1483 Fit      -0.147829
 1484 Fit      -0.143638
 1485 Fit      -0.140442
 1486 Fit      -0.137966
 1487 Fit      -0.136196
 1488 Fit      -0.135289
 1489 Fit      -0.137426
 1490 Fit      -0.138731
 1491 Fit      -0.141177
 1492 Fit      -0.144442
 1493 Fit      -0.148317
 1494 Fit      -0.151831
 1495 Fit      -0.152635
 1496 Fit      -0.149888
 1497 Fit      -0.145706
 1498 Fit      -0.141945
 1499 Fit      -0.139150
 1500 Fit      -0.137564
 1501 Fit      -0.140125
 1502 Fit      -0.142253
 1503 Fit      -0.145937
 1504 Fit      -0.147525
 1505 Fit      -0.144679
 1506 Fit      -0.141141
 1507 Fit      -0.143464
 1508 Fit      -0.139832
 1509 Fit      -0.137218
 1510 Fit      -0.140865
 1511 Fit      -0.138619
 1512 Fit      -0.141488
 1513 Fit      -0.140572
 1514 Fit      -0.139289
 1515 Fit      -0.141680
 1516 Fit      -0.141136
 1517 Fit      -0.139966
 1518 Fit      -0.143531
 1519 Fit      -0.143445
 1520 Fit      -0.143239
 1521 Fit      -0.143643
 1522 Fit      -0.143592
 1523 Fit      -0.143549
 1524 Fit      -0.143375
 1525 Fit      -0.143338
 1526 Fit      -0.147463
 1527 Fit      -0.146306
 1528 Fit      -0.146187
 1529 Fit      -0.146525
 1530 Fit      -0.147947
 1531 Fit      -0.146724
 1532 Fit      -0.146229
 1533 Fit      -0.146334
 1534 Fit      -0.147076
 1535 Fit      -0.149657
 1536 Fit      -0.151410
 1537 Fit      -0.149303
 1538 Fit      -0.148874
 1539 Fit      -0.149413
 1540 Fit      -0.151284
 1541 Fit      -0.155603
 1542 Fit      -0.153618
 1543 Fit      -0.150125
 1544 Fit      -0.148996
 1545 Fit      -0.149071
 1546 Fit      -0.150174
 1547 Fit      -0.153129
 1548 Fit      -0.161725
 1549 Fit      -0.158020
 1550 Fit      -0.153975
 1551 Fit      -0.151737
 1552 Fit      -0.151228
 1553 Fit      -0.152043
 1554 Fit      -0.154395
 1555 Fit      -0.158290
 1556 Fit      -0.161799
 1557 Fit      -0.161763
 1558 Fit      -0.158078
 1559 Fit      -0.154031
 1560 Fit      -0.151783
 1561 Fit      -0.151268
 1562 Fit      -0.152084
 1563 Fit      -0.154437
 1564 Fit      -0.158321
 1565 Fit      -0.161800
 1566 Fit      -0.156919
 1567 Fit      -0.155005
 1568 Fit      -0.153286
 1569 Fit      -0.153133
 1570 Fit      -0.154517
 1571 Fit      -0.156566
 1572 Fit      -0.156937
 1573 Fit      -0.155037
 1574 Fit      -0.153318
 1575 Fit      -0.153162
 1576 Fit      -0.154540
 1577 Fit      -0.156573
 1578 Fit      -0.154985
 1579 Fit      -0.154183
 1580 Fit      -0.154498
 1581 Fit      -0.154992
 1582 Fit      -0.154200
 1583 Fit      -0.154508
 1584 Fit      -0.154481
 1585 Fit      -0.159287
 1586 Fit      -0.138555
 1587 Fit      -0.134543
 1588 Fit      -0.132403
 1589 Fit      -0.133076
 1590 Fit      -0.129005
 1591 Fit      -0.127649
 1592 Fit      -0.133630
 1593 Fit      -0.129150
 1594 Fit      -0.126106
 1595 Fit      -0.125077
 1596 Fit      -0.126702
 1597 Fit      -0.141637
 1598 Fit      -0.137784
 1599 Fit      -0.134039
 1600 Fit      -0.130535
 1601 Fit      -0.127566
 1602 Fit      -0.125632
 1603 Fit      -0.125416
 1604 Fit      -0.142236
 1605 Fit      -0.140986
 1606 Fit      -0.139544
 1607 Fit      -0.137741
 1608 Fit      -0.135478
 1609 Fit      -0.132868
 1610 Fit      -0.130320
 1611 Fit      -0.128530
 1612 Fit      -0.128371
 1613 Fit      -0.139938
 1614 Fit      -0.137812
 1615 Fit      -0.136956
 1616 Fit      -0.136875
 1617 Fit      -0.137307
 1618 Fit      -0.138141
 1619 Fit      -0.139327
 1620 Fit      -0.140782
 1621 Fit      -0.142309
 1622 Fit      -0.133838
 1623 Fit      -0.132890
 1624 Fit      -0.138473
 1625 Fit      -0.133688
 1626 Fit      -0.131110
 1627 Fit      -0.130261
 1628 Fit      -0.130786
 1629 Fit      -0.132456
 1630 Fit      -0.135117
 1631 Fit      -0.138616
 1632 Fit      -0.134704
 1633 Fit      -0.129965
 1634 Fit      -0.127540
 1635 Fit      -0.127283
 1636 Fit      -0.128967
 1637 Fit      -0.132388
 1638 Fit      -0.137327
 1639 Fit      -0.134133
 1640 Fit      -0.129411
 1641 Fit      -0.127404
 1642 Fit      -0.128062
 1643 Fit      -0.131194
 1644 Fit      -0.136555
 1645 Fit      -0.134125
 1646 Fit      -0.130724
 1647 Fit      -0.130864
 1648 Fit      -0.134332
 1649 Fit      -0.141541
 1650 Fit      -0.138137
 1651 Fit      -0.139909
 1652 Fit      -0.140672
 1653 Fit      -0.136107
 1654 Fit      -0.136190
 1655 Fit      -0.141301
 1656 Fit      -0.137467
 1657 Fit      -0.136292
 1658 Fit      -0.137921
 1659 Fit      -0.142919
 1660 Fit      -0.142785
 1661 Fit      -0.141838
 1662 Fit      -0.139547
 1663 Fit      -0.141376
 1664 Fit      -0.149547
 1665 Fit      -0.145445
 1666 Fit      -0.145553
 1667 Fit      -0.151010
 1668 Fit      -0.156818
 1669 Fit      -0.141052
 1670 Fit      -0.146208
 1671 Fit      -0.149266
 1672 Fit      -0.144288
 1673 Fit      -0.136653
 1674 Fit      -0.134653
 1675 Fit      -0.139166
 1676 Fit      -0.152774
 1677 Fit      -0.139189
 1678 Fit      -0.132795
 1679 Fit      -0.129744
 1680 Fit      -0.129535
 1681 Fit      -0.132322
 1682 Fit      -0.138119
 1683 Fit      -0.145873
 1684 Fit      -0.134243
 1685 Fit      -0.129496
 1686 Fit      -0.126705
 1687 Fit      -0.125333
 1688 Fit      -0.125451
 1689 Fit      -0.127345
 1690 Fit      -0.131300
 1691 Fit      -0.137480
 1692 Fit      -0.145739
 1693 Fit      -0.154962
 1694 Fit      -0.132753
 1695 Fit      -0.128430
 1696 Fit      -0.125628
 1697 Fit      -0.123651
 1698 Fit      -0.122431
 1699 Fit      -0.122151
 1700 Fit      -0.123076
 1701 Fit      -0.125472
 1702 Fit      -0.129585
 1703 Fit      -0.135682
 1704 Fit      -0.144075
 1705 Fit      -0.154942
 1706 Fit      -0.126342
 1707 Fit      -0.124219
 1708 Fit      -0.122406
 1709 Fit      -0.120976
 1710 Fit      -0.120129
 1711 Fit      -0.120102
 1712 Fit      -0.121128
 1713 Fit      -0.123417
 1714 Fit      -0.127178
 1715 Fit      -0.132668
 1716 Fit      -0.140309
 1717 Fit      -0.150837
 1718 Fit      -0.126447
 1719 Fit      -0.124759
 1720 Fit      -0.122983
 1721 Fit      -0.121290
 1722 Fit      -0.119888
 1723 Fit      -0.118996
 1724 Fit      -0.118826
 1725 Fit      -0.119571
 1726 Fit      -0.121402
 1727 Fit      -0.124476
 1728 Fit      -0.128973
 1729 Fit      -0.135186
 1730 Fit      -0.143695
 1731 Fit      -0.125752
 1732 Fit      -0.123796
 1733 Fit      -0.121893
 1734 Fit      -0.120251
 1735 Fit      -0.119059
 1736 Fit      -0.118494
 1737 Fit      -0.118719
 1738 Fit      -0.119874
 1739 Fit      -0.122076
 1740 Fit      -0.125432
 1741 Fit      -0.130073
 1742 Fit      -0.136228
 1743 Fit      -0.144377
 1744 Fit      -0.129883
 1745 Fit      -0.127108
 1746 Fit      -0.124569
 1747 Fit      -0.122383
 1748 Fit      -0.120650
 1749 Fit      -0.119485
 1750 Fit      -0.119011
 1751 Fit      -0.119343
 1752 Fit      -0.120576
 1753 Fit      -0.122781
 1754 Fit      -0.126004
 1755 Fit      -0.130278
 1756 Fit      -0.135634
 1757 Fit      -0.142091
 1758 Fit      -0.133083
 1759 Fit      -0.128886
 1760 Fit      -0.125648
 1761 Fit      -0.123189
 1762 Fit      -0.121463
 1763 Fit      -0.120508
 1764 Fit      -0.120393
 1765 Fit      -0.121184
 1766 Fit      -0.122925
 1767 Fit      -0.125619
 1768 Fit      -0.129209
 1769 Fit      -0.133528
 1770 Fit      -0.138149
 1771 Fit      -0.132869
 1772 Fit      -0.128436
 1773 Fit      -0.125393
 1774 Fit      -0.123436
 1775 Fit      -0.122470
 1776 Fit      -0.122491
 1777 Fit      -0.123507
 1778 Fit      -0.125500
 1779 Fit      -0.128381
 1780 Fit      -0.131934
 1781 Fit      -0.135654
 1782 Fit      -0.138325
 1783 Fit      -0.133952
 1784 Fit      -0.129376
 1785 Fit      -0.126602
 1786 Fit      -0.125212
 1787 Fit      -0.125045
 1788 Fit      -0.126025
 1789 Fit      -0.128066
 1790 Fit      -0.131010
 1791 Fit      -0.134555
 1792 Fit      -0.138148
 1793 Fit      -0.136968
 1794 Fit      -0.131756
 1795 Fit      -0.129016
 1796 Fit      -0.128084
 1797 Fit      -0.128669
 1798 Fit      -0.130604
 1799 Fit      -0.133748
 1800 Fit      -0.138063
 1801 Fit      -0.135694
 1802 Fit      -0.132356
 1803 Fit      -0.131669
 1804 Fit      -0.133112
 1805 Fit      -0.136567
 1806 Fit      -0.135796
 1807 Fit      -0.140850
 1808 Fit      -0.138703
 1809 Fit      -0.136883
 1810 Fit      -0.135404
 1811 Fit      -0.142664
 1812 Fit      -0.141194
 1813 Fit      -0.139722
 1814 Fit      -0.138365
 1815 Fit      -0.137205
 1816 Fit      -0.136300
 1817 Fit      -0.135715
 1818 Fit      -0.135573
 1819 Fit      -0.136176
 1820 Fit      -0.140748
 1821 Fit      -0.140075
 1822 Fit      -0.139126
 1823 Fit      -0.138115
 1824 Fit      -0.137195
 1825 Fit      -0.136468
 1826 Fit      -0.136002
 1827 Fit      -0.135843
 1828 Fit      -0.136047
 1829 Fit      -0.136737
 1830 Fit      -0.138186
 1831 Fit      -0.138898
 1832 Fit      -0.139129
 1833 Fit      -0.138730
 1834 Fit      -0.137988
 1835 Fit      -0.137131
 1836 Fit      -0.136335
 1837 Fit      -0.135726
 1838 Fit      -0.135385
 1839 Fit      -0.135353
 1840 Fit      -0.135650
 1841 Fit      -0.136292
 1842 Fit      -0.137322
 1843 Fit      -0.138855
 1844 Fit      -0.141104
 1845 Fit      -0.137613
 1846 Fit      -0.138200
 1847 Fit      -0.138104
 1848 Fit      -0.137540
 1849 Fit      -0.136729
 1850 Fit      -0.135872
 1851 Fit      -0.135134
 1852 Fit      -0.134636
 1853 Fit      -0.134454
 1854 Fit      -0.134622
 1855 Fit      -0.135137
 1856 Fit      -0.135974
 1857 Fit      -0.137103
 1858 Fit      -0.138500
 1859 Fit      -0.140141
 1860 Fit      -0.141943
 1861 Fit      -0.138180
 1862 Fit      -0.138248
 1863 Fit      -0.137947
 1864 Fit      -0.137279
 1865 Fit      -0.136374
 1866 Fit      -0.135403
 1867 Fit      -0.134536
 1868 Fit      -0.133912
 1869 Fit      -0.133630
 1870 Fit      -0.133741
 1871 Fit      -0.134246
 1872 Fit      -0.135109
 1873 Fit      -0.136263
 1874 Fit      -0.137621
 1875 Fit      -0.139078
 1876 Fit      -0.140485
 1877 Fit      -0.141613
 1878 Fit      -0.140475
 1879 Fit      -0.139386
 1880 Fit      -0.138432
 1881 Fit      -0.137373
 1882 Fit      -0.136210
 1883 Fit      -0.135060
 1884 Fit      -0.134074
 1885 Fit      -0.133391
 1886 Fit      -0.133116
 1887 Fit      -0.133297
 1888 Fit      -0.133929
 1889 Fit      -0.134958
 1890 Fit      -0.136286
 1891 Fit      -0.137789
 1892 Fit      -0.139321
 1893 Fit      -0.140726
 1894 Fit      -0.141884
 1895 Fit      -0.147099
 1896 Fit      -0.143336
 1897 Fit      -0.141001
 1898 Fit      -0.139237
 1899 Fit      -0.137654
 1900 Fit      -0.136165
 1901 Fit      -0.134843
 1902 Fit      -0.133824
 1903 Fit      -0.133239
 1904 Fit      -0.133175
 1905 Fit      -0.133656
 1906 Fit      -0.134636
 1907 Fit      -0.136013
 1908 Fit      -0.137644
 1909 Fit      -0.139376
 1910 Fit      -0.141093
 1911 Fit      -0.142812
 1912 Fit      -0.144903
 1913 Fit      -0.156126
 1914 Fit      -0.149419
 1915 Fit      -0.144831
 1916 Fit      -0.141677
 1917 Fit      -0.139254
 1918 Fit      -0.137225
 1919 Fit      -0.135557
 1920 Fit      -0.134377
 1921 Fit      -0.133837
 1922 Fit      -0.134023
 1923 Fit      -0.134921
 1924 Fit      -0.136411
 1925 Fit      -0.138308
 1926 Fit      -0.140438
 1927 Fit      -0.142758
 1928 Fit      -0.145559
 1929 Fit      -0.149635
 1930 Fit      -0.159645
 1931 Fit      -0.155821
 1932 Fit      -0.150360
 1933 Fit      -0.145584
 1934 Fit      -0.141936
 1935 Fit      -0.139124
 1936 Fit      -0.136989
 1937 Fit      -0.135627
 1938 Fit      -0.135208
 1939 Fit      -0.135801
 1940 Fit      -0.137301
 1941 Fit      -0.139477
 1942 Fit      -0.142131
 1943 Fit      -0.145332
 1944 Fit      -0.149487
 1945 Fit      -0.154657
 1946 Fit      -0.159076
 1947 Fit      -0.152630
 1948 Fit      -0.149884
 1949 Fit      -0.145704
 1950 Fit      -0.141945
 1951 Fit      -0.139152
 1952 Fit      -0.137565
 1953 Fit      -0.137423
 1954 Fit      -0.138726
 1955 Fit      -0.141172
 1956 Fit      -0.144440
 1957 Fit      -0.148315
 1958 Fit      -0.151826
 1959 Fit      -0.147521
 1960 Fit      -0.144676
 1961 Fit      -0.141140
 1962 Fit      -0.140122
 1963 Fit      -0.142249
 1964 Fit      -0.145933
 1965 Fit      -0.143461
 1966 Fit      -0.143056
 1967 Fit      -0.145789
 1968 Fit      -0.142601
 1969 Fit      -0.140500
 1970 Fit      -0.141084
 1971 Fit      -0.143653
 1972 Fit      -0.146271
 1973 Fit      -0.149331
 1974 Fit      -0.145974
 1975 Fit      -0.142444
 1976 Fit      -0.139838
 1977 Fit      -0.138634
 1978 Fit      -0.138720
 1979 Fit      -0.139759
 1980 Fit      -0.141595
 1981 Fit      -0.144224
 1982 Fit      -0.147353
 1983 Fit      -0.150113
 1984 Fit      -0.151036
 1985 Fit      -0.153634
 1986 Fit      -0.149805
 1987 Fit      -0.145765
 1988 Fit      -0.142149
 1989 Fit      -0.139458
 1990 Fit      -0.137904
 1991 Fit      -0.137397
 1992 Fit      -0.137659
 1993 Fit      -0.138409
 1994 Fit      -0.139548
 1995 Fit      -0.141227
 1996 Fit      -0.143661
 1997 Fit      -0.146818
 1998 Fit      -0.150426
 1999 Fit      -0.154043
 2000 Fit      -0.156498
 2001 Fit      -0.156312
 2002 Fit      -0.158434
 2003 Fit      -0.154217
 2004 Fit      -0.149970
 2005 Fit      -0.145863
 2006 Fit      -0.142301
 2007 Fit      -0.139606
 2008 Fit      -0.137884
 2009 Fit      -0.137060
 2010 Fit      -0.136934
 2011 Fit      -0.137249
 2012 Fit      -0.137775
 2013 Fit      -0.138410
 2014 Fit      -0.139265
 2015 Fit      -0.140659
 2016 Fit      -0.142915
 2017 Fit      -0.146028
 2018 Fit      -0.149650
 2019 Fit      -0.153638
 2020 Fit      -0.158152
 2021 Fit      -0.162419
 2022 Fit      -0.164201
 2023 Fit      -0.162325
 2024 Fit      -0.162954
 2025 Fit      -0.158804
 2026 Fit      -0.154772
 2027 Fit      -0.150477
 2028 Fit      -0.146356
 2029 Fit      -0.142857
 2030 Fit      -0.140190
 2031 Fit      -0.138389
 2032 Fit      -0.137377
 2033 Fit      -0.137005
 2034 Fit      -0.137077
 2035 Fit      -0.137376
 2036 Fit      -0.137706
 2037 Fit      -0.137953
 2038 Fit      -0.138155
 2039 Fit      -0.138568
 2040 Fit      -0.139652
 2041 Fit      -0.141873
 2042 Fit      -0.145295
 2043 Fit      -0.162151
 2044 Fit      -0.154982
 2045 Fit      -0.150108
 2046 Fit      -0.145853
 2047 Fit      -0.142507
 2048 Fit      -0.140099
 2049 Fit      -0.138552
 2050 Fit      -0.137735
 2051 Fit      -0.137484
 2052 Fit      -0.137602
 2053 Fit      -0.137872
 2054 Fit      -0.138081
 2055 Fit      -0.138059
 2056 Fit      -0.137751
 2057 Fit      -0.137314
 2058 Fit      -0.137218
 2059 Fit      -0.153842
 2060 Fit      -0.148602
 2061 Fit      -0.144592
 2062 Fit      -0.141709
 2063 Fit      -0.139799
 2064 Fit      -0.138701
 2065 Fit      -0.138249
 2066 Fit      -0.138258
 2067 Fit      -0.138522
 2068 Fit      -0.138807
 2069 Fit      -0.138874
 2070 Fit      -0.138506
 2071 Fit      -0.137586
 2072 Fit      -0.136234
 2073 Fit      -0.150406
 2074 Fit      -0.145805
 2075 Fit      -0.142632
 2076 Fit      -0.140576
 2077 Fit      -0.139414
 2078 Fit      -0.138957
 2079 Fit      -0.139023
 2080 Fit      -0.139409
 2081 Fit      -0.139880
 2082 Fit      -0.140156
 2083 Fit      -0.139925
 2084 Fit      -0.138875
 2085 Fit      -0.150242
 2086 Fit      -0.145457
 2087 Fit      -0.142349
 2088 Fit      -0.140466
 2089 Fit      -0.139535
 2090 Fit      -0.139359
 2091 Fit      -0.139758
 2092 Fit      -0.140537
 2093 Fit      -0.141453
 2094 Fit      -0.142186
 2095 Fit      -0.147244
 2096 Fit      -0.143090
 2097 Fit      -0.140586
 2098 Fit      -0.139316
 2099 Fit      -0.139041
 2100 Fit      -0.139593
 2101 Fit      -0.140829
 2102 Fit      -0.142586
 2103 Fit      -0.138061
 2104 Fit      -0.144904
 2105 Fit      -0.150289
 2106 Fit      -0.131865
 2107 Fit      -0.128116
 2108 Fit      -0.127415
 2109 Fit      -0.126157
 2110 Fit      -0.123963
 2111 Fit      -0.123630
 2112 Fit      -0.122596
 2113 Fit      -0.120908
 2114 Fit      -0.120720
 2115 Fit      -0.125521
 2116 Fit      -0.120591
 2117 Fit      -0.119199
 2118 Fit      -0.119073
 2119 Fit      -0.126000
 2120 Fit      -0.122949
 2121 Fit      -0.120428
 2122 Fit      -0.119156
 2123 Fit      -0.118856
 2124 Fit      -0.119835
 2125 Fit      -0.129786
 2126 Fit      -0.127183
 2127 Fit      -0.124667
 2128 Fit      -0.122353
 2129 Fit      -0.122258
 2130 Fit      -0.120904
 2131 Fit      -0.120237
 2132 Fit      -0.120615
 2133 Fit      -0.131512
 2134 Fit      -0.130268
 2135 Fit      -0.128909
 2136 Fit      -0.127396
 2137 Fit      -0.125722
 2138 Fit      -0.123954
 2139 Fit      -0.126060
 2140 Fit      -0.124436
 2141 Fit      -0.123211
 2142 Fit      -0.122796
 2143 Fit      -0.134432
 2144 Fit      -0.130105
 2145 Fit      -0.130185
 2146 Fit      -0.130367
 2147 Fit      -0.130566
 2148 Fit      -0.130669
 2149 Fit      -0.130534
 2150 Fit      -0.126268
 2151 Fit      -0.125808
 2152 Fit      -0.131982
 2153 Fit      -0.128825
 2154 Fit      -0.127036
 2155 Fit      -0.126221
 2156 Fit      -0.126136
 2157 Fit      -0.126619
 2158 Fit      -0.127555
 2159 Fit      -0.128838
 2160 Fit      -0.130341
 2161 Fit      -0.131895
 2162 Fit      -0.128936
 2163 Fit      -0.130107
 2164 Fit      -0.126378
 2165 Fit      -0.124232
 2166 Fit      -0.123367
 2167 Fit      -0.123560
 2168 Fit      -0.124639
 2169 Fit      -0.126455
 2170 Fit      -0.128854
 2171 Fit      -0.130555
 2172 Fit      -0.130003
 2173 Fit      -0.125835
 2174 Fit      -0.123308
 2175 Fit      -0.122296
 2176 Fit      -0.122638
 2177 Fit      -0.124169
 2178 Fit      -0.126718
 2179 Fit      -0.130618
 2180 Fit      -0.128447
 2181 Fit      -0.124899
 2182 Fit      -0.123123
 2183 Fit      -0.123054
 2184 Fit      -0.124547
 2185 Fit      -0.127414
 2186 Fit      -0.131327
 2187 Fit      -0.129380
 2188 Fit      -0.130950
 2189 Fit      -0.129985
 2190 Fit      -0.126460
 2191 Fit      -0.125036
 2192 Fit      -0.125649
 2193 Fit      -0.128114
 2194 Fit      -0.132088
 2195 Fit      -0.129788
 2196 Fit      -0.128864
 2197 Fit      -0.129338
 2198 Fit      -0.131349
 2199 Fit      -0.132712
 2200 Fit      -0.129297
 2201 Fit      -0.128337
 2202 Fit      -0.129707
 2203 Fit      -0.132297
 2204 Fit      -0.130912
 2205 Fit      -0.131640
 2206 Fit      -0.134721
 2207 Fit      -0.134586
 2208 Fit      -0.132518
 2209 Fit      -0.133414
 2210 Fit      -0.134230
 2211 Fit      -0.134696
 2212 Fit      -0.137062
 2213 Fit      -0.138047
 2214 Fit      -0.138875
 2215 Fit      -0.141944
 2216 Fit      -0.141914
 2217 Fit      -0.145788
 2218 Fit      -0.134561
 2219 Fit      -0.130363
 2220 Fit      -0.128299
 2221 Fit      -0.132611
 2222 Fit      -0.139577
 2223 Fit      -0.137794
 2224 Fit      -0.126742
 2225 Fit      -0.123577
 2226 Fit      -0.123343
 2227 Fit      -0.126015
 2228 Fit      -0.131517
 2229 Fit      -0.138959
 2230 Fit      -0.145990
 2231 Fit      -0.133213
 2232 Fit      -0.123644
 2233 Fit      -0.120602
 2234 Fit      -0.119216
 2235 Fit      -0.119399
 2236 Fit      -0.121286
 2237 Fit      -0.125073
 2238 Fit      -0.130914
 2239 Fit      -0.138701
 2240 Fit      -0.147503
 2241 Fit      -0.128869
 2242 Fit      -0.121123
 2243 Fit      -0.118369
 2244 Fit      -0.116700
 2245 Fit      -0.116035
 2246 Fit      -0.116464
 2247 Fit      -0.118152
 2248 Fit      -0.121304
 2249 Fit      -0.126167
 2250 Fit      -0.133037
 2251 Fit      -0.142179
 2252 Fit      -0.125401
 2253 Fit      -0.119298
 2254 Fit      -0.116902
 2255 Fit      -0.115191
 2256 Fit      -0.114126
 2257 Fit      -0.113774
 2258 Fit      -0.114253
 2259 Fit      -0.115703
 2260 Fit      -0.118288
 2261 Fit      -0.122211
 2262 Fit      -0.127766
 2263 Fit      -0.135410
 2264 Fit      -0.122640
 2265 Fit      -0.118326
 2266 Fit      -0.116161
 2267 Fit      -0.114441
 2268 Fit      -0.113175
 2269 Fit      -0.112427
 2270 Fit      -0.112293
 2271 Fit      -0.112881
 2272 Fit      -0.114308
 2273 Fit      -0.116704
 2274 Fit      -0.120238
 2275 Fit      -0.125159
 2276 Fit      -0.131890
 2277 Fit      -0.141193
 2278 Fit      -0.118389
 2279 Fit      -0.116192
 2280 Fit      -0.114346
 2281 Fit      -0.112894
 2282 Fit      -0.111904
 2283 Fit      -0.111462
 2284 Fit      -0.111663
 2285 Fit      -0.112605
 2286 Fit      -0.114394
 2287 Fit      -0.117152
 2288 Fit      -0.121048
 2289 Fit      -0.126357
 2290 Fit      -0.133583
 2291 Fit      -0.119678
 2292 Fit      -0.117203
 2293 Fit      -0.115109
 2294 Fit      -0.113423
 2295 Fit      -0.112188
 2296 Fit      -0.111463
 2297 Fit      -0.111318
 2298 Fit      -0.111828
 2299 Fit      -0.113069
 2300 Fit      -0.115127
 2301 Fit      -0.118099
 2302 Fit      -0.122131
 2303 Fit      -0.127457
 2304 Fit      -0.134518
 2305 Fit      -0.122364
 2306 Fit      -0.119205
 2307 Fit      -0.116642
 2308 Fit      -0.114619
 2309 Fit      -0.113121
 2310 Fit      -0.112163
 2311 Fit      -0.111783
 2312 Fit      -0.112031
 2313 Fit      -0.112961
 2314 Fit      -0.114630
 2315 Fit      -0.117098
 2316 Fit      -0.120438
 2317 Fit      -0.124749
 2318 Fit      -0.130181
 2319 Fit      -0.136960
 2320 Fit      -0.122099
 2321 Fit      -0.118750
 2322 Fit      -0.116246
 2323 Fit      -0.114458
 2324 Fit      -0.113336
 2325 Fit      -0.112879
 2326 Fit      -0.113111
 2327 Fit      -0.114064
 2328 Fit      -0.115774
 2329 Fit      -0.118272
 2330 Fit      -0.121583
 2331 Fit      -0.125701
 2332 Fit      -0.130540
 2333 Fit      -0.125796
 2334 Fit      -0.121382
 2335 Fit      -0.118288
 2336 Fit      -0.116200
 2337 Fit      -0.114969
 2338 Fit      -0.114540
 2339 Fit      -0.114900
 2340 Fit      -0.116057
 2341 Fit      -0.118019
 2342 Fit      -0.120773
 2343 Fit      -0.124263
 2344 Fit      -0.128298
 2345 Fit      -0.124550
 2346 Fit      -0.120831
 2347 Fit      -0.118453
 2348 Fit      -0.117142
 2349 Fit      -0.116772
 2350 Fit      -0.117289
 2351 Fit      -0.118666
 2352 Fit      -0.120877
 2353 Fit      -0.123864
 2354 Fit      -0.127483
 2355 Fit      -0.131373
 2356 Fit      -0.127380
 2357 Fit      -0.123150
 2358 Fit      -0.120711
 2359 Fit      -0.119651
 2360 Fit      -0.119775
 2361 Fit      -0.120990
 2362 Fit      -0.123240
 2363 Fit      -0.126476
 2364 Fit      -0.130631
 2365 Fit      -0.129623
 2366 Fit      -0.125301
 2367 Fit      -0.123303
 2368 Fit      -0.123101
 2369 Fit      -0.124466
 2370 Fit      -0.127334
 2371 Fit      -0.131822
 2372 Fit      -0.127947
 2373 Fit      -0.127233
 2374 Fit      -0.128950
 2375 Fit      -0.132330
 2376 Fit      -0.130412
 2377 Fit      -0.132770
 2378 Fit      -0.135235
 2379 Fit      -0.134880
 2380 Fit      -0.132040
 2381 Fit      -0.130026
 2382 Fit      -0.129034
 2383 Fit      -0.130769
 2384 Fit      -0.133300
 2385 Fit      -0.136269
 2386 Fit      -0.138815
 2387 Fit      -0.139651
 2388 Fit      -0.138147
 2389 Fit      -0.135153
 2390 Fit      -0.131974
 2391 Fit      -0.129545
 2392 Fit      -0.128285
 2393 Fit      -0.128174
 2394 Fit      -0.128102
 2395 Fit      -0.129425
 2396 Fit      -0.131345
 2397 Fit      -0.133894
 2398 Fit      -0.136937
 2399 Fit      -0.140206
 2400 Fit      -0.143198
 2401 Fit      -0.144938
 2402 Fit      -0.144533
 2403 Fit      -0.142195
 2404 Fit      -0.138887
 2405 Fit      -0.135385
 2406 Fit      -0.132192
 2407 Fit      -0.129658
 2408 Fit      -0.127955
 2409 Fit      -0.127076
 2410 Fit      -0.126899
 2411 Fit      -0.127270
 2412 Fit      -0.127522
 2413 Fit      -0.128558
 2414 Fit      -0.130096
 2415 Fit      -0.132284
 2416 Fit      -0.135117
 2417 Fit      -0.138422
 2418 Fit      -0.142069
 2419 Fit      -0.146009
 2420 Fit      -0.149778
 2421 Fit      -0.152077
 2422 Fit      -0.151672
 2423 Fit      -0.148884
 2424 Fit      -0.145084
 2425 Fit      -0.141126
 2426 Fit      -0.137282
 2427 Fit      -0.133782
 2428 Fit      -0.130863
 2429 Fit      -0.128667
 2430 Fit      -0.127216
 2431 Fit      -0.126437
 2432 Fit      -0.126203
 2433 Fit      -0.126367
 2434 Fit      -0.126818
 2435 Fit      -0.127220
 2436 Fit      -0.127974
 2437 Fit      -0.129193
 2438 Fit      -0.131146
 2439 Fit      -0.133957
 2440 Fit      -0.137446
 2441 Fit      -0.155346
 2442 Fit      -0.155097
 2443 Fit      -0.150101
 2444 Fit      -0.145601
 2445 Fit      -0.141282
 2446 Fit      -0.137193
 2447 Fit      -0.133603
 2448 Fit      -0.130702
 2449 Fit      -0.128553
 2450 Fit      -0.127120
 2451 Fit      -0.126311
 2452 Fit      -0.126000
 2453 Fit      -0.126043
 2454 Fit      -0.126307
 2455 Fit      -0.126702
 2456 Fit      -0.127164
 2457 Fit      -0.127572
 2458 Fit      -0.128392
 2459 Fit      -0.146275
 2460 Fit      -0.141568
 2461 Fit      -0.137252
 2462 Fit      -0.133632
 2463 Fit      -0.130799
 2464 Fit      -0.128730
 2465 Fit      -0.127345
 2466 Fit      -0.126542
 2467 Fit      -0.126199
 2468 Fit      -0.126184
 2469 Fit      -0.126365
 2470 Fit      -0.126626
 2471 Fit      -0.126891
 2472 Fit      -0.127401
 2473 Fit      -0.127418
 2474 Fit      -0.143842
 2475 Fit      -0.138857
 2476 Fit      -0.134848
 2477 Fit      -0.131785
 2478 Fit      -0.129561
 2479 Fit      -0.128058
 2480 Fit      -0.127155
 2481 Fit      -0.126732
 2482 Fit      -0.126663
 2483 Fit      -0.126818
 2484 Fit      -0.127066
 2485 Fit      -0.127288
 2486 Fit      -0.127401
 2487 Fit      -0.142375
 2488 Fit      -0.137391
 2489 Fit      -0.133698
 2490 Fit      -0.131043
 2491 Fit      -0.129230
 2492 Fit      -0.128102
 2493 Fit      -0.127526
 2494 Fit      -0.127376
 2495 Fit      -0.127525
 2496 Fit      -0.127840
 2497 Fit      -0.128180
 2498 Fit      -0.128406
 2499 Fit      -0.128406
 2500 Fit      -0.136940
 2501 Fit      -0.133381
 2502 Fit      -0.130950
 2503 Fit      -0.129390
 2504 Fit      -0.128524
 2505 Fit      -0.128211
 2506 Fit      -0.128324
 2507 Fit      -0.128736
 2508 Fit      -0.129305
 2509 Fit      -0.129874
 2510 Fit      -0.130266
 2511 Fit      -0.137294
 2512 Fit      -0.133600
 2513 Fit      -0.131199
 2514 Fit      -0.129766
 2515 Fit      -0.129097
 2516 Fit      -0.129048
 2517 Fit      -0.129494
 2518 Fit      -0.130312
 2519 Fit      -0.131362
 2520 Fit      -0.138456
 2521 Fit      -0.134228
 2522 Fit      -0.131604
 2523 Fit      -0.130150
 2524 Fit      -0.129622
 2525 Fit      -0.129868
 2526 Fit      -0.130780
 2527 Fit      -0.126624
 2528 Fit      -0.129053
 2529 Fit      -0.127626
 2530 Fit      -0.125721
 2531 Fit      -0.125536
 2532 Fit      -0.125823
 2533 Fit      -0.131315
 2534 Fit      -0.129699
 2535 Fit      -0.128300
 2536 Fit      -0.127150
 2537 Fit      -0.126278
 2538 Fit      -0.124885
 2539 Fit      -0.124910
 2540 Fit      -0.125305
 2541 Fit      -0.126169
 2542 Fit      -0.127684
 2543 Fit      -0.130955
 2544 Fit      -0.129802
 2545 Fit      -0.128622
 2546 Fit      -0.127505
 2547 Fit      -0.126523
 2548 Fit      -0.125730
 2549 Fit      -0.125172
 2550 Fit      -0.124077
 2551 Fit      -0.124252
 2552 Fit      -0.124744
 2553 Fit      -0.125598
 2554 Fit      -0.126895
 2555 Fit      -0.128767
 2556 Fit      -0.129430
 2557 Fit      -0.128685
 2558 Fit      -0.127786
 2559 Fit      -0.126841
 2560 Fit      -0.125940
 2561 Fit      -0.125160
 2562 Fit      -0.124561
 2563 Fit      -0.124189
 2564 Fit      -0.123338
 2565 Fit      -0.123628
 2566 Fit      -0.124213
 2567 Fit      -0.125105
 2568 Fit      -0.126329
 2569 Fit      -0.127923
 2570 Fit      -0.129939
 2571 Fit      -0.128657
 2572 Fit      -0.128098
 2573 Fit      -0.127352
 2574 Fit      -0.126494
 2575 Fit      -0.125610
 2576 Fit      -0.124785
 2577 Fit      -0.124092
 2578 Fit      -0.123594
 2579 Fit      -0.123332
 2580 Fit      -0.122752
 2581 Fit      -0.123135
 2582 Fit      -0.123811
 2583 Fit      -0.124773
 2584 Fit      -0.126007
 2585 Fit      -0.127503
 2586 Fit      -0.129242
 2587 Fit      -0.131178
 2588 Fit      -0.128398
 2589 Fit      -0.127583
 2590 Fit      -0.126698
 2591 Fit      -0.125765
 2592 Fit      -0.124843
 2593 Fit      -0.124008
 2594 Fit      -0.123329
 2595 Fit      -0.122868
 2596 Fit      -0.122667
 2597 Fit      -0.122415
 2598 Fit      -0.122876
 2599 Fit      -0.123649
 2600 Fit      -0.124706
 2601 Fit      -0.126012
 2602 Fit      -0.127525
 2603 Fit      -0.129199
 2604 Fit      -0.130981
 2605 Fit      -0.130713
 2606 Fit      -0.129139
 2607 Fit      -0.127880
 2608 Fit      -0.126726
 2609 Fit      -0.125619
 2610 Fit      -0.124579
 2611 Fit      -0.123662
 2612 Fit      -0.122935
 2613 Fit      -0.122459
 2614 Fit      -0.122277
 2615 Fit      -0.122414
 2616 Fit      -0.122951
 2617 Fit      -0.123835
 2618 Fit      -0.125024
 2619 Fit      -0.126464
 2620 Fit      -0.128102
 2621 Fit      -0.129899
 2622 Fit      -0.131869
 2623 Fit      -0.134263
 2624 Fit      -0.131327
 2625 Fit      -0.129261
 2626 Fit      -0.127619
 2627 Fit      -0.126195
 2628 Fit      -0.124931
 2629 Fit      -0.123849
 2630 Fit      -0.123002
 2631 Fit      -0.122453
 2632 Fit      -0.122248
 2633 Fit      -0.122825
 2634 Fit      -0.123445
 2635 Fit      -0.124478
 2636 Fit      -0.125865
 2637 Fit      -0.127543
 2638 Fit      -0.129470
 2639 Fit      -0.131682
 2640 Fit      -0.134389
 2641 Fit      -0.136177
 2642 Fit      -0.132488
 2643 Fit      -0.129848
 2644 Fit      -0.127800
 2645 Fit      -0.126115
 2646 Fit      -0.124723
 2647 Fit      -0.123646
 2648 Fit      -0.122938
 2649 Fit      -0.122655
 2650 Fit      -0.123698
 2651 Fit      -0.124391
 2652 Fit      -0.125582
 2653 Fit      -0.127202
 2654 Fit      -0.129195
 2655 Fit      -0.131584
 2656 Fit      -0.134549
 2657 Fit      -0.138470
 2658 Fit      -0.143079
 2659 Fit      -0.137637
 2660 Fit      -0.133540
 2661 Fit      -0.130490
 2662 Fit      -0.128143
 2663 Fit      -0.126297
 2664 Fit      -0.124894
 2665 Fit      -0.123962
 2666 Fit      -0.123553
 2667 Fit      -0.125065
 2668 Fit      -0.125881
 2669 Fit      -0.127370
 2670 Fit      -0.129448
 2671 Fit      -0.132098
 2672 Fit      -0.135435
 2673 Fit      -0.139571
 2674 Fit      -0.144084
 2675 Fit      -0.147424
 2676 Fit      -0.147682
 2677 Fit      -0.144645
 2678 Fit      -0.140033
 2679 Fit      -0.135575
 2680 Fit      -0.131950
 2681 Fit      -0.129161
 2682 Fit      -0.127084
 2683 Fit      -0.125682
 2684 Fit      -0.124995
 2685 Fit      -0.126948
 2686 Fit      -0.128059
 2687 Fit      -0.130275
 2688 Fit      -0.133406
 2689 Fit      -0.137145
 2690 Fit      -0.140380
 2691 Fit      -0.141066
 2692 Fit      -0.138571
 2693 Fit      -0.134671
 2694 Fit      -0.131109
 2695 Fit      -0.128524
 2696 Fit      -0.127100
 2697 Fit      -0.129374
 2698 Fit      -0.131280
 2699 Fit      -0.134715
 2700 Fit      -0.136194
 2701 Fit      -0.133571
 2702 Fit      -0.130316
 2703 Fit      -0.132405
 2704 Fit      -0.133651
 2705 Fit      -0.133657
 2706 Fit      -0.133724
 2707 Fit      -0.132595
 2708 Fit      -0.133742
 2709 Fit      -0.132620
 2710 Fit      -0.134527
 2711 Fit      -0.133801
 2712 Fit      -0.133503
 2713 Fit      -0.134559
 2714 Fit      -0.133833
 2715 Fit      -0.133544
 2716 Fit      -0.136078
 2717 Fit      -0.135273
 2718 Fit      -0.135180
 2719 Fit      -0.135951
 2720 Fit      -0.135618
 2721 Fit      -0.135182
 2722 Fit      -0.135476
 2723 Fit      -0.136915
 2724 Fit      -0.137728
 2725 Fit      -0.136892
 2726 Fit      -0.137123
 2727 Fit      -0.138605
 2728 Fit      -0.137779
 2729 Fit      -0.136937
 2730 Fit      -0.137169
 2731 Fit      -0.138660
 2732 Fit      -0.142332
 2733 Fit      -0.139668
 2734 Fit      -0.138613
 2735 Fit      -0.138823
 2736 Fit      -0.140353
 2737 Fit      -0.143570
 2738 Fit      -0.142394
 2739 Fit      -0.139718
 2740 Fit      -0.138656
 2741 Fit      -0.138865
 2742 Fit      -0.140399
 2743 Fit      -0.143620
 2744 Fit      -0.146451
 2745 Fit      -0.143045
 2746 Fit      -0.140763
 2747 Fit      -0.140036
 2748 Fit      -0.140806
 2749 Fit      -0.143073
 2750 Fit      -0.146414
 2751 Fit      -0.146495
 2752 Fit      -0.143090
 2753 Fit      -0.140802
 2754 Fit      -0.140071
 2755 Fit      -0.140840
 2756 Fit      -0.143105
 2757 Fit      -0.146436
 2758 Fit      -0.144824
 2759 Fit      -0.143207
 2760 Fit      -0.141534
 2761 Fit      -0.141280
 2762 Fit      -0.142589
 2763 Fit      -0.144453
 2764 Fit      -0.144839
 2765 Fit      -0.143234
 2766 Fit      -0.141562
 2767 Fit      -0.141305
 2768 Fit      -0.142607
 2769 Fit      -0.144458
 2770 Fit      -0.142748
 2771 Fit      -0.141988
 2772 Fit      -0.142256
 2773 Fit      -0.142755
 2774 Fit      -0.142002
 2775 Fit      -0.142265
 2776 Fit      -0.142142
 2777 Fit      -0.138041
 2778 Fit      -0.144902
 2779 Fit      -0.150287
 2780 Fit      -0.131841
 2781 Fit      -0.127487
 2782 Fit      -0.127818
 2783 Fit      -0.124830
 2784 Fit      -0.123546
 2785 Fit      -0.124191
 2786 Fit      -0.125524
 2787 Fit      -0.122596
 2788 Fit      -0.120907
 2789 Fit      -0.120720
 2790 Fit      -0.127727
 2791 Fit      -0.124411
 2792 Fit      -0.121673
 2793 Fit      -0.119762
 2794 Fit      -0.118966
 2795 Fit      -0.119574
 2796 Fit      -0.129802
 2797 Fit      -0.127192
 2798 Fit      -0.124673
 2799 Fit      -0.122360
 2800 Fit      -0.120438
 2801 Fit      -0.119169
 2802 Fit      -0.118869
 2803 Fit      -0.119846
 2804 Fit      -0.131528
 2805 Fit      -0.130273
 2806 Fit      -0.128907
 2807 Fit      -0.127392
 2808 Fit      -0.125722
 2809 Fit      -0.123961
 2810 Fit      -0.122273
 2811 Fit      -0.120925
 2812 Fit      -0.120259
 2813 Fit      -0.120634
 2814 Fit      -0.136010
 2815 Fit      -0.130160
 2816 Fit      -0.130151
 2817 Fit      -0.130274
 2818 Fit      -0.130462
 2819 Fit      -0.130618
 2820 Fit      -0.130615
 2821 Fit      -0.130311
 2822 Fit      -0.125249
 2823 Fit      -0.123781
 2824 Fit      -0.122911
 2825 Fit      -0.123034
 2826 Fit      -0.132007
 2827 Fit      -0.128856
 2828 Fit      -0.127068
 2829 Fit      -0.126250
 2830 Fit      -0.126156
 2831 Fit      -0.126627
 2832 Fit      -0.127547
 2833 Fit      -0.128813
 2834 Fit      -0.130301
 2835 Fit      -0.131845
 2836 Fit      -0.126316
 2837 Fit      -0.125846
 2838 Fit      -0.128034
 2839 Fit      -0.125139
 2840 Fit      -0.123661
 2841 Fit      -0.123340
 2842 Fit      -0.123981
 2843 Fit      -0.125431
 2844 Fit      -0.127542
 2845 Fit      -0.130144
 2846 Fit      -0.128548
 2847 Fit      -0.130005
 2848 Fit      -0.125831
 2849 Fit      -0.123296
 2850 Fit      -0.122274
 2851 Fit      -0.122602
 2852 Fit      -0.124115
 2853 Fit      -0.126646
 2854 Fit      -0.130618
 2855 Fit      -0.128431
 2856 Fit      -0.124873
 2857 Fit      -0.123084
 2858 Fit      -0.122999
 2859 Fit      -0.124474
 2860 Fit      -0.127321
 2861 Fit      -0.130677
 2862 Fit      -0.127925
 2863 Fit      -0.125433
 2864 Fit      -0.125027
 2865 Fit      -0.126575
 2866 Fit      -0.130278
 2867 Fit      -0.128841
 2868 Fit      -0.129936
 2869 Fit      -0.132276
 2870 Fit      -0.132666
 2871 Fit      -0.129236
 2872 Fit      -0.128258
 2873 Fit      -0.129608
 2874 Fit      -0.132178
 2875 Fit      -0.129853
 2876 Fit      -0.128909
 2877 Fit      -0.129368
 2878 Fit      -0.131370
 2879 Fit      -0.133096
 2880 Fit      -0.132523
 2881 Fit      -0.131428
 2882 Fit      -0.131054
 2883 Fit      -0.132909
 2884 Fit      -0.137794
 2885 Fit      -0.137002
 2886 Fit      -0.135080
 2887 Fit      -0.134190
 2888 Fit      -0.136047
 2889 Fit      -0.141876
 2890 Fit      -0.138131
 2891 Fit      -0.138938
 2892 Fit      -0.141987
 2893 Fit      -0.145840
 2894 Fit      -0.134531
 2895 Fit      -0.139550
 2896 Fit      -0.137743
 2897 Fit      -0.130338
 2898 Fit      -0.128285
 2899 Fit      -0.132597
 2900 Fit      -0.145976
 2901 Fit      -0.133178
 2902 Fit      -0.126726
 2903 Fit      -0.123569
 2904 Fit      -0.123337
 2905 Fit      -0.126010
 2906 Fit      -0.131513
 2907 Fit      -0.138954
 2908 Fit      -0.128854
 2909 Fit      -0.123638
 2910 Fit      -0.120601
 2911 Fit      -0.119216
 2912 Fit      -0.119401
 2913 Fit      -0.121287
 2914 Fit      -0.125074
 2915 Fit      -0.130917
 2916 Fit      -0.138707
 2917 Fit      -0.147514
 2918 Fit      -0.123025
 2919 Fit      -0.119599
 2920 Fit      -0.117416
 2921 Fit      -0.116246
 2922 Fit      -0.116111
 2923 Fit      -0.117145
 2924 Fit      -0.119536
 2925 Fit      -0.123509
 2926 Fit      -0.129337
 2927 Fit      -0.137326
 2928 Fit      -0.122651
 2929 Fit      -0.119310
 2930 Fit      -0.116915
 2931 Fit      -0.115204
 2932 Fit      -0.114139
 2933 Fit      -0.113787
 2934 Fit      -0.114264
 2935 Fit      -0.115713
 2936 Fit      -0.118296
 2937 Fit      -0.122219
 2938 Fit      -0.127774
 2939 Fit      -0.135420
 2940 Fit      -0.118344
 2941 Fit      -0.116180
 2942 Fit      -0.114461
 2943 Fit      -0.113195
 2944 Fit      -0.112446
 2945 Fit      -0.112311
 2946 Fit      -0.112898
 2947 Fit      -0.114322
 2948 Fit      -0.116717
 2949 Fit      -0.120249
 2950 Fit      -0.125169
 2951 Fit      -0.131900
 2952 Fit      -0.141206
 2953 Fit      -0.118412
 2954 Fit      -0.116217
 2955 Fit      -0.114373
 2956 Fit      -0.112921
 2957 Fit      -0.111930
 2958 Fit      -0.111487
 2959 Fit      -0.111686
 2960 Fit      -0.112625
 2961 Fit      -0.114412
 2962 Fit      -0.117167
 2963 Fit      -0.121062
 2964 Fit      -0.126369
 2965 Fit      -0.133594
 2966 Fit      -0.119708
 2967 Fit      -0.117237
 2968 Fit      -0.115143
 2969 Fit      -0.113457
 2970 Fit      -0.112221
 2971 Fit      -0.111495
 2972 Fit      -0.111347
 2973 Fit      -0.111854
 2974 Fit      -0.113094
 2975 Fit      -0.115148
 2976 Fit      -0.118118
 2977 Fit      -0.122147
 2978 Fit      -0.127470
 2979 Fit      -0.134529
 2980 Fit      -0.120749
 2981 Fit      -0.117898
 2982 Fit      -0.115608
 2983 Fit      -0.113846
 2984 Fit      -0.112612
 2985 Fit      -0.111935
 2986 Fit      -0.111860
 2987 Fit      -0.112439
 2988 Fit      -0.113728
 2989 Fit      -0.115785
 2990 Fit      -0.118675
 2991 Fit      -0.122483
 2992 Fit      -0.127328
 2993 Fit      -0.133395
 2994 Fit      -0.122161
 2995 Fit      -0.118808
 2996 Fit      -0.116299
 2997 Fit      -0.114507
 2998 Fit      -0.113382
 2999 Fit      -0.112921
 3000 Fit      -0.113149
 3001 Fit      -0.114098
 3002 Fit      -0.115804
 3003 Fit      -0.118299
 3004 Fit      -0.121606
 3005 Fit      -0.125720
 3006 Fit      -0.130552
 3007 Fit      -0.125882
 3008 Fit      -0.121455
 3009 Fit      -0.118353
 3010 Fit      -0.116257
 3011 Fit      -0.115021
 3012 Fit      -0.114586
 3013 Fit      -0.114942
 3014 Fit      -0.116095
 3015 Fit      -0.118052
 3016 Fit      -0.120802
 3017 Fit      -0.124286
 3018 Fit      -0.128314
 3019 Fit      -0.124643
 3020 Fit      -0.120909
 3021 Fit      -0.118519
 3022 Fit      -0.117200
 3023 Fit      -0.116824
 3024 Fit      -0.117335
 3025 Fit      -0.118707
 3026 Fit      -0.120912
 3027 Fit      -0.123894
 3028 Fit      -0.127506
 3029 Fit      -0.131385
 3030 Fit      -0.127490
 3031 Fit      -0.123237
 3032 Fit      -0.120783
 3033 Fit      -0.119712
 3034 Fit      -0.119828
 3035 Fit      -0.121036
 3036 Fit      -0.123280
 3037 Fit      -0.126510
 3038 Fit      -0.130657
 3039 Fit      -0.127223
 3040 Fit      -0.124135
 3041 Fit      -0.123063
 3042 Fit      -0.123651
 3043 Fit      -0.125759
 3044 Fit      -0.129399
 3045 Fit      -0.128036
 3046 Fit      -0.127303
 3047 Fit      -0.129009
 3048 Fit      -0.129935
 3049 Fit      -0.128295
 3050 Fit      -0.127073
 3051 Fit      -0.126306
 3052 Fit      -0.131343
 3053 Fit      -0.129719
 3054 Fit      -0.128314
 3055 Fit      -0.127159
 3056 Fit      -0.126284
 3057 Fit      -0.125726
 3058 Fit      -0.125540
 3059 Fit      -0.125828
 3060 Fit      -0.130982
 3061 Fit      -0.129825
 3062 Fit      -0.128641
 3063 Fit      -0.127521
 3064 Fit      -0.126535
 3065 Fit      -0.125739
 3066 Fit      -0.125178
 3067 Fit      -0.124890
 3068 Fit      -0.124914
 3069 Fit      -0.125307
 3070 Fit      -0.126170
 3071 Fit      -0.127682
 3072 Fit      -0.129100
 3073 Fit      -0.128265
 3074 Fit      -0.127330
 3075 Fit      -0.126394
 3076 Fit      -0.125543
 3077 Fit      -0.124845
 3078 Fit      -0.124352
 3079 Fit      -0.124103
 3080 Fit      -0.124130
 3081 Fit      -0.124457
 3082 Fit      -0.125122
 3083 Fit      -0.126183
 3084 Fit      -0.127742
 3085 Fit      -0.129964
 3086 Fit      -0.128408
 3087 Fit      -0.127754
 3088 Fit      -0.126944
 3089 Fit      -0.126064
 3090 Fit      -0.125199
 3091 Fit      -0.124430
 3092 Fit      -0.123826
 3093 Fit      -0.123438
 3094 Fit      -0.123305
 3095 Fit      -0.123448
 3096 Fit      -0.123882
 3097 Fit      -0.124617
 3098 Fit      -0.125670
 3099 Fit      -0.127070
 3100 Fit      -0.128864
 3101 Fit      -0.131099
 3102 Fit      -0.128394
 3103 Fit      -0.127586
 3104 Fit      -0.126706
 3105 Fit      -0.125776
 3106 Fit      -0.124856
 3107 Fit      -0.124020
 3108 Fit      -0.123340
 3109 Fit      -0.122876
 3110 Fit      -0.122671
 3111 Fit      -0.122754
 3112 Fit      -0.123134
 3113 Fit      -0.123808
 3114 Fit      -0.124768
 3115 Fit      -0.126001
 3116 Fit      -0.127495
 3117 Fit      -0.129231
 3118 Fit      -0.131164
 3119 Fit      -0.130699
 3120 Fit      -0.129132
 3121 Fit      -0.127880
 3122 Fit      -0.126732
 3123 Fit      -0.125628
 3124 Fit      -0.124590
 3125 Fit      -0.123673
 3126 Fit      -0.122945
 3127 Fit      -0.122466
 3128 Fit      -0.122281
 3129 Fit      -0.122415
 3130 Fit      -0.122874
 3131 Fit      -0.123645
 3132 Fit      -0.124700
 3133 Fit      -0.126005
 3134 Fit      -0.127519
 3135 Fit      -0.129193
 3136 Fit      -0.130974
 3137 Fit      -0.132637
 3138 Fit      -0.130215
 3139 Fit      -0.128404
 3140 Fit      -0.126890
 3141 Fit      -0.125551
 3142 Fit      -0.124374
 3143 Fit      -0.123401
 3144 Fit      -0.122694
 3145 Fit      -0.122310
 3146 Fit      -0.122286
 3147 Fit      -0.122636
 3148 Fit      -0.123348
 3149 Fit      -0.124388
 3150 Fit      -0.125709
 3151 Fit      -0.127255
 3152 Fit      -0.128977
 3153 Fit      -0.130855
 3154 Fit      -0.132959
 3155 Fit      -0.138622
 3156 Fit      -0.134158
 3157 Fit      -0.131069
 3158 Fit      -0.128770
 3159 Fit      -0.126924
 3160 Fit      -0.125389
 3161 Fit      -0.124149
 3162 Fit      -0.123248
 3163 Fit      -0.122745
 3164 Fit      -0.122683
 3165 Fit      -0.123077
 3166 Fit      -0.123908
 3167 Fit      -0.125125
 3168 Fit      -0.126665
 3169 Fit      -0.128470
 3170 Fit      -0.130530
 3171 Fit      -0.132950
 3172 Fit      -0.136073
 3173 Fit      -0.146258
 3174 Fit      -0.140184
 3175 Fit      -0.135431
 3176 Fit      -0.131907
 3177 Fit      -0.129246
 3178 Fit      -0.127167
 3179 Fit      -0.125545
 3180 Fit      -0.124371
 3181 Fit      -0.123692
 3182 Fit      -0.123555
 3183 Fit      -0.123975
 3184 Fit      -0.124923
 3185 Fit      -0.126337
 3186 Fit      -0.128147
 3187 Fit      -0.130330
 3188 Fit      -0.132973
 3189 Fit      -0.136358
 3190 Fit      -0.140918
 3191 Fit      -0.147673
 3192 Fit      -0.144641
 3193 Fit      -0.140031
 3194 Fit      -0.135573
 3195 Fit      -0.131950
 3196 Fit      -0.129163
 3197 Fit      -0.127087
 3198 Fit      -0.125684
 3199 Fit      -0.124996
 3200 Fit      -0.125063
 3201 Fit      -0.125876
 3202 Fit      -0.127364
 3203 Fit      -0.129442
 3204 Fit      -0.132094
 3205 Fit      -0.135430
 3206 Fit      -0.139563
 3207 Fit      -0.144072
 3208 Fit      -0.147411
 3209 Fit      -0.141060
 3210 Fit      -0.138567
 3211 Fit      -0.134668
 3212 Fit      -0.131109
 3213 Fit      -0.128524
 3214 Fit      -0.127099
 3215 Fit      -0.126946
 3216 Fit      -0.128055
 3217 Fit      -0.130270
 3218 Fit      -0.133401
 3219 Fit      -0.137139
 3220 Fit      -0.140372
 3221 Fit      -0.136189
 3222 Fit      -0.133568
 3223 Fit      -0.130314
 3224 Fit      -0.129371
 3225 Fit      -0.131276
 3226 Fit      -0.134709
 3227 Fit      -0.132402
 3228 Fit      -0.132344
 3229 Fit      -0.134898
 3230 Fit      -0.132051
 3231 Fit      -0.130034
 3232 Fit      -0.130422
 3233 Fit      -0.132787
 3234 Fit      -0.135256
 3235 Fit      -0.138168
 3236 Fit      -0.135165
 3237 Fit      -0.131979
 3238 Fit      -0.129547
 3239 Fit      -0.128286
 3240 Fit      -0.128177
 3241 Fit      -0.129041
 3242 Fit      -0.130780
 3243 Fit      -0.133318
 3244 Fit      -0.136293
 3245 Fit      -0.138844
 3246 Fit      -0.139680
 3247 Fit      -0.142219
 3248 Fit      -0.138899
 3249 Fit      -0.135389
 3250 Fit      -0.132191
 3251 Fit      -0.129654
 3252 Fit      -0.127950
 3253 Fit      -0.127071
 3254 Fit      -0.126896
 3255 Fit      -0.127269
 3256 Fit      -0.128105
 3257 Fit      -0.129432
 3258 Fit      -0.131357
 3259 Fit      -0.133912
 3260 Fit      -0.136963
 3261 Fit      -0.140240
 3262 Fit      -0.143238
 3263 Fit      -0.144979
 3264 Fit      -0.144569
 3265 Fit      -0.147063
 3266 Fit      -0.143114
 3267 Fit      -0.139177
 3268 Fit      -0.135467
 3269 Fit      -0.132228
 3270 Fit      -0.129660
 3271 Fit      -0.127840
 3272 Fit      -0.126739
 3273 Fit      -0.126251
 3274 Fit      -0.126236
 3275 Fit      -0.126556
 3276 Fit      -0.127134
 3277 Fit      -0.127990
 3278 Fit      -0.129257
 3279 Fit      -0.131113
 3280 Fit      -0.133645
 3281 Fit      -0.136749
 3282 Fit      -0.140241
 3283 Fit      -0.144057
 3284 Fit      -0.148030
 3285 Fit      -0.151271
 3286 Fit      -0.152296
 3287 Fit      -0.150538
 3288 Fit      -0.152552
 3289 Fit      -0.147816
 3290 Fit      -0.143416
 3291 Fit      -0.139177
 3292 Fit      -0.135304
 3293 Fit      -0.132042
 3294 Fit      -0.129516
 3295 Fit      -0.127734
 3296 Fit      -0.126628
 3297 Fit      -0.126086
 3298 Fit      -0.125972
 3299 Fit      -0.126144
 3300 Fit      -0.126484
 3301 Fit      -0.126938
 3302 Fit      -0.127554
 3303 Fit      -0.128509
 3304 Fit      -0.130068
 3305 Fit      -0.132459
 3306 Fit      -0.135664
 3307 Fit      -0.152597
 3308 Fit      -0.143871
 3309 Fit      -0.139307
 3310 Fit      -0.135319
 3311 Fit      -0.132092
 3312 Fit      -0.129650
 3313 Fit      -0.127935
 3314 Fit      -0.126856
 3315 Fit      -0.126299
 3316 Fit      -0.126139
 3317 Fit      -0.126241
 3318 Fit      -0.126478
 3319 Fit      -0.126750
 3320 Fit      -0.127016
 3321 Fit      -0.127335
 3322 Fit      -0.127907
 3323 Fit      -0.129078
 3324 Fit      -0.143795
 3325 Fit      -0.138819
 3326 Fit      -0.134815
 3327 Fit      -0.131755
 3328 Fit      -0.129533
 3329 Fit      -0.128031
 3330 Fit      -0.127129
 3331 Fit      -0.126706
 3332 Fit      -0.126639
 3333 Fit      -0.126797
 3334 Fit      -0.127048
 3335 Fit      -0.127274
 3336 Fit      -0.127393
 3337 Fit      -0.127397
 3338 Fit      -0.127417
 3339 Fit      -0.142321
 3340 Fit      -0.137349
 3341 Fit      -0.133663
 3342 Fit      -0.131011
 3343 Fit      -0.129199
 3344 Fit      -0.128072
 3345 Fit      -0.127496
 3346 Fit      -0.127347
 3347 Fit      -0.127497
 3348 Fit      -0.127815
 3349 Fit      -0.128159
 3350 Fit      -0.128391
 3351 Fit      -0.128397
 3352 Fit      -0.139210
 3353 Fit      -0.134959
 3354 Fit      -0.132009
 3355 Fit      -0.130041
 3356 Fit      -0.128848
 3357 Fit      -0.128274
 3358 Fit      -0.128189
 3359 Fit      -0.128468
 3360 Fit      -0.128978
 3361 Fit      -0.129571
 3362 Fit      -0.130080
 3363 Fit      -0.139740
 3364 Fit      -0.135219
 3365 Fit      -0.132229
 3366 Fit      -0.130344
 3367 Fit      -0.129313
 3368 Fit      -0.128968
 3369 Fit      -0.129178
 3370 Fit      -0.129823
 3371 Fit      -0.130775
 3372 Fit      -0.131880
 3373 Fit      -0.138411
 3374 Fit      -0.134194
 3375 Fit      -0.131574
 3376 Fit      -0.130119
 3377 Fit      -0.129586
 3378 Fit      -0.129827
 3379 Fit      -0.130731
 3380 Fit      -0.128831
 3381 Fit      -0.131527
 3382 Fit      -0.135391
 3383 Fit      -0.140274
 3384 Fit      -0.123613
 3385 Fit      -0.124438
 3386 Fit      -0.120694
 3387 Fit      -0.120140
 3388 Fit      -0.120800
 3389 Fit      -0.119019
 3390 Fit      -0.117515
 3391 Fit      -0.117093
 3392 Fit      -0.117778
 3393 Fit      -0.116143
 3394 Fit      -0.114896
 3395 Fit      -0.114613
 3396 Fit      -0.115361
 3397 Fit      -0.118216
 3398 Fit      -0.114101
 3399 Fit      -0.113069
 3400 Fit      -0.112851
 3401 Fit      -0.113549
 3402 Fit      -0.118025
 3403 Fit      -0.115805
 3404 Fit      -0.113090
 3405 Fit      -0.112187
 3406 Fit      -0.111961
 3407 Fit      -0.112545
 3408 Fit      -0.120569
 3409 Fit      -0.118369
 3410 Fit      -0.116317
 3411 Fit      -0.114516
 3412 Fit      -0.113236
 3413 Fit      -0.112379
 3414 Fit      -0.112040
 3415 Fit      -0.112371
 3416 Fit      -0.122078
 3417 Fit      -0.120547
 3418 Fit      -0.118984
 3419 Fit      -0.117413
 3420 Fit      -0.115877
 3421 Fit      -0.114449
 3422 Fit      -0.114584
 3423 Fit      -0.113679
 3424 Fit      -0.113139
 3425 Fit      -0.113137
 3426 Fit      -0.113812
 3427 Fit      -0.122057
 3428 Fit      -0.121363
 3429 Fit      -0.120633
 3430 Fit      -0.119836
 3431 Fit      -0.118942
 3432 Fit      -0.117938
 3433 Fit      -0.116834
 3434 Fit      -0.115683
 3435 Fit      -0.117078
 3436 Fit      -0.116039
 3437 Fit      -0.115212
 3438 Fit      -0.114795
 3439 Fit      -0.114956
 3440 Fit      -0.128017
 3441 Fit      -0.125115
 3442 Fit      -0.123215
 3443 Fit      -0.121986
 3444 Fit      -0.121215
 3445 Fit      -0.120768
 3446 Fit      -0.120549
 3447 Fit      -0.120490
 3448 Fit      -0.120530
 3449 Fit      -0.120605
 3450 Fit      -0.120644
 3451 Fit      -0.120573
 3452 Fit      -0.120318
 3453 Fit      -0.119830
 3454 Fit      -0.118145
 3455 Fit      -0.117249
 3456 Fit      -0.116797
 3457 Fit      -0.123842
 3458 Fit      -0.121302
 3459 Fit      -0.119704
 3460 Fit      -0.118808
 3461 Fit      -0.118448
 3462 Fit      -0.118508
 3463 Fit      -0.118894
 3464 Fit      -0.119521
 3465 Fit      -0.120303
 3466 Fit      -0.121139
 3467 Fit      -0.119146
 3468 Fit      -0.118607
 3469 Fit      -0.122531
 3470 Fit      -0.119691
 3471 Fit      -0.117931
 3472 Fit      -0.117039
 3473 Fit      -0.116858
 3474 Fit      -0.117261
 3475 Fit      -0.118138
 3476 Fit      -0.119377
 3477 Fit      -0.120858
 3478 Fit      -0.120537
 3479 Fit      -0.122261
 3480 Fit      -0.119192
 3481 Fit      -0.117263
 3482 Fit      -0.116330
 3483 Fit      -0.116261
 3484 Fit      -0.116931
 3485 Fit      -0.118217
 3486 Fit      -0.119985
 3487 Fit      -0.121099
 3488 Fit      -0.124350
 3489 Fit      -0.120674
 3490 Fit      -0.118183
 3491 Fit      -0.116841
 3492 Fit      -0.116555
 3493 Fit      -0.117209
 3494 Fit      -0.118667
 3495 Fit      -0.122161
 3496 Fit      -0.120872
 3497 Fit      -0.120203
 3498 Fit      -0.124829
 3499 Fit      -0.124791
 3500 Fit      -0.121213
 3501 Fit      -0.118906
 3502 Fit      -0.117877
 3503 Fit      -0.118046
 3504 Fit      -0.119281
 3505 Fit      -0.121537
 3506 Fit      -0.120684
 3507 Fit      -0.120581
 3508 Fit      -0.121243
 3509 Fit      -0.122737
 3510 Fit      -0.125171
 3511 Fit      -0.122652
 3512 Fit      -0.120553
 3513 Fit      -0.119876
 3514 Fit      -0.120523
 3515 Fit      -0.122330
 3516 Fit      -0.121797
 3517 Fit      -0.122324
 3518 Fit      -0.124012
 3519 Fit      -0.126987
 3520 Fit      -0.125642
 3521 Fit      -0.123277
 3522 Fit      -0.122550
 3523 Fit      -0.123338
 3524 Fit      -0.124811
 3525 Fit      -0.123849
 3526 Fit      -0.124187
 3527 Fit      -0.125971
 3528 Fit      -0.126415
 3529 Fit      -0.125579
 3530 Fit      -0.126382
 3531 Fit      -0.126855
 3532 Fit      -0.129111
 3533 Fit      -0.130330
 3534 Fit      -0.128773
 3535 Fit      -0.129121
 3536 Fit      -0.130298
 3537 Fit      -0.132482
 3538 Fit      -0.131977
 3539 Fit      -0.134795
 3540 Fit      -0.128413
 3541 Fit      -0.124509
 3542 Fit      -0.122552
 3543 Fit      -0.126575
 3544 Fit      -0.133102
 3545 Fit      -0.121169
 3546 Fit      -0.118107
 3547 Fit      -0.117862
 3548 Fit      -0.120371
 3549 Fit      -0.125496
 3550 Fit      -0.132406
 3551 Fit      -0.118310
 3552 Fit      -0.115268
 3553 Fit      -0.113901
 3554 Fit      -0.114094
 3555 Fit      -0.115906
 3556 Fit      -0.119474
 3557 Fit      -0.124901
 3558 Fit      -0.132048
 3559 Fit      -0.115935
 3560 Fit      -0.113156
 3561 Fit      -0.111484
 3562 Fit      -0.110792
 3563 Fit      -0.111089
 3564 Fit      -0.112460
 3565 Fit      -0.115039
 3566 Fit      -0.119001
 3567 Fit      -0.124555
 3568 Fit      -0.131881
 3569 Fit      -0.114098
 3570 Fit      -0.111492
 3571 Fit      -0.109736
 3572 Fit      -0.108730
 3573 Fit      -0.108474
 3574 Fit      -0.109032
 3575 Fit      -0.110506
 3576 Fit      -0.113035
 3577 Fit      -0.116808
 3578 Fit      -0.122098
 3579 Fit      -0.129288
 3580 Fit      -0.112891
 3581 Fit      -0.110540
 3582 Fit      -0.108793
 3583 Fit      -0.107585
 3584 Fit      -0.106916
 3585 Fit      -0.106825
 3586 Fit      -0.107376
 3587 Fit      -0.108651
 3588 Fit      -0.110756
 3589 Fit      -0.113835
 3590 Fit      -0.118098
 3591 Fit      -0.123870
 3592 Fit      -0.131677
 3593 Fit      -0.112423
 3594 Fit      -0.110139
 3595 Fit      -0.108343
 3596 Fit      -0.106998
 3597 Fit      -0.106109
 3598 Fit      -0.105709
 3599 Fit      -0.105848
 3600 Fit      -0.106591
 3601 Fit      -0.108015
 3602 Fit      -0.110219
 3603 Fit      -0.113340
 3604 Fit      -0.117585
 3605 Fit      -0.123294
 3606 Fit      -0.131056
 3607 Fit      -0.112819
 3608 Fit      -0.110431
 3609 Fit      -0.108493
 3610 Fit      -0.106982
 3611 Fit      -0.105903
 3612 Fit      -0.105279
 3613 Fit      -0.105149
 3614 Fit      -0.105565
 3615 Fit      -0.106585
 3616 Fit      -0.108285
 3617 Fit      -0.110762
 3618 Fit      -0.114156
 3619 Fit      -0.118688
 3620 Fit      -0.124736
 3621 Fit      -0.111531
 3622 Fit      -0.109349
 3623 Fit      -0.107621
 3624 Fit      -0.106332
 3625 Fit      -0.105486
 3626 Fit      -0.105106
 3627 Fit      -0.105224
 3628 Fit      -0.105882
 3629 Fit      -0.107133
 3630 Fit      -0.109041
 3631 Fit      -0.111692
 3632 Fit      -0.115213
 3633 Fit      -0.119801
 3634 Fit      -0.125793
 3635 Fit      -0.113432
 3636 Fit      -0.110835
 3637 Fit      -0.108798
 3638 Fit      -0.107268
 3639 Fit      -0.106217
 3640 Fit      -0.105645
 3641 Fit      -0.105566
 3642 Fit      -0.106006
 3643 Fit      -0.107002
 3644 Fit      -0.108597
 3645 Fit      -0.110850
 3646 Fit      -0.113836
 3647 Fit      -0.117665
 3648 Fit      -0.122495
 3649 Fit      -0.128572
 3650 Fit      -0.116047
 3651 Fit      -0.112788
 3652 Fit      -0.110319
 3653 Fit      -0.108508
 3654 Fit      -0.107283
 3655 Fit      -0.106611
 3656 Fit      -0.106488
 3657 Fit      -0.106927
 3658 Fit      -0.107953
 3659 Fit      -0.109598
 3660 Fit      -0.111905
 3661 Fit      -0.114925
 3662 Fit      -0.118711
 3663 Fit      -0.123307
 3664 Fit      -0.115191
 3665 Fit      -0.112192
 3666 Fit      -0.110077
 3667 Fit      -0.108701
 3668 Fit      -0.107994
 3669 Fit      -0.107924
 3670 Fit      -0.108491
 3671 Fit      -0.109705
 3672 Fit      -0.111590
 3673 Fit      -0.114167
 3674 Fit      -0.117449
 3675 Fit      -0.121398
 3676 Fit      -0.118090
 3677 Fit      -0.114517
 3678 Fit      -0.112090
 3679 Fit      -0.110577
 3680 Fit      -0.109856
 3681 Fit      -0.109866
 3682 Fit      -0.110587
 3683 Fit      -0.112014
 3684 Fit      -0.114155
 3685 Fit      -0.117006
 3686 Fit      -0.120525
 3687 Fit      -0.124549
 3688 Fit      -0.116972
 3689 Fit      -0.114307
 3690 Fit      -0.112774
 3691 Fit      -0.112194
 3692 Fit      -0.112480
 3693 Fit      -0.113594
 3694 Fit      -0.115522
 3695 Fit      -0.118262
 3696 Fit      -0.121792
 3697 Fit      -0.119019
 3698 Fit      -0.116424
 3699 Fit      -0.115282
 3700 Fit      -0.115372
 3701 Fit      -0.116597
 3702 Fit      -0.118934
 3703 Fit      -0.122413
 3704 Fit      -0.119411
 3705 Fit      -0.118904
 3706 Fit      -0.119936
 3707 Fit      -0.123370
 3708 Fit      -0.121555
 3709 Fit      -0.123728
 3710 Fit      -0.126007
 3711 Fit      -0.125720
 3712 Fit      -0.123160
 3713 Fit      -0.121266
 3714 Fit      -0.120200
 3715 Fit      -0.121829
 3716 Fit      -0.124211
 3717 Fit      -0.126962
 3718 Fit      -0.129270
 3719 Fit      -0.130017
 3720 Fit      -0.128688
 3721 Fit      -0.126011
 3722 Fit      -0.123130
 3723 Fit      -0.120877
 3724 Fit      -0.119636
 3725 Fit      -0.119443
 3726 Fit      -0.119238
 3727 Fit      -0.120536
 3728 Fit      -0.122402
 3729 Fit      -0.124825
 3730 Fit      -0.127667
 3731 Fit      -0.130660
 3732 Fit      -0.133306
 3733 Fit      -0.134788
 3734 Fit      -0.134423
 3735 Fit      -0.132367
 3736 Fit      -0.129398
 3737 Fit      -0.126224
 3738 Fit      -0.123317
 3739 Fit      -0.120975
 3740 Fit      -0.119346
 3741 Fit      -0.118437
 3742 Fit      -0.118172
 3743 Fit      -0.118456
 3744 Fit      -0.118612
 3745 Fit      -0.119662
 3746 Fit      -0.121144
 3747 Fit      -0.123133
 3748 Fit      -0.125621
 3749 Fit      -0.128514
 3750 Fit      -0.131706
 3751 Fit      -0.135088
 3752 Fit      -0.138342
 3753 Fit      -0.140705
 3754 Fit      -0.141256
 3755 Fit      -0.139744
 3756 Fit      -0.136847
 3757 Fit      -0.133421
 3758 Fit      -0.129943
 3759 Fit      -0.126656
 3760 Fit      -0.123747
 3761 Fit      -0.121357
 3762 Fit      -0.119554
 3763 Fit      -0.118332
 3764 Fit      -0.117636
 3765 Fit      -0.117385
 3766 Fit      -0.117494
 3767 Fit      -0.117906
 3768 Fit      -0.118283
 3769 Fit      -0.119150
 3770 Fit      -0.120391
 3771 Fit      -0.122129
 3772 Fit      -0.124426
 3773 Fit      -0.127225
 3774 Fit      -0.140081
 3775 Fit      -0.136026
 3776 Fit      -0.132182
 3777 Fit      -0.128596
 3778 Fit      -0.125396
 3779 Fit      -0.122699
 3780 Fit      -0.120560
 3781 Fit      -0.118974
 3782 Fit      -0.117899
 3783 Fit      -0.117268
 3784 Fit      -0.117001
 3785 Fit      -0.117019
 3786 Fit      -0.117255
 3787 Fit      -0.117673
 3788 Fit      -0.118234
 3789 Fit      -0.118934
 3790 Fit      -0.119980
 3791 Fit      -0.121552
 3792 Fit      -0.136660
 3793 Fit      -0.132495
 3794 Fit      -0.128680
 3795 Fit      -0.125381
 3796 Fit      -0.122673
 3797 Fit      -0.120559
 3798 Fit      -0.119000
 3799 Fit      -0.117933
 3800 Fit      -0.117287
 3801 Fit      -0.116982
 3802 Fit      -0.116938
 3803 Fit      -0.117083
 3804 Fit      -0.117358
 3805 Fit      -0.117735
 3806 Fit      -0.118494
 3807 Fit      -0.119002
 3808 Fit      -0.132905
 3809 Fit      -0.128863
 3810 Fit      -0.125503
 3811 Fit      -0.122820
 3812 Fit      -0.120758
 3813 Fit      -0.119246
 3814 Fit      -0.118209
 3815 Fit      -0.117572
 3816 Fit      -0.117260
 3817 Fit      -0.117197
 3818 Fit      -0.117310
 3819 Fit      -0.117532
 3820 Fit      -0.117812
 3821 Fit      -0.118126
 3822 Fit      -0.119164
 3823 Fit      -0.130446
 3824 Fit      -0.126715
 3825 Fit      -0.123803
 3826 Fit      -0.121593
 3827 Fit      -0.119977
 3828 Fit      -0.118863
 3829 Fit      -0.118167
 3830 Fit      -0.117814
 3831 Fit      -0.117729
 3832 Fit      -0.117840
 3833 Fit      -0.118074
 3834 Fit      -0.118365
 3835 Fit      -0.118657
 3836 Fit      -0.118919
 3837 Fit      -0.130647
 3838 Fit      -0.126726
 3839 Fit      -0.123799
 3840 Fit      -0.121664
 3841 Fit      -0.120170
 3842 Fit      -0.119202
 3843 Fit      -0.118667
 3844 Fit      -0.118482
 3845 Fit      -0.118568
 3846 Fit      -0.118845
 3847 Fit      -0.119233
 3848 Fit      -0.119652
 3849 Fit      -0.120027
 3850 Fit      -0.130446
 3851 Fit      -0.126548
 3852 Fit      -0.123749
 3853 Fit      -0.121786
 3854 Fit      -0.120488
 3855 Fit      -0.119729
 3856 Fit      -0.119414
 3857 Fit      -0.119459
 3858 Fit      -0.119787
 3859 Fit      -0.120317
 3860 Fit      -0.120963
 3861 Fit      -0.127186
 3862 Fit      -0.124292
 3863 Fit      -0.122346
 3864 Fit      -0.121139
 3865 Fit      -0.120533
 3866 Fit      -0.120428
 3867 Fit      -0.120741
 3868 Fit      -0.121398
 3869 Fit      -0.122319
 3870 Fit      -0.125417
 3871 Fit      -0.123280
 3872 Fit      -0.122036
 3873 Fit      -0.121521
 3874 Fit      -0.121627
 3875 Fit      -0.118661
 3876 Fit      -0.116817
 3877 Fit      -0.116815
 3878 Fit      -0.117183
 3879 Fit      -0.120914
 3880 Fit      -0.119618
 3881 Fit      -0.118548
 3882 Fit      -0.117713
 3883 Fit      -0.117128
 3884 Fit      -0.115780
 3885 Fit      -0.115889
 3886 Fit      -0.116308
 3887 Fit      -0.117101
 3888 Fit      -0.118371
 3889 Fit      -0.121167
 3890 Fit      -0.119900
 3891 Fit      -0.118760
 3892 Fit      -0.117771
 3893 Fit      -0.116958
 3894 Fit      -0.116341
 3895 Fit      -0.115941
 3896 Fit      -0.114920
 3897 Fit      -0.115107
 3898 Fit      -0.115559
 3899 Fit      -0.116314
 3900 Fit      -0.117425
 3901 Fit      -0.118974
 3902 Fit      -0.120161
 3903 Fit      -0.119086
 3904 Fit      -0.118071
 3905 Fit      -0.117150
 3906 Fit      -0.116353
 3907 Fit      -0.115708
 3908 Fit      -0.115241
 3909 Fit      -0.114971
 3910 Fit      -0.114221
 3911 Fit      -0.114471
 3912 Fit      -0.114963
 3913 Fit      -0.115717
 3914 Fit      -0.116760
 3915 Fit      -0.118131
 3916 Fit      -0.119881
 3917 Fit      -0.119740
 3918 Fit      -0.118738
 3919 Fit      -0.117767
 3920 Fit      -0.116853
 3921 Fit      -0.116028
 3922 Fit      -0.115323
 3923 Fit      -0.114767
 3924 Fit      -0.114385
 3925 Fit      -0.114197
 3926 Fit      -0.113703
 3927 Fit      -0.114007
 3928 Fit      -0.114546
 3929 Fit      -0.115327
 3930 Fit      -0.116361
 3931 Fit      -0.117662
 3932 Fit      -0.119244
 3933 Fit      -0.121122
 3934 Fit      -0.120164
 3935 Fit      -0.119049
 3936 Fit      -0.118007
 3937 Fit      -0.117026
 3938 Fit      -0.116119
 3939 Fit      -0.115310
 3940 Fit      -0.114630
 3941 Fit      -0.114107
 3942 Fit      -0.113766
 3943 Fit      -0.113626
 3944 Fit      -0.113402
 3945 Fit      -0.113744
 3946 Fit      -0.114315
 3947 Fit      -0.115114
 3948 Fit      -0.116140
 3949 Fit      -0.117390
 3950 Fit      -0.118861
 3951 Fit      -0.120550
 3952 Fit      -0.122446
 3953 Fit      -0.121682
 3954 Fit      -0.120140
 3955 Fit      -0.118842
 3956 Fit      -0.117692
 3957 Fit      -0.116651
 3958 Fit      -0.115713
 3959 Fit      -0.114895
 3960 Fit      -0.114219
 3961 Fit      -0.113712
 3962 Fit      -0.113396
 3963 Fit      -0.113289
 3964 Fit      -0.113360
 3965 Fit      -0.113749
 3966 Fit      -0.114386
 3967 Fit      -0.115265
 3968 Fit      -0.116374
 3969 Fit      -0.117703
 3970 Fit      -0.119242
 3971 Fit      -0.120990
 3972 Fit      -0.122964
 3973 Fit      -0.123733
 3974 Fit      -0.121485
 3975 Fit      -0.119731
 3976 Fit      -0.118279
 3977 Fit      -0.117027
 3978 Fit      -0.115938
 3979 Fit      -0.115005
 3980 Fit      -0.114245
 3981 Fit      -0.113680
 3982 Fit      -0.113333
 3983 Fit      -0.113223
 3984 Fit      -0.113615
 3985 Fit      -0.114058
 3986 Fit      -0.114787
 3987 Fit      -0.115790
 3988 Fit      -0.117049
 3989 Fit      -0.118552
 3990 Fit      -0.120298
 3991 Fit      -0.122322
 3992 Fit      -0.124723
 3993 Fit      -0.124591
 3994 Fit      -0.121924
 3995 Fit      -0.119865
 3996 Fit      -0.118199
 3997 Fit      -0.116812
 3998 Fit      -0.115657
 3999 Fit      -0.114728
 4000 Fit      -0.114039
 4001 Fit      -0.113613
 4002 Fit      -0.113468
 4003 Fit      -0.114204
 4004 Fit      -0.114696
 4005 Fit      -0.115523
 4006 Fit      -0.116668
 4007 Fit      -0.118112
 4008 Fit      -0.119854
 4009 Fit      -0.121927
 4010 Fit      -0.124436
 4011 Fit      -0.127597
 4012 Fit      -0.129368
 4013 Fit      -0.125433
 4014 Fit      -0.122454
 4015 Fit      -0.120147
 4016 Fit      -0.118312
 4017 Fit      -0.116835
 4018 Fit      -0.115668
 4019 Fit      -0.114807
 4020 Fit      -0.114265
 4021 Fit      -0.114060
 4022 Fit      -0.115156
 4023 Fit      -0.115723
 4024 Fit      -0.116721
 4025 Fit      -0.118126
 4026 Fit      -0.119929
 4027 Fit      -0.122161
 4028 Fit      -0.124926
 4029 Fit      -0.128400
 4030 Fit      -0.131715
 4031 Fit      -0.127328
 4032 Fit      -0.123830
 4033 Fit      -0.121105
 4034 Fit      -0.118984
 4035 Fit      -0.117347
 4036 Fit      -0.116145
 4037 Fit      -0.115371
 4038 Fit      -0.115037
 4039 Fit      -0.116496
 4040 Fit      -0.117211
 4041 Fit      -0.118565
 4042 Fit      -0.120526
 4043 Fit      -0.123102
 4044 Fit      -0.126342
 4045 Fit      -0.130196
 4046 Fit      -0.134136
 4047 Fit      -0.136879
 4048 Fit      -0.137050
 4049 Fit      -0.134518
 4050 Fit      -0.130533
 4051 Fit      -0.126474
 4052 Fit      -0.123036
 4053 Fit      -0.120358
 4054 Fit      -0.118389
 4055 Fit      -0.117087
 4056 Fit      -0.116453
 4057 Fit      -0.118258
 4058 Fit      -0.119253
 4059 Fit      -0.121305
 4060 Fit      -0.124257
 4061 Fit      -0.127730
 4062 Fit      -0.130612
 4063 Fit      -0.131193
 4064 Fit      -0.128992
 4065 Fit      -0.125459
 4066 Fit      -0.122147
 4067 Fit      -0.119735
 4068 Fit      -0.118416
 4069 Fit      -0.120488
 4070 Fit      -0.122233
 4071 Fit      -0.125404
 4072 Fit      -0.126751
 4073 Fit      -0.124366
 4074 Fit      -0.121370
 4075 Fit      -0.123270
 4076 Fit      -0.126386
 4077 Fit      -0.125803
 4078 Fit      -0.126239
 4079 Fit      -0.125564
 4080 Fit      -0.126105
 4081 Fit      -0.125965
 4082 Fit      -0.126138
 4083 Fit      -0.126003
 4084 Fit      -0.127696
 4085 Fit      -0.126839
 4086 Fit      -0.126746
 4087 Fit      -0.127545
 4088 Fit      -0.127208
 4089 Fit      -0.126734
 4090 Fit      -0.127060
 4091 Fit      -0.128729
 4092 Fit      -0.127779
 4093 Fit      -0.127764
 4094 Fit      -0.128756
 4095 Fit      -0.128173
 4096 Fit      -0.127698
 4097 Fit      -0.128163
 4098 Fit      -0.129777
 4099 Fit      -0.129942
 4100 Fit      -0.128861
 4101 Fit      -0.128828
 4102 Fit      -0.129865
 4103 Fit      -0.132181
 4104 Fit      -0.130980
 4105 Fit      -0.129306
 4106 Fit      -0.128757
 4107 Fit      -0.129244
 4108 Fit      -0.130891
 4109 Fit      -0.132652
 4110 Fit      -0.130560
 4111 Fit      -0.129757
 4112 Fit      -0.130185
 4113 Fit      -0.131886
 4114 Fit      -0.134867
 4115 Fit      -0.134231
 4116 Fit      -0.131484
 4117 Fit      -0.130041
 4118 Fit      -0.129853
 4119 Fit      -0.130907
 4120 Fit      -0.133264
 4121 Fit      -0.137262
 4122 Fit      -0.135488
 4123 Fit      -0.133089
 4124 Fit      -0.131288
 4125 Fit      -0.130635
 4126 Fit      -0.131236
 4127 Fit      -0.132989
 4128 Fit      -0.135372
 4129 Fit      -0.137213
 4130 Fit      -0.137282
 4131 Fit      -0.135520
 4132 Fit      -0.133123
 4133 Fit      -0.131320
 4134 Fit      -0.130664
 4135 Fit      -0.131263
 4136 Fit      -0.133012
 4137 Fit      -0.135386
 4138 Fit      -0.137211
 4139 Fit      -0.134073
 4140 Fit      -0.132920
 4141 Fit      -0.131625
 4142 Fit      -0.131390
 4143 Fit      -0.132396
 4144 Fit      -0.133783
 4145 Fit      -0.134084
 4146 Fit      -0.132940
 4147 Fit      -0.131647
 4148 Fit      -0.131409
 4149 Fit      -0.132409
 4150 Fit      -0.133786
 4151 Fit      -0.132410
 4152 Fit      -0.131827
 4153 Fit      -0.132022
 4154 Fit      -0.132415
 4155 Fit      -0.131838
 4156 Fit      -0.132029
 4157 Fit      -0.131897
 4158 Fit      -0.128816
 4159 Fit      -0.131519
 4160 Fit      -0.135389
 4161 Fit      -0.140276
 4162 Fit      -0.123594
 4163 Fit      -0.124429
 4164 Fit      -0.120678
 4165 Fit      -0.120128
 4166 Fit      -0.120794
 4167 Fit      -0.118129
 4168 Fit      -0.117156
 4169 Fit      -0.117297
 4170 Fit      -0.117085
 4171 Fit      -0.115404
 4172 Fit      -0.114626
 4173 Fit      -0.114858
 4174 Fit      -0.119291
 4175 Fit      -0.116864
 4176 Fit      -0.114881
 4177 Fit      -0.113494
 4178 Fit      -0.112853
 4179 Fit      -0.113086
 4180 Fit      -0.120583
 4181 Fit      -0.118378
 4182 Fit      -0.116323
 4183 Fit      -0.114521
 4184 Fit      -0.113096
 4185 Fit      -0.112194
 4186 Fit      -0.111969
 4187 Fit      -0.112553
 4188 Fit      -0.121331
 4189 Fit      -0.119776
 4190 Fit      -0.118201
 4191 Fit      -0.116641
 4192 Fit      -0.115149
 4193 Fit      -0.113815
 4194 Fit      -0.112763
 4195 Fit      -0.112147
 4196 Fit      -0.112126
 4197 Fit      -0.112835
 4198 Fit      -0.121726
 4199 Fit      -0.121010
 4200 Fit      -0.120244
 4201 Fit      -0.119398
 4202 Fit      -0.118450
 4203 Fit      -0.117394
 4204 Fit      -0.116262
 4205 Fit      -0.115128
 4206 Fit      -0.114111
 4207 Fit      -0.113370
 4208 Fit      -0.113079
 4209 Fit      -0.113400
 4210 Fit      -0.128039
 4211 Fit      -0.125143
 4212 Fit      -0.123247
 4213 Fit      -0.122018
 4214 Fit      -0.121245
 4215 Fit      -0.120791
 4216 Fit      -0.120565
 4217 Fit      -0.120496
 4218 Fit      -0.120526
 4219 Fit      -0.120593
 4220 Fit      -0.120628
 4221 Fit      -0.120554
 4222 Fit      -0.120302
 4223 Fit      -0.119819
 4224 Fit      -0.118151
 4225 Fit      -0.117093
 4226 Fit      -0.116061
 4227 Fit      -0.115238
 4228 Fit      -0.114821
 4229 Fit      -0.114979
 4230 Fit      -0.125589
 4231 Fit      -0.122452
 4232 Fit      -0.120421
 4233 Fit      -0.119196
 4234 Fit      -0.118581
 4235 Fit      -0.118437
 4236 Fit      -0.118662
 4237 Fit      -0.119169
 4238 Fit      -0.119876
 4239 Fit      -0.120690
 4240 Fit      -0.121509
 4241 Fit      -0.117694
 4242 Fit      -0.116992
 4243 Fit      -0.116817
 4244 Fit      -0.122538
 4245 Fit      -0.119696
 4246 Fit      -0.117933
 4247 Fit      -0.117037
 4248 Fit      -0.116848
 4249 Fit      -0.117242
 4250 Fit      -0.118108
 4251 Fit      -0.119338
 4252 Fit      -0.120810
 4253 Fit      -0.119192
 4254 Fit      -0.118645
 4255 Fit      -0.124266
 4256 Fit      -0.120570
 4257 Fit      -0.118085
 4258 Fit      -0.116665
 4259 Fit      -0.116172
 4260 Fit      -0.116478
 4261 Fit      -0.117461
 4262 Fit      -0.118995
 4263 Fit      -0.120167
 4264 Fit      -0.126604
 4265 Fit      -0.122352
 4266 Fit      -0.119261
 4267 Fit      -0.117347
 4268 Fit      -0.116537
 4269 Fit      -0.116726
 4270 Fit      -0.117789
 4271 Fit      -0.119582
 4272 Fit      -0.120683
 4273 Fit      -0.124770
 4274 Fit      -0.121185
 4275 Fit      -0.118869
 4276 Fit      -0.117830
 4277 Fit      -0.117988
 4278 Fit      -0.119211
 4279 Fit      -0.120920
 4280 Fit      -0.120236
 4281 Fit      -0.124836
 4282 Fit      -0.124203
 4283 Fit      -0.121377
 4284 Fit      -0.119987
 4285 Fit      -0.119977
 4286 Fit      -0.121213
 4287 Fit      -0.122309
 4288 Fit      -0.121066
 4289 Fit      -0.120575
 4290 Fit      -0.120840
 4291 Fit      -0.121900
 4292 Fit      -0.123845
 4293 Fit      -0.124202
 4294 Fit      -0.122653
 4295 Fit      -0.122694
 4296 Fit      -0.123036
 4297 Fit      -0.121989
 4298 Fit      -0.121964
 4299 Fit      -0.123048
 4300 Fit      -0.125357
 4301 Fit      -0.127457
 4302 Fit      -0.125713
 4303 Fit      -0.125729
 4304 Fit      -0.124243
 4305 Fit      -0.123899
 4306 Fit      -0.124932
 4307 Fit      -0.127483
 4308 Fit      -0.130277
 4309 Fit      -0.128711
 4310 Fit      -0.126446
 4311 Fit      -0.126907
 4312 Fit      -0.129152
 4313 Fit      -0.132432
 4314 Fit      -0.129180
 4315 Fit      -0.130345
 4316 Fit      -0.132027
 4317 Fit      -0.134830
 4318 Fit      -0.128377
 4319 Fit      -0.133067
 4320 Fit      -0.124479
 4321 Fit      -0.122532
 4322 Fit      -0.126554
 4323 Fit      -0.121147
 4324 Fit      -0.118094
 4325 Fit      -0.117852
 4326 Fit      -0.120361
 4327 Fit      -0.125485
 4328 Fit      -0.132390
 4329 Fit      -0.118298
 4330 Fit      -0.115261
 4331 Fit      -0.113897
 4332 Fit      -0.114091
 4333 Fit      -0.115903
 4334 Fit      -0.119470
 4335 Fit      -0.124896
 4336 Fit      -0.132042
 4337 Fit      -0.115932
 4338 Fit      -0.113157
 4339 Fit      -0.111486
 4340 Fit      -0.110795
 4341 Fit      -0.111092
 4342 Fit      -0.112462
 4343 Fit      -0.115040
 4344 Fit      -0.119000
 4345 Fit      -0.124554
 4346 Fit      -0.131880
 4347 Fit      -0.114104
 4348 Fit      -0.111499
 4349 Fit      -0.109745
 4350 Fit      -0.108738
 4351 Fit      -0.108482
 4352 Fit      -0.109039
 4353 Fit      -0.110512
 4354 Fit      -0.113039
 4355 Fit      -0.116811
 4356 Fit      -0.122100
 4357 Fit      -0.129289
 4358 Fit      -0.114355
 4359 Fit      -0.111645
 4360 Fit      -0.109611
 4361 Fit      -0.108137
 4362 Fit      -0.107196
 4363 Fit      -0.106808
 4364 Fit      -0.107028
 4365 Fit      -0.107928
 4366 Fit      -0.109601
 4367 Fit      -0.112171
 4368 Fit      -0.115808
 4369 Fit      -0.120773
 4370 Fit      -0.127479
 4371 Fit      -0.112441
 4372 Fit      -0.110159
 4373 Fit      -0.108363
 4374 Fit      -0.107017
 4375 Fit      -0.106128
 4376 Fit      -0.105727
 4377 Fit      -0.105866
 4378 Fit      -0.106607
 4379 Fit      -0.108029
 4380 Fit      -0.110231
 4381 Fit      -0.113350
 4382 Fit      -0.117593
 4383 Fit      -0.123299
 4384 Fit      -0.131059
 4385 Fit      -0.112843
 4386 Fit      -0.110456
 4387 Fit      -0.108519
 4388 Fit      -0.107008
 4389 Fit      -0.105928
 4390 Fit      -0.105303
 4391 Fit      -0.105172
 4392 Fit      -0.105585
 4393 Fit      -0.106604
 4394 Fit      -0.108302
 4395 Fit      -0.110777
 4396 Fit      -0.114168
 4397 Fit      -0.118698
 4398 Fit      -0.124742
 4399 Fit      -0.111565
 4400 Fit      -0.109383
 4401 Fit      -0.107654
 4402 Fit      -0.106364
 4403 Fit      -0.105517
 4404 Fit      -0.105135
 4405 Fit      -0.105251
 4406 Fit      -0.105907
 4407 Fit      -0.107155
 4408 Fit      -0.109060
 4409 Fit      -0.111709
 4410 Fit      -0.115227
 4411 Fit      -0.119813
 4412 Fit      -0.125801
 4413 Fit      -0.112103
 4414 Fit      -0.109793
 4415 Fit      -0.108013
 4416 Fit      -0.106721
 4417 Fit      -0.105907
 4418 Fit      -0.105576
 4419 Fit      -0.105750
 4420 Fit      -0.106461
 4421 Fit      -0.107747
 4422 Fit      -0.109660
 4423 Fit      -0.112266
 4424 Fit      -0.115654
 4425 Fit      -0.119956
 4426 Fit      -0.125368
 4427 Fit      -0.116108
 4428 Fit      -0.112844
 4429 Fit      -0.110370
 4430 Fit      -0.108556
 4431 Fit      -0.107327
 4432 Fit      -0.106652
 4433 Fit      -0.106526
 4434 Fit      -0.106962
 4435 Fit      -0.107984
 4436 Fit      -0.109626
 4437 Fit      -0.111931
 4438 Fit      -0.114947
 4439 Fit      -0.118730
 4440 Fit      -0.123321
 4441 Fit      -0.115263
 4442 Fit      -0.112255
 4443 Fit      -0.110133
 4444 Fit      -0.108752
 4445 Fit      -0.108040
 4446 Fit      -0.107967
 4447 Fit      -0.108529
 4448 Fit      -0.109740
 4449 Fit      -0.111621
 4450 Fit      -0.114195
 4451 Fit      -0.117473
 4452 Fit      -0.121418
 4453 Fit      -0.118179
 4454 Fit      -0.114593
 4455 Fit      -0.112156
 4456 Fit      -0.110635
 4457 Fit      -0.109908
 4458 Fit      -0.109913
 4459 Fit      -0.110629
 4460 Fit      -0.112052
 4461 Fit      -0.114189
 4462 Fit      -0.117036
 4463 Fit      -0.120551
 4464 Fit      -0.124570
 4465 Fit      -0.118920
 4466 Fit      -0.115563
 4467 Fit      -0.113482
 4468 Fit      -0.112432
 4469 Fit      -0.112285
 4470 Fit      -0.112982
 4471 Fit      -0.114499
 4472 Fit      -0.116830
 4473 Fit      -0.119966
 4474 Fit      -0.123862
 4475 Fit      -0.119115
 4476 Fit      -0.116503
 4477 Fit      -0.115348
 4478 Fit      -0.115430
 4479 Fit      -0.116649
 4480 Fit      -0.118981
 4481 Fit      -0.122456
 4482 Fit      -0.119494
 4483 Fit      -0.118974
 4484 Fit      -0.119998
 4485 Fit      -0.119086
 4486 Fit      -0.120938
 4487 Fit      -0.119636
 4488 Fit      -0.118561
 4489 Fit      -0.117722
 4490 Fit      -0.117135
 4491 Fit      -0.116821
 4492 Fit      -0.116817
 4493 Fit      -0.117184
 4494 Fit      -0.120545
 4495 Fit      -0.119333
 4496 Fit      -0.118262
 4497 Fit      -0.117355
 4498 Fit      -0.116634
 4499 Fit      -0.116120
 4500 Fit      -0.115834
 4501 Fit      -0.115802
 4502 Fit      -0.116057
 4503 Fit      -0.116652
 4504 Fit      -0.117666
 4505 Fit      -0.120182
 4506 Fit      -0.119106
 4507 Fit      -0.118089
 4508 Fit      -0.117165
 4509 Fit      -0.116366
 4510 Fit      -0.115719
 4511 Fit      -0.115248
 4512 Fit      -0.114977
 4513 Fit      -0.114923
 4514 Fit      -0.115108
 4515 Fit      -0.115559
 4516 Fit      -0.116311
 4517 Fit      -0.117419
 4518 Fit      -0.118964
 4519 Fit      -0.119754
 4520 Fit      -0.118753
 4521 Fit      -0.117782
 4522 Fit      -0.116868
 4523 Fit      -0.116042
 4524 Fit      -0.115335
 4525 Fit      -0.114776
 4526 Fit      -0.114392
 4527 Fit      -0.114202
 4528 Fit      -0.114223
 4529 Fit      -0.114472
 4530 Fit      -0.114962
 4531 Fit      -0.115713
 4532 Fit      -0.116754
 4533 Fit      -0.118121
 4534 Fit      -0.119866
 4535 Fit      -0.119602
 4536 Fit      -0.118530
 4537 Fit      -0.117520
 4538 Fit      -0.116574
 4539 Fit      -0.115713
 4540 Fit      -0.114964
 4541 Fit      -0.114357
 4542 Fit      -0.113920
 4543 Fit      -0.113675
 4544 Fit      -0.113640
 4545 Fit      -0.113827
 4546 Fit      -0.114245
 4547 Fit      -0.114902
 4548 Fit      -0.115806
 4549 Fit      -0.116969
 4550 Fit      -0.118406
 4551 Fit      -0.120130
 4552 Fit      -0.122149
 4553 Fit      -0.121681
 4554 Fit      -0.120142
 4555 Fit      -0.118848
 4556 Fit      -0.117701
 4557 Fit      -0.116661
 4558 Fit      -0.115724
 4559 Fit      -0.114905
 4560 Fit      -0.114229
 4561 Fit      -0.113720
 4562 Fit      -0.113401
 4563 Fit      -0.113292
 4564 Fit      -0.113403
 4565 Fit      -0.113742
 4566 Fit      -0.114311
 4567 Fit      -0.115109
 4568 Fit      -0.116133
 4569 Fit      -0.117381
 4570 Fit      -0.118851
 4571 Fit      -0.120537
 4572 Fit      -0.122430
 4573 Fit      -0.122529
 4574 Fit      -0.120563
 4575 Fit      -0.118980
 4576 Fit      -0.117638
 4577 Fit      -0.116471
 4578 Fit      -0.115460
 4579 Fit      -0.114611
 4580 Fit      -0.113944
 4581 Fit      -0.113484
 4582 Fit      -0.113251
 4583 Fit      -0.113261
 4584 Fit      -0.113522
 4585 Fit      -0.114033
 4586 Fit      -0.114791
 4587 Fit      -0.115784
 4588 Fit      -0.117003
 4589 Fit      -0.118437
 4590 Fit      -0.120080
 4591 Fit      -0.121935
 4592 Fit      -0.126253
 4593 Fit      -0.123164
 4594 Fit      -0.120836
 4595 Fit      -0.118995
 4596 Fit      -0.117480
 4597 Fit      -0.116213
 4598 Fit      -0.115171
 4599 Fit      -0.114359
 4600 Fit      -0.113797
 4601 Fit      -0.113507
 4602 Fit      -0.113505
 4603 Fit      -0.113798
 4604 Fit      -0.114384
 4605 Fit      -0.115250
 4606 Fit      -0.116382
 4607 Fit      -0.117763
 4608 Fit      -0.119386
 4609 Fit      -0.121263
 4610 Fit      -0.123457
 4611 Fit      -0.127263
 4612 Fit      -0.123844
 4613 Fit      -0.121233
 4614 Fit      -0.119183
 4615 Fit      -0.117537
 4616 Fit      -0.116219
 4617 Fit      -0.115204
 4618 Fit      -0.114498
 4619 Fit      -0.114122
 4620 Fit      -0.114088
 4621 Fit      -0.114405
 4622 Fit      -0.115064
 4623 Fit      -0.116052
 4624 Fit      -0.117347
 4625 Fit      -0.118938
 4626 Fit      -0.120837
 4627 Fit      -0.123109
 4628 Fit      -0.125909
 4629 Fit      -0.131715
 4630 Fit      -0.127328
 4631 Fit      -0.123831
 4632 Fit      -0.121107
 4633 Fit      -0.118986
 4634 Fit      -0.117351
 4635 Fit      -0.116148
 4636 Fit      -0.115373
 4637 Fit      -0.115037
 4638 Fit      -0.115154
 4639 Fit      -0.115719
 4640 Fit      -0.116715
 4641 Fit      -0.118120
 4642 Fit      -0.119923
 4643 Fit      -0.122155
 4644 Fit      -0.124918
 4645 Fit      -0.128389
 4646 Fit      -0.137041
 4647 Fit      -0.134513
 4648 Fit      -0.130531
 4649 Fit      -0.126473
 4650 Fit      -0.123036
 4651 Fit      -0.120359
 4652 Fit      -0.118390
 4653 Fit      -0.117088
 4654 Fit      -0.116452
 4655 Fit      -0.116494
 4656 Fit      -0.117207
 4657 Fit      -0.118560
 4658 Fit      -0.120520
 4659 Fit      -0.123095
 4660 Fit      -0.126334
 4661 Fit      -0.130185
 4662 Fit      -0.134122
 4663 Fit      -0.136865
 4664 Fit      -0.131186
 4665 Fit      -0.128988
 4666 Fit      -0.125457
 4667 Fit      -0.122146
 4668 Fit      -0.119734
 4669 Fit      -0.118415
 4670 Fit      -0.118255
 4671 Fit      -0.119248
 4672 Fit      -0.121299
 4673 Fit      -0.124251
 4674 Fit      -0.127722
 4675 Fit      -0.130603
 4676 Fit      -0.126745
 4677 Fit      -0.124363
 4678 Fit      -0.121367
 4679 Fit      -0.120485
 4680 Fit      -0.122227
 4681 Fit      -0.125397
 4682 Fit      -0.123266
 4683 Fit      -0.123385
 4684 Fit      -0.125738
 4685 Fit      -0.123171
 4686 Fit      -0.121275
 4687 Fit      -0.121566
 4688 Fit      -0.123745
 4689 Fit      -0.126029
 4690 Fit      -0.128711
 4691 Fit      -0.126025
 4692 Fit      -0.123137
 4693 Fit      -0.120881
 4694 Fit      -0.119639
 4695 Fit      -0.119448
 4696 Fit      -0.120208
 4697 Fit      -0.121842
 4698 Fit      -0.124231
 4699 Fit      -0.126988
 4700 Fit      -0.129300
 4701 Fit      -0.130046
 4702 Fit      -0.132394
 4703 Fit      -0.129413
 4704 Fit      -0.126231
 4705 Fit      -0.123318
 4706 Fit      -0.120974
 4707 Fit      -0.119344
 4708 Fit      -0.118435
 4709 Fit      -0.118172
 4710 Fit      -0.118458
 4711 Fit      -0.119243
 4712 Fit      -0.120545
 4713 Fit      -0.122417
 4714 Fit      -0.124847
 4715 Fit      -0.127696
 4716 Fit      -0.130696
 4717 Fit      -0.133348
 4718 Fit      -0.134831
 4719 Fit      -0.134460
 4720 Fit      -0.136878
 4721 Fit      -0.133437
 4722 Fit      -0.129949
 4723 Fit      -0.126655
 4724 Fit      -0.123743
 4725 Fit      -0.121351
 4726 Fit      -0.119546
 4727 Fit      -0.118324
 4728 Fit      -0.117629
 4729 Fit      -0.117379
 4730 Fit      -0.117491
 4731 Fit      -0.117906
 4732 Fit      -0.118615
 4733 Fit      -0.119668
 4734 Fit      -0.121155
 4735 Fit      -0.123150
 4736 Fit      -0.125645
 4737 Fit      -0.128547
 4738 Fit      -0.131747
 4739 Fit      -0.135137
 4740 Fit      -0.138397
 4741 Fit      -0.140765
 4742 Fit      -0.141314
 4743 Fit      -0.139791
 4744 Fit      -0.142224
 4745 Fit      -0.138040
 4746 Fit      -0.134080
 4747 Fit      -0.130344
 4748 Fit      -0.126929
 4749 Fit      -0.123968
 4750 Fit      -0.121546
 4751 Fit      -0.119687
 4752 Fit      -0.118364
 4753 Fit      -0.117520
 4754 Fit      -0.117083
 4755 Fit      -0.116969
 4756 Fit      -0.117105
 4757 Fit      -0.117437
 4758 Fit      -0.117949
 4759 Fit      -0.118679
 4760 Fit      -0.119721
 4761 Fit      -0.121201
 4762 Fit      -0.123223
 4763 Fit      -0.125795
 4764 Fit      -0.134532
 4765 Fit      -0.130514
 4766 Fit      -0.126941
 4767 Fit      -0.123933
 4768 Fit      -0.121525
 4769 Fit      -0.119696
 4770 Fit      -0.118392
 4771 Fit      -0.117545
 4772 Fit      -0.117080
 4773 Fit      -0.116917
 4774 Fit      -0.116979
 4775 Fit      -0.117197
 4776 Fit      -0.117527
 4777 Fit      -0.117962
 4778 Fit      -0.118551
 4779 Fit      -0.119405
 4780 Fit      -0.120695
 4781 Fit      -0.130772
 4782 Fit      -0.127069
 4783 Fit      -0.124055
 4784 Fit      -0.121692
 4785 Fit      -0.119915
 4786 Fit      -0.118650
 4787 Fit      -0.117824
 4788 Fit      -0.117359
 4789 Fit      -0.117182
 4790 Fit      -0.117218
 4791 Fit      -0.117395
 4792 Fit      -0.117655
 4793 Fit      -0.117956
 4794 Fit      -0.118295
 4795 Fit      -0.118721
 4796 Fit      -0.119358
 4797 Fit      -0.130408
 4798 Fit      -0.126682
 4799 Fit      -0.123774
 4800 Fit      -0.121566
 4801 Fit      -0.119951
 4802 Fit      -0.118837
 4803 Fit      -0.118142
 4804 Fit      -0.117789
 4805 Fit      -0.117705
 4806 Fit      -0.117817
 4807 Fit      -0.118054
 4808 Fit      -0.118348
 4809 Fit      -0.118644
 4810 Fit      -0.118911
 4811 Fit      -0.119161
 4812 Fit      -0.128507
 4813 Fit      -0.125118
 4814 Fit      -0.122611
 4815 Fit      -0.120814
 4816 Fit      -0.119597
 4817 Fit      -0.118857
 4818 Fit      -0.118507
 4819 Fit      -0.118467
 4820 Fit      -0.118659
 4821 Fit      -0.119004
 4822 Fit      -0.119421
 4823 Fit      -0.119831
 4824 Fit      -0.120166
 4825 Fit      -0.130399
 4826 Fit      -0.126510
 4827 Fit      -0.123714
 4828 Fit      -0.121754
 4829 Fit      -0.120456
 4830 Fit      -0.119697
 4831 Fit      -0.119380
 4832 Fit      -0.119425
 4833 Fit      -0.119752
 4834 Fit      -0.120282
 4835 Fit      -0.120931
 4836 Fit      -0.127145
 4837 Fit      -0.124256
 4838 Fit      -0.122311
 4839 Fit      -0.121104
 4840 Fit      -0.120497
 4841 Fit      -0.120389
 4842 Fit      -0.120700
 4843 Fit      -0.121354
 4844 Fit      -0.122274
 4845 Fit      -0.126861
 4846 Fit      -0.124187
 4847 Fit      -0.122522
 4848 Fit      -0.121657
 4849 Fit      -0.121459
 -----------------------------------------------------------------
 Leave Link  602 at Sat Dec 21 15:19:46 2024, MaxMem=  4294967296 cpu:               0.2 elap:               0.1
 (Enter /Applications/g16/l9999.exe)

 Test job not archived.
 1\1\GINC-SRAK-UF\SP\RHF\6-31G(d)\F2N1O4S2(1-)\ROOT\21-Dec-2024\0\\#P h
 f/6-31g(d) pop(mk) IOP(6/33=2, 6/42=6)\\Gaussian input prepared by ASE
 \\-1,1\S,0,0.981297,7.036295,5.178712\F,0,0.815605,7.588563,3.641031\O
 ,0,0.127982,7.906477,5.947399\O,0,2.402913,7.063371,5.394282\N,0,0.516
 821,5.523433,5.053094\S,0,-1.001281,5.076119,4.92857\F,0,-1.551325,5.2
 50644,6.46612\O,0,-1.044675,3.654554,4.715495\O,0,-1.861714,5.93792,4.
 158687\\Version=Apple M1-G16RevC.02\State=1-A\HF=-1347.7127813\RMSD=6.
 820e-09\Dipole=-0.1163671,0.1183263,-0.0006795\Quadrupole=-3.0230093,-
 2.931756,5.9547654,-4.067758,-1.6064368,-1.5843412\PG=C01 [X(F2N1O4S2)
 ]\\@


 Everywhere is walking distance if you have the time.
                                    -- Steven Wright
 Job cpu time:       0 days  0 hours  0 minutes  6.8 seconds.
 Elapsed time:       0 days  0 hours  0 minutes 25.8 seconds.
 File lengths (MBytes):  RWF=     10 Int=      0 D2E=      0 Chk=      2 Scr=      1
 Normal termination of Gaussian 16 at Sat Dec 21 15:19:46 2024.
