9

S       0.961472999999999      6.945584200000000      5.147545600000002
F       0.751037400000000      7.449903999999999      3.644502499999999
O       0.048376000000000      7.776441999999999      5.785961900000000
O       2.180548200000001      7.030242200000000      5.499428600000000
N       0.521251400000001      5.525748600000001      5.026900000000000
S      -0.961473000000000      5.148415800000001      5.147545600000002
F      -1.402904000000000      5.295962600000001      6.409297500000000
O      -0.983242200000000      3.866451800000001      4.554371400000000
O      -1.729441999999999      5.998624000000001      4.267838100000000
