9

S       6.945584200000000     11.132527000000000      9.933154399999999
F       6.798037399999999     10.691096000000000      8.671402499999999
O       6.095375999999999     10.364558000000001     10.812861900000000
O       8.227548199999999     11.110757800000000     10.526328599999999
N       6.568251400000000     12.615251400000002     10.053800000000001
S       5.085527000000000     12.992584200000001     10.174445600000000
F       4.644096000000000     12.845037400000001     11.436197500000000
O       5.063757800000000     14.274548200000002      9.581271400000000
O       4.317557999999999     12.142376000000001      9.294738100000000
