 Entering Gaussian System, Link 0=g16
 Initial command:
 /Applications/g16/l1.exe "/Users/srak/apl/GaussianG16C02_macM/g16_scratch/Gau-48877.inp" -scrdir="/Users/srak/apl/GaussianG16C02_macM/g16_scratch/"
 Entering Link 1 = /Applications/g16/l1.exe PID=     48878.
  
 Copyright (c) 1988-2021, Gaussian, Inc.  All Rights Reserved.
  
 This is part of the Gaussian(R) 16 program.  It is based on
 the Gaussian(R) 09 system (copyright 2009, Gaussian, Inc.),
 the Gaussian(R) 03 system (copyright 2003, Gaussian, Inc.),
 the Gaussian(R) 98 system (copyright 1998, Gaussian, Inc.),
 the Gaussian(R) 94 system (copyright 1995, Gaussian, Inc.),
 the Gaussian 92(TM) system (copyright 1992, Gaussian, Inc.),
 the Gaussian 90(TM) system (copyright 1990, Gaussian, Inc.),
 the Gaussian 88(TM) system (copyright 1988, Gaussian, Inc.),
 the Gaussian 86(TM) system (copyright 1986, Carnegie Mellon
 University), and the Gaussian 82(TM) system (copyright 1983,
 Carnegie Mellon University). Gaussian is a federally registered
 trademark of Gaussian, Inc.
  
 This software contains proprietary and confidential information,
 including trade secrets, belonging to Gaussian, Inc.
  
 This software is provided under written license and may be
 used, copied, transmitted, or stored only in accord with that
 written license.
  
 The following legend is applicable only to US Government
 contracts under FAR:
  
                    RESTRICTED RIGHTS LEGEND
  
 Use, reproduction and disclosure by the US Government is
 subject to restrictions as set forth in subparagraphs (a)
 and (c) of the Commercial Computer Software - Restricted
 Rights clause in FAR 52.227-19.
  
 Gaussian, Inc.
 340 Quinnipiac St., Bldg. 40, Wallingford CT 06492
  
  
 ---------------------------------------------------------------
 Warning -- This program may not be used in any manner that
 competes with the business of Gaussian, Inc. or will provide
 assistance to any competitor of Gaussian, Inc.  The licensee
 of this program is prohibited from giving any competitor of
 Gaussian, Inc. access to this program.  By using this program,
 the user acknowledges that Gaussian, Inc. is engaged in the
 business of creating and licensing software in the field of
 computational chemistry and represents and warrants to the
 licensee that it is not a competitor of Gaussian, Inc. and that
 it will not use this program in any manner prohibited above.
 ---------------------------------------------------------------
  

 Cite this work as:
 Gaussian 16, Revision C.02,
 M. J. Frisch, G. W. Trucks, H. B. Schlegel, G. E. Scuseria, 
 M. A. Robb, J. R. Cheeseman, G. Scalmani, V. Barone, 
 G. A. Petersson, H. Nakatsuji, X. Li, M. Caricato, A. V. Marenich, 
 J. Bloino, B. G. Janesko, R. Gomperts, B. Mennucci, H. P. Hratchian, 
 J. V. Ortiz, A. F. Izmaylov, J. L. Sonnenberg, D. Williams-Young, 
 F. Ding, F. Lipparini, F. Egidi, J. Goings, B. Peng, A. Petrone, 
 T. Henderson, D. Ranasinghe, V. G. Zakrzewski, J. Gao, N. Rega, 
 G. Zheng, W. Liang, M. Hada, M. Ehara, K. Toyota, R. Fukuda, 
 J. Hasegawa, M. Ishida, T. Nakajima, Y. Honda, O. Kitao, H. Nakai, 
 T. Vreven, K. Throssell, J. A. Montgomery, Jr., J. E. Peralta, 
 F. Ogliaro, M. J. Bearpark, J. J. Heyd, E. N. Brothers, K. N. Kudin, 
 V. N. Staroverov, T. A. Keith, R. Kobayashi, J. Normand, 
 K. Raghavachari, A. P. Rendell, J. C. Burant, S. S. Iyengar, 
 J. Tomasi, M. Cossi, J. M. Millam, M. Klene, C. Adamo, R. Cammi, 
 J. W. Ochterski, R. L. Martin, K. Morokuma, O. Farkas, 
 J. B. Foresman, and D. J. Fox, Gaussian, Inc., Wallingford CT, 2019.
 
 *********************************************
 Gaussian 16:  Apple M1-G16RevC.02  7-Dec-2021
                  29-Apr-2025 
 *********************************************
 ------------------------------------------
 #P hf/6-31g(d) pop(mk) IOP(6/33=2, 6/42=6)
 ------------------------------------------
 1/38=1,172=1/1;
 2/12=2,17=6,18=5,40=1/2;
 3/5=1,6=6,7=1,11=9,25=1,30=1/1,2,3;
 4//1;
 5/5=2,38=5/2;
 6/7=2,8=2,9=2,10=2,15=8,20=1,28=1,33=2,42=6/1,2;
 99/5=1,9=1/99;
 Leave Link    1 at Tue Apr 29 14:16:14 2025, MaxMem=           0 cpu:               0.0 elap:               0.0
 (Enter /Applications/g16/l101.exe)
 ------------------------------
 Gaussian input prepared by ASE
 ------------------------------
 Symbolic Z-matrix:
 Charge = -1 Multiplicity = 1
 S                     7.209     124.813   808.544 
 F                     7.41      123.597   807.526 
 O                     5.972     124.457   809.068 
 O                     8.186     124.908   809.353 
 N                     7.168     125.964   807.596 
 S                     6.009     126.297   806.717 
 F                     4.994     126.917   807.786 
 O                     5.259     125.197   806.317 
 O                     6.325     127.149   805.828 
 
 ITRead=  0  0  0  0  0  0  0  0  0
 MicOpt= -1 -1 -1 -1 -1 -1 -1 -1 -1
 NAtoms=      9 NQM=        9 NQMF=       0 NMMI=      0 NMMIF=      0
                NMic=       0 NMicF=      0.
                    Isotopes and Nuclear Properties:
 (Nuclear quadrupole moments (NQMom) in fm**2, nuclear magnetic moments (NMagM)
  in nuclear magnetons)

  Atom         1           2           3           4           5           6           7           8           9
 IAtWgt=          32          19          16          16          14          32          19          16          16
 AtmWgt=  31.9720718  18.9984032  15.9949146  15.9949146  14.0030740  31.9720718  18.9984032  15.9949146  15.9949146
 NucSpn=           0           1           0           0           2           0           1           0           0
 AtZEff=  -0.0000000  -0.0000000  -0.0000000  -0.0000000  -0.0000000  -0.0000000  -0.0000000  -0.0000000  -0.0000000
 NQMom=    0.0000000   0.0000000   0.0000000   0.0000000   2.0440000   0.0000000   0.0000000   0.0000000   0.0000000
 NMagM=    0.0000000   2.6288670   0.0000000   0.0000000   0.4037610   0.0000000   2.6288670   0.0000000   0.0000000
 AtZNuc=  16.0000000   9.0000000   8.0000000   8.0000000   7.0000000  16.0000000   9.0000000   8.0000000   8.0000000
 Leave Link  101 at Tue Apr 29 14:16:14 2025, MaxMem=   104857600 cpu:               0.0 elap:               0.0
 (Enter /Applications/g16/l202.exe)
                          Input orientation:                          
 ---------------------------------------------------------------------
 Center     Atomic      Atomic             Coordinates (Angstroms)
 Number     Number       Type             X           Y           Z
 ---------------------------------------------------------------------
      1         16           0        7.209000  124.813000  808.544000
      2          9           0        7.410000  123.597000  807.526000
      3          8           0        5.972000  124.457000  809.068000
      4          8           0        8.186000  124.908000  809.353000
      5          7           0        7.168000  125.964000  807.596000
      6         16           0        6.009000  126.297000  806.717000
      7          9           0        4.994000  126.917000  807.786000
      8          8           0        5.259000  125.197000  806.317000
      9          8           0        6.325000  127.149000  805.828000
 ---------------------------------------------------------------------
                    Distance matrix (angstroms):
                    1          2          3          4          5
     1  S    0.000000
     2  F    1.598556   0.000000
     3  O    1.389777   2.277105   0.000000
     4  O    1.272020   2.378829   2.277372   0.000000
     5  N    1.491706   2.380368   2.422447   2.288779   0.000000
     6  S    2.642004   3.147584   2.985661   3.690142   1.492250
     7  F    3.147635   4.114250   2.941362   4.084169   2.381299
     8  O    2.984876   2.940830   2.936660   4.227073   2.422480
     9  O    3.689852   4.083765   4.227183   4.572858   2.289257
                    6          7          8          9
     6  S    0.000000
     7  F    1.599183   0.000000
     8  O    1.390144   2.277408   0.000000
     9  O    1.271252   2.378897   2.277231   0.000000
 Stoichiometry    F2NO4S2(1-)
 Framework group  C1[X(F2NO4S2)]
 Deg. of freedom    21
 Full point group                 C1      NOp   1
 Largest Abelian subgroup         C1      NOp   1
 Largest concise Abelian subgroup C1      NOp   1
                         Standard orientation:                         
 ---------------------------------------------------------------------
 Center     Atomic      Atomic             Coordinates (Angstroms)
 Number     Number       Type             X           Y           Z
 ---------------------------------------------------------------------
      1         16           0        1.314849    0.125855   -0.124932
      2          9           0        1.529315   -1.375389    0.380689
      3          8           0        1.253964    0.764900    1.107706
      4          8           0        2.235028    0.481598   -0.927896
      5          7           0        0.000295   -0.000610   -0.818575
      6         16           0       -1.315109   -0.126147   -0.125204
      7          9           0       -1.529461    1.376146    0.379330
      8          8           0       -1.253547   -0.763615    1.108630
      9          8           0       -2.235018   -0.482618   -0.926938
 ---------------------------------------------------------------------
 Rotational constants (GHZ):           2.7819753           1.0266625           0.9936984
 Leave Link  202 at Tue Apr 29 14:16:14 2025, MaxMem=   104857600 cpu:               0.0 elap:               0.0
 (Enter /Applications/g16/l301.exe)
 Standard basis: 6-31G(d) (6D, 7F)
 Ernie: Thresh=  0.10000D-02 Tol=  0.10000D-05 Strict=F.
 There are   143 symmetry adapted cartesian basis functions of A   symmetry.
 There are   143 symmetry adapted basis functions of A   symmetry.
   143 basis functions,   300 primitive gaussians,   143 cartesian basis functions
    45 alpha electrons       45 beta electrons
       nuclear repulsion energy       824.0986149678 Hartrees.
 IExCor=    0 DFT=F Ex=HF Corr=None ExCW=0 ScaHFX=  1.000000
 ScaDFX=  1.000000  1.000000  1.000000  1.000000 ScalE2=  1.000000  1.000000
 IRadAn=      5 IRanWt=     -1 IRanGd=            0 ICorTp=0 IEmpDi=  4
 NAtoms=    9 NActive=    9 NUniq=    9 SFac= 1.00D+00 NAtFMM=   60 NAOKFM=F Big=F
 Integral buffers will be    131072 words long.
 Raffenetti 1 integral format.
 Two-electron integral symmetry is turned on.
 Leave Link  301 at Tue Apr 29 14:16:14 2025, MaxMem=   104857600 cpu:               0.0 elap:               0.0
 (Enter /Applications/g16/l302.exe)
 NPDir=0 NMtPBC=     1 NCelOv=     1 NCel=       1 NClECP=     1 NCelD=      1
         NCelK=      1 NCelE2=     1 NClLst=     1 CellRange=     0.0.
 One-electron integrals computed using PRISM.
 One-electron integral symmetry used in STVInt
 NBasis=   143 RedAO= T EigKep=  2.64D-03  NBF=   143
 NBsUse=   143 1.00D-06 EigRej= -1.00D+00 NBFU=   143
 Leave Link  302 at Tue Apr 29 14:16:14 2025, MaxMem=   104857600 cpu:               0.0 elap:               0.0
 (Enter /Applications/g16/l303.exe)
 DipDrv:  MaxL=1.
 Leave Link  303 at Tue Apr 29 14:16:14 2025, MaxMem=   104857600 cpu:               0.0 elap:               0.0
 (Enter /Applications/g16/l401.exe)
 ExpMin= 1.17D-01 ExpMax= 2.19D+04 ExpMxC= 3.30D+03 IAcc=3 IRadAn=         5 AccDes= 0.00D+00
 Harris functional with IExCor=  205 and IRadAn=       5 diagonalized for initial guess.
 HarFok:  IExCor=  205 AccDes= 0.00D+00 IRadAn=         5 IDoV= 1 UseB2=F ITyADJ=14
 ICtDFT=  3500011 ScaDFX=  1.000000  1.000000  1.000000  1.000000
 FoFCou: FMM=F IPFlag=           0 FMFlag=      100000 FMFlg1=           0
         NFxFlg=           0 DoJE=T BraDBF=F KetDBF=T FulRan=T
         wScrn=  0.000000 ICntrl=       500 IOpCl=  0 I1Cent=   200000004 NGrid=           0
         NMat0=    1 NMatS0=      1 NMatT0=    0 NMatD0=    1 NMtDS0=    0 NMtDT0=    0
 Petite list used in FoFCou.
 Harris En= -1347.18872703128    
 JPrj=0 DoOrth=F DoCkMO=F.
 Leave Link  401 at Tue Apr 29 14:16:14 2025, MaxMem=   104857600 cpu:               0.3 elap:               0.3
 (Enter /Applications/g16/l502.exe)
 Keep R1 ints in memory in canonical form, NReq=54502912.
 FoFCou: FMM=F IPFlag=           0 FMFlag=           0 FMFlg1=           0
         NFxFlg=           0 DoJE=F BraDBF=F KetDBF=F FulRan=T
         wScrn=  0.000000 ICntrl=       600 IOpCl=  0 I1Cent=           0 NGrid=           0
         NMat0=    1 NMatS0=  10296 NMatT0=    0 NMatD0=    1 NMtDS0=    0 NMtDT0=    0
 Symmetry not used in FoFCou.
 Two-electron integral symmetry not used.
 Closed shell SCF:
 Using DIIS extrapolation, IDIIS=  1040.
 NGot=   104857600 LenX=    51805197 LenY=    51784307
 Requested convergence on RMS density matrix=1.00D-08 within 128 cycles.
 Requested convergence on MAX density matrix=1.00D-06.
 Requested convergence on             energy=1.00D-06.
 No special actions if energy rises.

 Cycle   1  Pass 1  IDiag  1:
 E= -1347.17428412131    
 DIIS: error= 6.85D-02 at cycle   1 NSaved=   1.
 NSaved= 1 IEnMin= 1 EnMin= -1347.17428412131     IErMin= 1 ErrMin= 6.85D-02
 ErrMax= 6.85D-02  0.00D+00 EMaxC= 1.00D-01 BMatC= 9.94D-01 BMatP= 9.94D-01
 IDIUse=3 WtCom= 3.15D-01 WtEn= 6.85D-01
 Coeff-Com:  0.100D+01
 Coeff-En:   0.100D+01
 Coeff:      0.100D+01
 Gap=     0.663 Goal=   None    Shift=    0.000
 GapD=    0.663 DampG=2.000 DampE=0.500 DampFc=1.0000 IDamp=-1.
 RMSDP=6.26D-03 MaxDP=1.58D-01              OVMax= 1.08D-01

 Cycle   2  Pass 1  IDiag  1:
 E= -1347.47962660289     Delta-E=       -0.305342481575 Rises=F Damp=F
 DIIS: error= 2.74D-02 at cycle   2 NSaved=   2.
 NSaved= 2 IEnMin= 2 EnMin= -1347.47962660289     IErMin= 2 ErrMin= 2.74D-02
 ErrMax= 2.74D-02  0.00D+00 EMaxC= 1.00D-01 BMatC= 1.94D-01 BMatP= 9.94D-01
 IDIUse=3 WtCom= 7.26D-01 WtEn= 2.74D-01
 Coeff-Com:  0.270D+00 0.730D+00
 Coeff-En:   0.148D-01 0.985D+00
 Coeff:      0.200D+00 0.800D+00
 Gap=     0.730 Goal=   None    Shift=    0.000
 RMSDP=2.91D-03 MaxDP=1.11D-01 DE=-3.05D-01 OVMax= 5.31D-02

 Cycle   3  Pass 1  IDiag  1:
 E= -1347.59373938796     Delta-E=       -0.114112785075 Rises=F Damp=F
 DIIS: error= 8.94D-03 at cycle   3 NSaved=   3.
 NSaved= 3 IEnMin= 3 EnMin= -1347.59373938796     IErMin= 3 ErrMin= 8.94D-03
 ErrMax= 8.94D-03  0.00D+00 EMaxC= 1.00D-01 BMatC= 2.00D-02 BMatP= 1.94D-01
 IDIUse=3 WtCom= 9.11D-01 WtEn= 8.94D-02
 Coeff-Com: -0.138D-01 0.224D+00 0.790D+00
 Coeff-En:   0.000D+00 0.000D+00 0.100D+01
 Coeff:     -0.126D-01 0.204D+00 0.808D+00
 Gap=     0.715 Goal=   None    Shift=    0.000
 RMSDP=7.47D-04 MaxDP=2.45D-02 DE=-1.14D-01 OVMax= 1.55D-02

 Cycle   4  Pass 1  IDiag  1:
 E= -1347.60657739598     Delta-E=       -0.012838008012 Rises=F Damp=F
 DIIS: error= 1.36D-03 at cycle   4 NSaved=   4.
 NSaved= 4 IEnMin= 4 EnMin= -1347.60657739598     IErMin= 4 ErrMin= 1.36D-03
 ErrMax= 1.36D-03  0.00D+00 EMaxC= 1.00D-01 BMatC= 4.43D-04 BMatP= 2.00D-02
 IDIUse=3 WtCom= 9.86D-01 WtEn= 1.36D-02
 Coeff-Com: -0.869D-02 0.478D-01 0.247D+00 0.714D+00
 Coeff-En:   0.000D+00 0.000D+00 0.000D+00 0.100D+01
 Coeff:     -0.857D-02 0.472D-01 0.243D+00 0.718D+00
 Gap=     0.699 Goal=   None    Shift=    0.000
 RMSDP=1.28D-04 MaxDP=4.08D-03 DE=-1.28D-02 OVMax= 4.02D-03

 Cycle   5  Pass 1  IDiag  1:
 E= -1347.60693165316     Delta-E=       -0.000354257188 Rises=F Damp=F
 DIIS: error= 2.14D-04 at cycle   5 NSaved=   5.
 NSaved= 5 IEnMin= 5 EnMin= -1347.60693165316     IErMin= 5 ErrMin= 2.14D-04
 ErrMax= 2.14D-04  0.00D+00 EMaxC= 1.00D-01 BMatC= 1.78D-05 BMatP= 4.43D-04
 IDIUse=3 WtCom= 9.98D-01 WtEn= 2.14D-03
 Coeff-Com:  0.121D-02-0.177D-01-0.728D-01 0.788D-02 0.108D+01
 Coeff-En:   0.000D+00 0.000D+00 0.000D+00 0.000D+00 0.100D+01
 Coeff:      0.121D-02-0.177D-01-0.726D-01 0.786D-02 0.108D+01
 Gap=     0.699 Goal=   None    Shift=    0.000
 RMSDP=4.26D-05 MaxDP=7.69D-04 DE=-3.54D-04 OVMax= 1.24D-03

 Cycle   6  Pass 1  IDiag  1:
 E= -1347.60695618340     Delta-E=       -0.000024530235 Rises=F Damp=F
 DIIS: error= 8.06D-05 at cycle   6 NSaved=   6.
 NSaved= 6 IEnMin= 6 EnMin= -1347.60695618340     IErMin= 6 ErrMin= 8.06D-05
 ErrMax= 8.06D-05  0.00D+00 EMaxC= 1.00D-01 BMatC= 1.16D-06 BMatP= 1.78D-05
 IDIUse=1 WtCom= 1.00D+00 WtEn= 0.00D+00
 Coeff-Com:  0.599D-03-0.517D-02-0.250D-01-0.400D-01 0.149D+00 0.920D+00
 Coeff:      0.599D-03-0.517D-02-0.250D-01-0.400D-01 0.149D+00 0.920D+00
 Gap=     0.700 Goal=   None    Shift=    0.000
 RMSDP=1.19D-05 MaxDP=2.61D-04 DE=-2.45D-05 OVMax= 2.68D-04

 Cycle   7  Pass 1  IDiag  1:
 E= -1347.60695781598     Delta-E=       -0.000001632578 Rises=F Damp=F
 DIIS: error= 2.46D-05 at cycle   7 NSaved=   7.
 NSaved= 7 IEnMin= 7 EnMin= -1347.60695781598     IErMin= 7 ErrMin= 2.46D-05
 ErrMax= 2.46D-05  0.00D+00 EMaxC= 1.00D-01 BMatC= 1.22D-07 BMatP= 1.16D-06
 IDIUse=1 WtCom= 1.00D+00 WtEn= 0.00D+00
 Coeff-Com: -0.139D-04 0.117D-02 0.409D-02-0.623D-02-0.930D-01 0.103D+00
 Coeff-Com:  0.991D+00
 Coeff:     -0.139D-04 0.117D-02 0.409D-02-0.623D-02-0.930D-01 0.103D+00
 Coeff:      0.991D+00
 Gap=     0.700 Goal=   None    Shift=    0.000
 RMSDP=3.76D-06 MaxDP=6.72D-05 DE=-1.63D-06 OVMax= 1.21D-04

 Cycle   8  Pass 1  IDiag  1:
 E= -1347.60695799840     Delta-E=       -0.000000182418 Rises=F Damp=F
 DIIS: error= 6.35D-06 at cycle   8 NSaved=   8.
 NSaved= 8 IEnMin= 8 EnMin= -1347.60695799840     IErMin= 8 ErrMin= 6.35D-06
 ErrMax= 6.35D-06  0.00D+00 EMaxC= 1.00D-01 BMatC= 1.26D-08 BMatP= 1.22D-07
 IDIUse=1 WtCom= 1.00D+00 WtEn= 0.00D+00
 Coeff-Com: -0.556D-04 0.752D-03 0.338D-02 0.324D-02-0.338D-01-0.664D-01
 Coeff-Com:  0.206D+00 0.887D+00
 Coeff:     -0.556D-04 0.752D-03 0.338D-02 0.324D-02-0.338D-01-0.664D-01
 Coeff:      0.206D+00 0.887D+00
 Gap=     0.700 Goal=   None    Shift=    0.000
 RMSDP=9.89D-07 MaxDP=1.94D-05 DE=-1.82D-07 OVMax= 2.76D-05

 Cycle   9  Pass 1  IDiag  1:
 E= -1347.60695801378     Delta-E=       -0.000000015388 Rises=F Damp=F
 DIIS: error= 1.46D-06 at cycle   9 NSaved=   9.
 NSaved= 9 IEnMin= 9 EnMin= -1347.60695801378     IErMin= 9 ErrMin= 1.46D-06
 ErrMax= 1.46D-06  0.00D+00 EMaxC= 1.00D-01 BMatC= 6.07D-10 BMatP= 1.26D-08
 IDIUse=1 WtCom= 1.00D+00 WtEn= 0.00D+00
 Coeff-Com:  0.418D-06-0.118D-03-0.382D-03 0.598D-03 0.756D-02-0.499D-02
 Coeff-Com: -0.836D-01-0.168D-01 0.110D+01
 Coeff:      0.418D-06-0.118D-03-0.382D-03 0.598D-03 0.756D-02-0.499D-02
 Coeff:     -0.836D-01-0.168D-01 0.110D+01
 Gap=     0.700 Goal=   None    Shift=    0.000
 RMSDP=3.07D-07 MaxDP=5.93D-06 DE=-1.54D-08 OVMax= 8.21D-06

 Cycle  10  Pass 1  IDiag  1:
 E= -1347.60695801484     Delta-E=       -0.000000001058 Rises=F Damp=F
 DIIS: error= 3.42D-07 at cycle  10 NSaved=  10.
 NSaved=10 IEnMin=10 EnMin= -1347.60695801484     IErMin=10 ErrMin= 3.42D-07
 ErrMax= 3.42D-07  0.00D+00 EMaxC= 1.00D-01 BMatC= 3.20D-11 BMatP= 6.07D-10
 IDIUse=1 WtCom= 1.00D+00 WtEn= 0.00D+00
 Coeff-Com:  0.224D-05-0.103D-04-0.761D-04-0.273D-03 0.210D-04 0.425D-02
 Coeff-Com:  0.509D-02-0.382D-01-0.186D+00 0.122D+01
 Coeff:      0.224D-05-0.103D-04-0.761D-04-0.273D-03 0.210D-04 0.425D-02
 Coeff:      0.509D-02-0.382D-01-0.186D+00 0.122D+01
 Gap=     0.700 Goal=   None    Shift=    0.000
 RMSDP=8.61D-08 MaxDP=1.38D-06 DE=-1.06D-09 OVMax= 2.72D-06

 Cycle  11  Pass 1  IDiag  1:
 E= -1347.60695801489     Delta-E=       -0.000000000047 Rises=F Damp=F
 DIIS: error= 1.08D-07 at cycle  11 NSaved=  11.
 NSaved=11 IEnMin=11 EnMin= -1347.60695801489     IErMin=11 ErrMin= 1.08D-07
 ErrMax= 1.08D-07  0.00D+00 EMaxC= 1.00D-01 BMatC= 4.56D-12 BMatP= 3.20D-11
 IDIUse=1 WtCom= 1.00D+00 WtEn= 0.00D+00
 Coeff-Com:  0.517D-06 0.450D-05 0.414D-05-0.932D-04-0.419D-03 0.123D-02
 Coeff-Com:  0.591D-02-0.764D-02-0.114D+00 0.270D+00 0.845D+00
 Coeff:      0.517D-06 0.450D-05 0.414D-05-0.932D-04-0.419D-03 0.123D-02
 Coeff:      0.591D-02-0.764D-02-0.114D+00 0.270D+00 0.845D+00
 Gap=     0.700 Goal=   None    Shift=    0.000
 RMSDP=2.06D-08 MaxDP=4.48D-07 DE=-4.73D-11 OVMax= 6.61D-07

 Cycle  12  Pass 1  IDiag  1:
 E= -1347.60695801490     Delta-E=       -0.000000000016 Rises=F Damp=F
 DIIS: error= 5.04D-08 at cycle  12 NSaved=  12.
 NSaved=12 IEnMin=12 EnMin= -1347.60695801490     IErMin=12 ErrMin= 5.04D-08
 ErrMax= 5.04D-08  0.00D+00 EMaxC= 1.00D-01 BMatC= 5.09D-13 BMatP= 4.56D-12
 IDIUse=1 WtCom= 1.00D+00 WtEn= 0.00D+00
 Coeff-Com: -0.361D-06 0.208D-05 0.128D-04 0.389D-04-0.393D-04-0.579D-03
 Coeff-Com: -0.366D-03 0.625D-02 0.227D-01-0.183D+00 0.506D-01 0.110D+01
 Coeff:     -0.361D-06 0.208D-05 0.128D-04 0.389D-04-0.393D-04-0.579D-03
 Coeff:     -0.366D-03 0.625D-02 0.227D-01-0.183D+00 0.506D-01 0.110D+01
 Gap=     0.700 Goal=   None    Shift=    0.000
 RMSDP=1.03D-08 MaxDP=1.55D-07 DE=-1.59D-11 OVMax= 3.37D-07

 Cycle  13  Pass 1  IDiag  1:
 E= -1347.60695801491     Delta-E=       -0.000000000010 Rises=F Damp=F
 DIIS: error= 6.37D-09 at cycle  13 NSaved=  13.
 NSaved=13 IEnMin=13 EnMin= -1347.60695801491     IErMin=13 ErrMin= 6.37D-09
 ErrMax= 6.37D-09  0.00D+00 EMaxC= 1.00D-01 BMatC= 1.45D-14 BMatP= 5.09D-13
 IDIUse=1 WtCom= 1.00D+00 WtEn= 0.00D+00
 Coeff-Com: -0.473D-08-0.343D-06-0.884D-06 0.270D-05 0.251D-04-0.363D-04
 Coeff-Com: -0.320D-03 0.294D-04 0.470D-02-0.181D-02-0.485D-01-0.846D-01
 Coeff-Com:  0.113D+01
 Coeff:     -0.473D-08-0.343D-06-0.884D-06 0.270D-05 0.251D-04-0.363D-04
 Coeff:     -0.320D-03 0.294D-04 0.470D-02-0.181D-02-0.485D-01-0.846D-01
 Coeff:      0.113D+01
 Gap=     0.700 Goal=   None    Shift=    0.000
 RMSDP=2.08D-09 MaxDP=3.17D-08 DE=-1.05D-11 OVMax= 6.88D-08

 SCF Done:  E(RHF) =  -1347.60695801     A.U. after   13 cycles
            NFock= 13  Conv=0.21D-08     -V/T= 1.9999
 KE= 1.347705036797D+03 PE=-4.867436471532D+03 EE= 1.348025861752D+03
 Leave Link  502 at Tue Apr 29 14:16:15 2025, MaxMem=   104857600 cpu:               1.0 elap:               1.0
 (Enter /Applications/g16/l601.exe)
 Copying SCF densities to generalized density rwf, IOpCl= 0 IROHF=0.
 SCF density gives NOpUse=  1 NOpAll=  1.

 **********************************************************************

            Population analysis using the SCF Density.

 **********************************************************************

 Orbital symmetries:
 BldTbl:  Degeneracy threshold= 1.00D-02
       Occupied  (A) (A) (A) (A) (A) (A) (A) (A) (A) (A) (A) (A)
                 (A) (A) (A) (A) (A) (A) (A) (A) (A) (A) (A) (A)
                 (A) (A) (A) (A) (A) (A) (A) (A) (A) (A) (A) (A)
                 (A) (A) (A) (A) (A) (A) (A) (A) (A)
       Virtual   (A) (A) (A) (A) (A) (A) (A) (A) (A) (A) (A) (A)
                 (A) (A) (A) (A) (A) (A) (A) (A) (A) (A) (A) (A)
                 (A) (A) (A) (A) (A) (A) (A) (A) (A) (A) (A) (A)
                 (A) (A) (A) (A) (A) (A) (A) (A) (A) (A) (A) (A)
                 (A) (A) (A) (A) (A) (A) (A) (A) (A) (A) (A) (A)
                 (A) (A) (A) (A) (A) (A) (A) (A) (A) (A) (A) (A)
                 (A) (A) (A) (A) (A) (A) (A) (A) (A) (A) (A) (A)
                 (A) (A) (A) (A) (A) (A) (A) (A) (A) (A) (A) (A)
                 (A) (A)
 The electronic state is 1-A.
 Alpha  occ. eigenvalues --  -92.08269 -92.08260 -26.16623 -26.16613 -20.42705
 Alpha  occ. eigenvalues --  -20.42666 -20.38182 -20.38182 -15.39448  -9.05732
 Alpha  occ. eigenvalues --   -9.05720  -6.74583  -6.74568  -6.74273  -6.74262
 Alpha  occ. eigenvalues --   -6.74183  -6.74172  -1.51111  -1.50146  -1.40145
 Alpha  occ. eigenvalues --   -1.39799  -1.25161  -1.23682  -1.12258  -0.81256
 Alpha  occ. eigenvalues --   -0.69166  -0.67522  -0.59475  -0.59421  -0.57323
 Alpha  occ. eigenvalues --   -0.56371  -0.53583  -0.52611  -0.51356  -0.50011
 Alpha  occ. eigenvalues --   -0.45838  -0.44530  -0.43379  -0.40261  -0.40207
 Alpha  occ. eigenvalues --   -0.36418  -0.34095  -0.32240  -0.29509  -0.28669
 Alpha virt. eigenvalues --    0.41289   0.43927   0.46611   0.50330   0.52167
 Alpha virt. eigenvalues --    0.52653   0.56383   0.58157   0.62926   0.63157
 Alpha virt. eigenvalues --    0.68497   0.75087   0.76418   0.80760   0.85242
 Alpha virt. eigenvalues --    0.86428   1.03952   1.06176   1.07225   1.11358
 Alpha virt. eigenvalues --    1.12034   1.14069   1.16357   1.18743   1.25541
 Alpha virt. eigenvalues --    1.25869   1.30453   1.34279   1.39586   1.39627
 Alpha virt. eigenvalues --    1.42293   1.44392   1.46375   1.46608   1.50606
 Alpha virt. eigenvalues --    1.55875   1.56125   1.62550   1.67906   1.68560
 Alpha virt. eigenvalues --    1.71223   1.71788   1.73333   1.75768   1.77320
 Alpha virt. eigenvalues --    1.84486   1.87742   1.88299   1.92134   1.95554
 Alpha virt. eigenvalues --    1.99402   2.03257   2.17014   2.18632   2.21605
 Alpha virt. eigenvalues --    2.21833   2.22459   2.24423   2.25414   2.25944
 Alpha virt. eigenvalues --    2.26225   2.26640   2.29169   2.30930   2.32170
 Alpha virt. eigenvalues --    2.36023   2.38523   2.40887   2.43361   2.45505
 Alpha virt. eigenvalues --    2.51471   2.52922   2.54670   2.63635   2.69195
 Alpha virt. eigenvalues --    2.69691   2.76380   2.77609   2.82138   2.91393
 Alpha virt. eigenvalues --    2.96361   3.07568   3.12575   3.24077   3.29964
 Alpha virt. eigenvalues --    3.34692   3.39041   3.42073   3.43093   4.30919
 Alpha virt. eigenvalues --    4.32861   4.39941   4.45206   4.54553   4.59987
 Alpha virt. eigenvalues --    4.64846   5.39513   5.44269
          Condensed to atoms (all electrons):
               1          2          3          4          5          6
     1  S   12.539237   0.237325   0.587591   0.649048   0.443219   0.003926
     2  F    0.237325   9.359836  -0.052524  -0.033141  -0.054900   0.000515
     3  O    0.587591  -0.052524   8.277174  -0.067283  -0.073355   0.002284
     4  O    0.649048  -0.033141  -0.067283   8.042298  -0.081324  -0.002852
     5  N    0.443219  -0.054900  -0.073355  -0.081324   7.337809   0.443009
     6  S    0.003926   0.000515   0.002284  -0.002852   0.443009  12.539356
     7  F    0.000515  -0.000006   0.000683  -0.000014  -0.054798   0.237212
     8  O    0.002292   0.000685  -0.001630  -0.000043  -0.073439   0.587340
     9  O   -0.002841  -0.000014  -0.000043  -0.000006  -0.081113   0.649265
               7          8          9
     1  S    0.000515   0.002292  -0.002841
     2  F   -0.000006   0.000685  -0.000014
     3  O    0.000683  -0.001630  -0.000043
     4  O   -0.000014  -0.000043  -0.000006
     5  N   -0.054798  -0.073439  -0.081113
     6  S    0.237212   0.587340   0.649265
     7  F    9.360149  -0.052500  -0.033118
     8  O   -0.052500   8.277879  -0.067252
     9  O   -0.033118  -0.067252   8.040838
 Mulliken charges:
               1
     1  S    1.539689
     2  F   -0.457775
     3  O   -0.672897
     4  O   -0.506683
     5  N   -0.805107
     6  S    1.539945
     7  F   -0.458124
     8  O   -0.673331
     9  O   -0.505717
 Sum of Mulliken charges =  -1.00000
 Mulliken charges with hydrogens summed into heavy atoms:
               1
     1  S    1.539689
     2  F   -0.457775
     3  O   -0.672897
     4  O   -0.506683
     5  N   -0.805107
     6  S    1.539945
     7  F   -0.458124
     8  O   -0.673331
     9  O   -0.505717
 DipInt: DoE/N= T F RetVal/Mat= T F Init=T NMatP=  1 IDeriv=0 Min/MaxMlt=  0  4
 Entering OneElI...
 OneElI was handed   104802886 working-precision words.
 Multipole integrals L=0 to 4 MinM= 0 MaxM= 0.
 Requested accuracy = 0.1000D-12
 ShPair: Thresh= 1.00D-13 NBox=     0 BxSize= 0.00D+00 RnKept= 8.64D+00
         NSMCal=                  741 NSMKep=                 674
 PrmmSu-InSpLW:  IPartL=    0 NPrtUS=    1 NPrtUL=    1 DoSpLW=F IThBeg=    0 IThEnd=    0 NThAct=    1.
 PrSmSu:  IncTry=   512 NBBP=            674 NTPThr=   100 NPartT=    1 Incr=           6 LDynOK=F GPUOK=F.
 PrsmSu:  NPrtUS=   1 ThrOK=F IAlg=2 LenDen=           0 ISkipM=0 DoSpLW=F IThBeg=    0 IThEnd=    0.
 Prism:   IPart=     0 DynPar=F LinDyn=F Incr=           6.
 PRISM was handed   104715680 working-precision words and   674 shell-pairs
 IPart=  0 NShTot=         674 NBatch=          42 AvBLen=        16.0
 PrsmSu-ThDecC:  IPartSL=    0    0 NPrtUSL=    1    1 IThBeg=    0 IThEnd=    0 CPU=   -1 GPU=   -1 NThAct=    1.
 PrSmSu:  NxtVal=              7.
 Electronic moments (au):
        -90.00000000         -0.00352994         -0.00194314         -0.59244398
       -781.30795673       -220.14039789       -201.36018409         -2.59424908
          0.01442263         -0.00091247         -0.00185199         -0.36514118
        -35.85836826          0.19192798          0.01879574        263.60451590
         -0.22180820          0.10612560       -138.42888444         95.02567555
     -10583.13910872      -1498.85003027      -1148.95597538       -493.31750178
          0.65935503        719.10281042         -0.07142008          1.01908548
          0.17135138      -1974.00408723      -1914.75375333       -458.88990316
         -0.08323228         -0.69476519       -404.29265991
 Electronic spatial extent (au):  <R**2>=           1202.8085
 DipInt: DoE/N= F T RetVal/Mat= T F Init=T NMatP=  1 IDeriv=0 Min/MaxMlt=  0  4
 Nuclear    moments (au):
         89.00000000         -0.00000000         -0.00000000         -0.00000000
        723.18216169        170.13121256        147.12981397          0.00000000
          0.00000000         -0.00000000         -0.09379521          0.34294104
         41.14351110         -0.19366719         -0.04045729       -250.86399091
          0.19793784         -0.10076277        133.55276761        -94.84770194
       8071.65633444        903.07048082        503.61813914        392.79281720
         -0.39443301       -747.78676737          0.05061109         -0.85025429
         -0.18345385       1451.67409907       1359.09785445        249.98627598
          0.07919829          0.69812930        360.50399446
 Total      moments (au):
         -1.00000000         -0.00352994         -0.00194314         -0.59244398
        -58.12579503        -50.00918533        -54.23037013         -2.59424908
          0.01442263         -0.00091247         -0.09564719         -0.02220014
          5.28514284         -0.00173920         -0.02166155         12.74052499
         -0.02387036          0.00536283         -4.87611682          0.17797361
      -2511.48277428       -595.77954945       -645.33783624       -100.52468458
          0.26492202        -28.68395696         -0.02080898          0.16883119
         -0.01210247       -522.32998817       -555.65589888       -208.90362718
         -0.00403400          0.00336412        -43.78866545
 Traceless Quadrup. (au):
         -4.00401154          4.11259817         -0.10858663         -2.59424908
          0.01442263         -0.00091247
 Charge=             -1.0000 electrons
 Dipole moment (field-independent basis, Debye):
    X=             -0.0090    Y=             -0.0049    Z=             -1.5058  Tot=              1.5059
 Quadrupole moment (field-independent basis, Debye-Ang):
   XX=            -78.1812   YY=            -67.2641   ZZ=            -72.9417
   XY=             -3.4894   XZ=              0.0194   YZ=             -0.0012
 Traceless Quadrupole moment (field-independent basis, Debye-Ang):
   XX=             -5.3855   YY=              5.5316   ZZ=             -0.1461
   XY=             -3.4894   XZ=              0.0194   YZ=             -0.0012
 Octapole moment (field-independent basis, Debye-Ang**2):
  XXX=             -0.0681  YYY=             -0.0158  ZZZ=              3.7618  XYY=             -0.0012
  XXY=             -0.0154  XXZ=              9.0682  XZZ=             -0.0170  YZZ=              0.0038
  YYZ=             -3.4706  XYZ=              0.1267
 Hexadecapole moment (field-independent basis, Debye-Ang**3):
 XXXX=           -945.9448 YYYY=           -224.3991 ZZZZ=           -243.0652 XXXY=            -37.8624
 XXXZ=              0.0998 YYYX=            -10.8038 YYYZ=             -0.0078 ZZZX=              0.0636
 ZZZY=             -0.0046 XXYY=           -196.7345 XXZZ=           -209.2867 YYZZ=            -78.6831
 XXYZ=             -0.0015 YYXZ=              0.0013 ZZXY=            -16.4929
 N-N= 8.240986149678D+02 E-N=-4.867436471364D+03  KE= 1.347705036797D+03
 Entering OneElI...
 OneElI was handed   104812805 working-precision words.
 Calculate electrostatic properties
    NBasis =   143  MinDer = 0  MaxDer = 0
    NGrid  =     9  NMatD  =   1
 Requested accuracy = 0.1000D-12
 ShPair: Thresh= 1.00D-13 NBox=     0 BxSize= 0.00D+00 RnKept= 8.64D+00
         NSMCal=                  741 NSMKep=                 651
 PrmmSu-InSpLW:  IPartL=    0 NPrtUS=    1 NPrtUL=    1 DoSpLW=F IThBeg=    0 IThEnd=    0 NThAct=    1.
 PrSmSu:  IncTry=   512 NBBP=           5859 NTPThr=   100 NPartT=    1 Incr=          58 LDynOK=F GPUOK=F.
 PrsmSu:  NPrtUS=   1 ThrOK=F IAlg=2 LenDen=           0 ISkipM=0 DoSpLW=F IThBeg=    0 IThEnd=    0.
 Prism:   IPart=     0 DynPar=F LinDyn=F Incr=          58.
 PRISM was handed   104729247 working-precision words and   651 shell-pairs
 IPart=  0 NShTot=        5859 NBatch=         651 AvBLen=         9.0
 PrsmSu-ThDecC:  IPartSL=    0    0 NPrtUSL=    1    1 IThBeg=    0 IThEnd=    0 CPU=   -1 GPU=   -1 NThAct=    1.
 PrSmSu:  NxtVal=             59.
 --------------------------------------------------------
       Center         ----      EFG at Nuclei      ----
                      3XX-RR        3YY-RR        3ZZ-RR
 --------------------------------------------------------
     1   Atom        0.637449     -1.384647      0.747197
     2   Atom        1.087954     -1.873351      0.785397
     3   Atom        0.681632      0.145050     -0.826682
     4   Atom       -0.122265     -0.009795      0.132060
     5   Atom       -0.970189      0.619710      0.350478
     6   Atom        0.638714     -1.386710      0.747996
     7   Atom        1.088368     -1.875598      0.787229
     8   Atom        0.682692      0.147318     -0.830010
     9   Atom       -0.122399     -0.011781      0.134180
 --------------------------------------------------------
                        XY            XZ            YZ
 --------------------------------------------------------
     1   Atom        0.542131     -0.587762      0.443664
     2   Atom        0.360794     -0.127235      1.244801
     3   Atom        0.119529     -0.034968     -0.779083
     4   Atom       -0.219225      0.575886      0.396459
     5   Atom       -0.079802     -0.000111     -0.000556
     6   Atom        0.543331      0.590273     -0.439921
     7   Atom        0.360646      0.127263     -1.243644
     8   Atom        0.120275      0.033247      0.778379
     9   Atom       -0.219270     -0.573139     -0.395134
 --------------------------------------------------------


 ---------------------------------------------------------------------------------
              Nuclear Quadrupole Coupling Constant in Principal Axis System
 ---------------------------------------------------------------------------------

       Atom             a.u.   MegaHertz   Gauss  10(-4) cm-1        Axes

              Baa    -0.9742     4.679     1.669     1.561  0.9987  0.0500  0.0001
     5 N(14)  Bbb     0.3505    -1.683    -0.601    -0.561 -0.0002  0.0020  1.0000
              Bcc     0.6237    -2.995    -1.069    -0.999 -0.0500  0.9987 -0.0020
 

 ---------------------------------------------------------------------------------

 No NMR shielding tensors so no spin-rotation constants.
 Leave Link  601 at Tue Apr 29 14:16:15 2025, MaxMem=   104857600 cpu:               0.0 elap:               0.0
 (Enter /Applications/g16/l602.exe)
 FitSet:  NAtFit=     9 NAtPot=     9 NAtFrz=     0 MDM=    13 TotChg=  -1.00000
 Merz-Kollman atomic radii used.
 Atom Element Radius
    1    16    1.75
    2     9    1.35
    3     8    1.40
    4     8    1.40
    5     7    1.50
    6    16    1.75
    7     9    1.35
    8     8    1.40
    9     8    1.40
 Generate VDW surfaces: Layer= 4 Dens= 6 Start= 1.400 Inc= 0.200

 **********************************************************************

            Electrostatic Properties Using The SCF Density.

 **********************************************************************

       Atomic Center    1 is at   1.314849  0.125855 -0.124932
       Atomic Center    2 is at   1.529315 -1.375389  0.380689
       Atomic Center    3 is at   1.253964  0.764900  1.107706
       Atomic Center    4 is at   2.235028  0.481598 -0.927896
       Atomic Center    5 is at   0.000295 -0.000610 -0.818575
       Atomic Center    6 is at  -1.315109 -0.126147 -0.125204
       Atomic Center    7 is at  -1.529461  1.376146  0.379330
       Atomic Center    8 is at  -1.253547 -0.763615  1.108630
       Atomic Center    9 is at  -2.235018 -0.482618 -0.926938
      ESP Fit Center   10 is at   2.660414 -0.692401  1.751877
      ESP Fit Center   11 is at   2.831279 -0.299029  1.751877
      ESP Fit Center   12 is at   3.191658  0.125855  1.449898
      ESP Fit Center   13 is at   3.005795 -0.688462  1.449898
      ESP Fit Center   14 is at   3.144602 -0.291774  1.449898
      ESP Fit Center   15 is at   3.436611  0.125855  1.100068
      ESP Fit Center   16 is at   3.395842  0.539790  1.100068
      ESP Fit Center   17 is at   3.275101  0.937818  1.100068
      ESP Fit Center   18 is at   3.275101 -0.686108  1.100068
      ESP Fit Center   19 is at   3.395842 -0.288080  1.100068
      ESP Fit Center   20 is at   3.617096  0.125855  0.713018
      ESP Fit Center   21 is at   3.577896  0.548892  0.713018
      ESP Fit Center   22 is at   3.461630  0.957523  0.713018
      ESP Fit Center   23 is at   3.272259  1.337832  0.713018
      ESP Fit Center   24 is at   3.016230  1.676869  0.713018
      ESP Fit Center   25 is at   3.461630 -0.705812  0.713018
      ESP Fit Center   26 is at   3.577896 -0.297182  0.713018
      ESP Fit Center   27 is at   3.727628  0.125855  0.300506
      ESP Fit Center   28 is at   2.865753  1.974151  0.300506
      ESP Fit Center   29 is at   2.521238  2.215383  0.300506
      ESP Fit Center   30 is at   2.140068  2.393126  0.300506
      ESP Fit Center   31 is at   1.733823  2.501979  0.300506
      ESP Fit Center   32 is at   0.489630  2.393126  0.300506
      ESP Fit Center   33 is at   3.404377 -1.080534  0.300506
      ESP Fit Center   34 is at   3.582119 -0.699364  0.300506
      ESP Fit Center   35 is at   3.690972 -0.293120  0.300506
      ESP Fit Center   36 is at   2.228347  2.399183 -0.124932
      ESP Fit Center   37 is at   1.831013  2.520865 -0.124932
      ESP Fit Center   38 is at   1.418830  2.573648 -0.124932
      ESP Fit Center   39 is at   1.003655  2.556011 -0.124932
      ESP Fit Center   40 is at   0.597433  2.468464 -0.124932
      ESP Fit Center   41 is at   0.211850  2.313523 -0.124932
      ESP Fit Center   42 is at   3.453733 -1.068997 -0.124932
      ESP Fit Center   43 is at   3.624898 -0.690337 -0.124932
      ESP Fit Center   44 is at   1.733823  2.501979 -0.550370
      ESP Fit Center   45 is at   1.314849  2.538634 -0.550370
      ESP Fit Center   46 is at   0.895874  2.501979 -0.550370
      ESP Fit Center   47 is at   0.489630  2.393126 -0.550370
      ESP Fit Center   48 is at   0.108459  2.215383 -0.550370
      ESP Fit Center   49 is at   3.404377 -1.080534 -0.550370
      ESP Fit Center   50 is at   1.527273  2.418281 -0.962881
      ESP Fit Center   51 is at   1.102424  2.418281 -0.962881
      ESP Fit Center   52 is at   0.684809  2.340215 -0.962881
      ESP Fit Center   53 is at   0.288649  2.186742 -0.962881
      ESP Fit Center   54 is at   3.016230 -1.425159 -0.962881
      ESP Fit Center   55 is at   1.314849  2.247617 -1.349932
      ESP Fit Center   56 is at   0.900913  2.206848 -1.349932
      ESP Fit Center   57 is at   0.502885  2.086108 -1.349932
      ESP Fit Center   58 is at   0.900913 -1.955138 -1.349932
      ESP Fit Center   59 is at   2.493637 -1.638326 -1.349932
      ESP Fit Center   60 is at   2.815161 -1.374457 -1.349932
      ESP Fit Center   61 is at   0.897219  1.955609 -1.699761
      ESP Fit Center   62 is at   0.897219 -1.703898 -1.699761
      ESP Fit Center   63 is at   1.314849 -1.750954 -1.699761
      ESP Fit Center   64 is at   1.732478 -1.703898 -1.699761
      ESP Fit Center   65 is at   2.129166 -1.565091 -1.699761
      ESP Fit Center   66 is at   2.485020 -1.341493 -1.699761
      ESP Fit Center   67 is at   0.787470  1.609756 -2.001740
      ESP Fit Center   68 is at   1.207379 -1.445303 -2.001740
      ESP Fit Center   69 is at   1.635257 -1.416036 -2.001740
      ESP Fit Center   70 is at   2.039373 -1.272413 -2.001740
      ESP Fit Center   71 is at   1.102130 -1.080534 -2.246694
      ESP Fit Center   72 is at   1.527568 -1.080534 -2.246694
      ESP Fit Center   73 is at   1.314849 -0.712094 -2.427179
      ESP Fit Center   74 is at   1.102130  0.494295 -2.537711
      ESP Fit Center   75 is at   1.529315 -1.375389  2.270689
      ESP Fit Center   76 is at   1.949880 -1.375389  2.223303
      ESP Fit Center   77 is at   1.739597 -1.011169  2.223303
      ESP Fit Center   78 is at   1.319033 -1.011169  2.223303
      ESP Fit Center   79 is at   1.108750 -1.375389  2.223303
      ESP Fit Center   80 is at   1.319033 -1.739608  2.223303
      ESP Fit Center   81 is at   1.739597 -1.739608  2.223303
      ESP Fit Center   82 is at   2.349355 -1.375389  2.083520
      ESP Fit Center   83 is at   2.239491 -0.965368  2.083520
      ESP Fit Center   84 is at   0.819139 -0.965368  2.083520
      ESP Fit Center   85 is at   0.709275 -1.375389  2.083520
      ESP Fit Center   86 is at   0.819139 -1.785409  2.083520
      ESP Fit Center   87 is at   1.119295 -2.085564  2.083520
      ESP Fit Center   88 is at   1.529315 -2.195429  2.083520
      ESP Fit Center   89 is at   1.939335 -2.085564  2.083520
      ESP Fit Center   90 is at   2.239491 -1.785409  2.083520
      ESP Fit Center   91 is at   2.707711 -1.375389  1.858351
      ESP Fit Center   92 is at   2.636645 -0.972354  1.858351
      ESP Fit Center   93 is at   0.421985 -1.778424  1.858351
      ESP Fit Center   94 is at   0.626612 -2.132847  1.858351
      ESP Fit Center   95 is at   0.940117 -2.395909  1.858351
      ESP Fit Center   96 is at   1.324689 -2.535882  1.858351
      ESP Fit Center   97 is at   1.733941 -2.535882  1.858351
      ESP Fit Center   98 is at   2.118513 -2.395909  1.858351
      ESP Fit Center   99 is at   2.432019 -2.132847  1.858351
      ESP Fit Center  100 is at   2.636645 -1.778424  1.858351
      ESP Fit Center  101 is at   3.006977 -1.375389  1.559085
      ESP Fit Center  102 is at   2.947121 -0.959083  1.559085
      ESP Fit Center  103 is at   0.286227 -2.174273  1.559085
      ESP Fit Center  104 is at   0.561653 -2.492131  1.559085
      ESP Fit Center  105 is at   0.915472 -2.719517  1.559085
      ESP Fit Center  106 is at   1.319022 -2.838010  1.559085
      ESP Fit Center  107 is at   1.739608 -2.838010  1.559085
      ESP Fit Center  108 is at   2.143158 -2.719517  1.559085
      ESP Fit Center  109 is at   2.496978 -2.492131  1.559085
      ESP Fit Center  110 is at   2.772403 -2.174273  1.559085
      ESP Fit Center  111 is at   2.947121 -1.791694  1.559085
      ESP Fit Center  112 is at   3.232146 -1.375389  1.200730
      ESP Fit Center  113 is at   3.182665 -0.967874  1.200730
      ESP Fit Center  114 is at   0.254728 -2.504575  1.200730
      ESP Fit Center  115 is at   0.561997 -2.776791  1.200730
      ESP Fit Center  116 is at   0.925483 -2.967563  1.200730
      ESP Fit Center  117 is at   1.324061 -3.065804  1.200730
      ESP Fit Center  118 is at   1.734569 -3.065804  1.200730
      ESP Fit Center  119 is at   2.133147 -2.967563  1.200730
      ESP Fit Center  120 is at   2.496633 -2.776791  1.200730
      ESP Fit Center  121 is at   2.803902 -2.504575  1.200730
      ESP Fit Center  122 is at   3.037097 -2.166734  1.200730
      ESP Fit Center  123 is at   3.182665 -1.782903  1.200730
      ESP Fit Center  124 is at   3.371929 -1.375389  0.801254
      ESP Fit Center  125 is at   3.325731 -0.965368  0.801254
      ESP Fit Center  126 is at   0.088702 -2.524239  0.801254
      ESP Fit Center  127 is at   0.380464 -2.816002  0.801254
      ESP Fit Center  128 is at   0.729835 -3.035526  0.801254
      ESP Fit Center  129 is at   1.119295 -3.171804  0.801254
      ESP Fit Center  130 is at   1.529315 -3.218002  0.801254
      ESP Fit Center  131 is at   1.939335 -3.171804  0.801254
      ESP Fit Center  132 is at   2.328795 -3.035526  0.801254
      ESP Fit Center  133 is at   2.678166 -2.816002  0.801254
      ESP Fit Center  134 is at   2.969928 -2.524239  0.801254
      ESP Fit Center  135 is at   3.189453 -2.174869  0.801254
      ESP Fit Center  136 is at   3.325731 -1.785409  0.801254
      ESP Fit Center  137 is at   3.419315 -1.375389  0.380689
      ESP Fit Center  138 is at  -0.090145 -2.349785  0.380689
      ESP Fit Center  139 is at   0.157184 -2.675141  0.380689
      ESP Fit Center  140 is at   0.468671 -2.939721  0.380689
      ESP Fit Center  141 is at   0.829754 -3.131155  0.380689
      ESP Fit Center  142 is at   1.223547 -3.240491  0.380689
      ESP Fit Center  143 is at   1.631638 -3.262617  0.380689
      ESP Fit Center  144 is at   2.034944 -3.196498  0.380689
      ESP Fit Center  145 is at   2.414607 -3.045226  0.380689
      ESP Fit Center  146 is at   2.752875 -2.815875  0.380689
      ESP Fit Center  147 is at   3.033931 -2.519168  0.380689
      ESP Fit Center  148 is at   3.244633 -2.168979  0.380689
      ESP Fit Center  149 is at   3.375128 -1.781683  0.380689
      ESP Fit Center  150 is at   3.371929 -1.375389 -0.039875
      ESP Fit Center  151 is at   0.088702 -2.524239 -0.039875
      ESP Fit Center  152 is at   0.380464 -2.816002 -0.039875
      ESP Fit Center  153 is at   0.729835 -3.035526 -0.039875
      ESP Fit Center  154 is at   1.119295 -3.171804 -0.039875
      ESP Fit Center  155 is at   1.529315 -3.218002 -0.039875
      ESP Fit Center  156 is at   1.939335 -3.171804 -0.039875
      ESP Fit Center  157 is at   2.328795 -3.035526 -0.039875
      ESP Fit Center  158 is at   2.678166 -2.816002 -0.039875
      ESP Fit Center  159 is at   2.969928 -2.524239 -0.039875
      ESP Fit Center  160 is at   3.189453 -2.174869 -0.039875
      ESP Fit Center  161 is at   3.325731 -1.785409 -0.039875
      ESP Fit Center  162 is at   3.232146 -1.375389 -0.439351
      ESP Fit Center  163 is at   0.021533 -2.166734 -0.439351
      ESP Fit Center  164 is at   0.254728 -2.504575 -0.439351
      ESP Fit Center  165 is at   0.561997 -2.776791 -0.439351
      ESP Fit Center  166 is at   0.925483 -2.967563 -0.439351
      ESP Fit Center  167 is at   1.324061 -3.065804 -0.439351
      ESP Fit Center  168 is at   1.734569 -3.065804 -0.439351
      ESP Fit Center  169 is at   2.133147 -2.967563 -0.439351
      ESP Fit Center  170 is at   2.496633 -2.776791 -0.439351
      ESP Fit Center  171 is at   2.803902 -2.504575 -0.439351
      ESP Fit Center  172 is at   3.037097 -2.166734 -0.439351
      ESP Fit Center  173 is at   3.182665 -1.782903 -0.439351
      ESP Fit Center  174 is at   0.286227 -2.174273 -0.797706
      ESP Fit Center  175 is at   0.561653 -2.492131 -0.797706
      ESP Fit Center  176 is at   0.915472 -2.719517 -0.797706
      ESP Fit Center  177 is at   1.319022 -2.838010 -0.797706
      ESP Fit Center  178 is at   1.739608 -2.838010 -0.797706
      ESP Fit Center  179 is at   2.143158 -2.719517 -0.797706
      ESP Fit Center  180 is at   2.496978 -2.492131 -0.797706
      ESP Fit Center  181 is at   2.772403 -2.174273 -0.797706
      ESP Fit Center  182 is at   2.947121 -1.791694 -0.797706
      ESP Fit Center  183 is at   0.626612 -2.132847 -1.096972
      ESP Fit Center  184 is at   0.940117 -2.395909 -1.096972
      ESP Fit Center  185 is at   1.324689 -2.535882 -1.096972
      ESP Fit Center  186 is at   1.733941 -2.535882 -1.096972
      ESP Fit Center  187 is at   2.118513 -2.395909 -1.096972
      ESP Fit Center  188 is at   2.432019 -2.132847 -1.096972
      ESP Fit Center  189 is at   2.636645 -1.778424 -1.096972
      ESP Fit Center  190 is at   1.119295 -2.085564 -1.322142
      ESP Fit Center  191 is at   1.529315 -2.195429 -1.322142
      ESP Fit Center  192 is at   1.939335 -2.085564 -1.322142
      ESP Fit Center  193 is at   1.253964  0.764900  3.067706
      ESP Fit Center  194 is at   1.661471  0.764900  3.024875
      ESP Fit Center  195 is at   1.457717  1.117812  3.024875
      ESP Fit Center  196 is at   1.050211  1.117812  3.024875
      ESP Fit Center  197 is at   0.846457  0.764900  3.024875
      ESP Fit Center  198 is at   1.050211  0.411989  3.024875
      ESP Fit Center  199 is at   1.457717  0.411989  3.024875
      ESP Fit Center  200 is at   2.051168  0.764900  2.898255
      ESP Fit Center  201 is at   1.944363  1.163502  2.898255
      ESP Fit Center  202 is at   1.652566  1.455299  2.898255
      ESP Fit Center  203 is at   1.253964  1.562104  2.898255
      ESP Fit Center  204 is at   0.855362  1.455299  2.898255
      ESP Fit Center  205 is at   0.563565  1.163502  2.898255
      ESP Fit Center  206 is at   0.456760  0.764900  2.898255
      ESP Fit Center  207 is at   0.563565  0.366298  2.898255
      ESP Fit Center  208 is at   0.855362  0.074502  2.898255
      ESP Fit Center  209 is at   1.253964 -0.032304  2.898255
      ESP Fit Center  210 is at   1.652566  0.074502  2.898255
      ESP Fit Center  211 is at   1.944363  0.366298  2.898255
      ESP Fit Center  212 is at   2.406023  0.764900  2.693379
      ESP Fit Center  213 is at   2.328227  1.181072  2.693379
      ESP Fit Center  214 is at   2.105346  1.541038  2.693379
      ESP Fit Center  215 is at   1.767481  1.796181  2.693379
      ESP Fit Center  216 is at   1.360263  1.912045  2.693379
      ESP Fit Center  217 is at   0.938688  1.872980  2.693379
      ESP Fit Center  218 is at   0.559693  1.684263  2.693379
      ESP Fit Center  219 is at   0.274464  1.371381  2.693379
      ESP Fit Center  220 is at   0.121521  0.976591  2.693379
      ESP Fit Center  221 is at   0.121521  0.553210  2.693379
      ESP Fit Center  222 is at   0.274464  0.158419  2.693379
      ESP Fit Center  223 is at   0.559693 -0.154463  2.693379
      ESP Fit Center  224 is at   0.938688 -0.343180  2.693379
      ESP Fit Center  225 is at   1.360263 -0.382244  2.693379
      ESP Fit Center  226 is at   1.767481 -0.266381  2.693379
      ESP Fit Center  227 is at   2.105346 -0.011237  2.693379
      ESP Fit Center  228 is at   2.328227  0.348729  2.693379
      ESP Fit Center  229 is at   2.710528  0.764900  2.419202
      ESP Fit Center  230 is at   2.651527  1.175262  2.419202
      ESP Fit Center  231 is at   2.479304  1.552378  2.419202
      ESP Fit Center  232 is at   2.207811  1.865698  2.419202
      ESP Fit Center  233 is at   1.859043  2.089837  2.419202
      ESP Fit Center  234 is at   1.461255  2.206638  2.419202
      ESP Fit Center  235 is at   1.046673  2.206638  2.419202
      ESP Fit Center  236 is at   0.648886  2.089837  2.419202
      ESP Fit Center  237 is at   0.300118  1.865698  2.419202
      ESP Fit Center  238 is at   0.028625  1.552378  2.419202
      ESP Fit Center  239 is at  -0.143599  1.175262  2.419202
      ESP Fit Center  240 is at  -0.202600  0.764900  2.419202
      ESP Fit Center  241 is at  -0.143599  0.354539  2.419202
      ESP Fit Center  242 is at   0.028625 -0.022578  2.419202
      ESP Fit Center  243 is at   0.300118 -0.335897  2.419202
      ESP Fit Center  244 is at   0.648886 -0.560037  2.419202
      ESP Fit Center  245 is at   1.046673 -0.676838  2.419202
      ESP Fit Center  246 is at   1.461255 -0.676838  2.419202
      ESP Fit Center  247 is at   1.859043 -0.560037  2.419202
      ESP Fit Center  248 is at   2.207811 -0.335897  2.419202
      ESP Fit Center  249 is at   2.479304 -0.022578  2.419202
      ESP Fit Center  250 is at   2.651527  0.354539  2.419202
      ESP Fit Center  251 is at   2.951374  0.764900  2.087706
      ESP Fit Center  252 is at   2.898047  1.187029  2.087706
      ESP Fit Center  253 is at   2.741416  1.582634  2.087706
      ESP Fit Center  254 is at   2.491323  1.926857  2.087706
      ESP Fit Center  255 is at   2.163482  2.198071  2.087706
      ESP Fit Center  256 is at   1.778493  2.379233  2.087706
      ESP Fit Center  257 is at   1.360545  2.458961  2.087706
      ESP Fit Center  258 is at   0.935901  2.432244  2.087706
      ESP Fit Center  259 is at   0.531242  2.300763  2.087706
      ESP Fit Center  260 is at   0.171994  2.072777  2.087706
      ESP Fit Center  261 is at  -0.119269  1.762613  2.087706
      ESP Fit Center  262 is at  -0.324248  1.389759  2.087706
      ESP Fit Center  263 is at  -0.430061  0.977642  2.087706
      ESP Fit Center  264 is at   0.531242 -0.770962  2.087706
      ESP Fit Center  265 is at   2.163482 -0.668270  2.087706
      ESP Fit Center  266 is at   2.491323 -0.397057  2.087706
      ESP Fit Center  267 is at   2.741416 -0.052833  2.087706
      ESP Fit Center  268 is at   2.898047  0.342772  2.087706
      ESP Fit Center  269 is at   3.118035  0.764900  1.713379
      ESP Fit Center  270 is at   3.071299  1.179695  1.713379
      ESP Fit Center  271 is at   2.933434  1.573690  1.713379
      ESP Fit Center  272 is at   2.711353  1.927129  1.713379
      ESP Fit Center  273 is at   2.416193  2.222290  1.713379
      ESP Fit Center  274 is at   2.062754  2.444370  1.713379
      ESP Fit Center  275 is at   1.668759  2.582235  1.713379
      ESP Fit Center  276 is at   1.253964  2.628971  1.713379
      ESP Fit Center  277 is at   0.839169  2.582235  1.713379
      ESP Fit Center  278 is at   0.445174  2.444370  1.713379
      ESP Fit Center  279 is at   0.091735  2.222290  1.713379
      ESP Fit Center  280 is at  -0.203425  1.927129  1.713379
      ESP Fit Center  281 is at   2.933434 -0.043890  1.713379
      ESP Fit Center  282 is at   3.071299  0.350106  1.713379
      ESP Fit Center  283 is at   3.203227  0.764900  1.312582
      ESP Fit Center  284 is at   3.157654  1.183934  1.312582
      ESP Fit Center  285 is at   3.023067  1.583375  1.312582
      ESP Fit Center  286 is at   2.805759  1.944544  1.312582
      ESP Fit Center  287 is at   2.515890  2.250555  1.312582
      ESP Fit Center  288 is at   2.167015  2.487098  1.312582
      ESP Fit Center  289 is at   1.775447  2.643113  1.312582
      ESP Fit Center  290 is at   1.359495  2.711304  1.312582
      ESP Fit Center  291 is at   0.938608  2.688485  1.312582
      ESP Fit Center  292 is at   0.532467  2.575720  1.312582
      ESP Fit Center  293 is at   0.160063  2.378284  1.312582
      ESP Fit Center  294 is at   3.023067  1.583375  0.902830
      ESP Fit Center  295 is at   2.805759  1.944544  0.902830
      ESP Fit Center  296 is at   2.515890  2.250555  0.902830
      ESP Fit Center  297 is at   2.167015  2.487098  0.902830
      ESP Fit Center  298 is at   1.775447  2.643113  0.902830
      ESP Fit Center  299 is at   1.359495  2.711304  0.902830
      ESP Fit Center  300 is at   0.938608  2.688485  0.902830
      ESP Fit Center  301 is at   0.532467  2.575720  0.902830
      ESP Fit Center  302 is at   0.160063  2.378284  0.902830
      ESP Fit Center  303 is at   2.062754  2.444370  0.502033
      ESP Fit Center  304 is at   1.668759  2.582235  0.502033
      ESP Fit Center  305 is at   1.253964  2.628971  0.502033
      ESP Fit Center  306 is at   0.839169  2.582235  0.502033
      ESP Fit Center  307 is at   0.445174  2.444370  0.502033
      ESP Fit Center  308 is at   3.691592  0.481598  0.383600
      ESP Fit Center  309 is at   3.632591  0.891960  0.383600
      ESP Fit Center  310 is at   3.460368  1.269076  0.383600
      ESP Fit Center  311 is at   3.932438  0.481598  0.052104
      ESP Fit Center  312 is at   3.879111  0.903727  0.052104
      ESP Fit Center  313 is at   3.722480  1.299332  0.052104
      ESP Fit Center  314 is at   3.472387  1.643555  0.052104
      ESP Fit Center  315 is at   3.144546  1.914769  0.052104
      ESP Fit Center  316 is at   3.722480 -0.336135  0.052104
      ESP Fit Center  317 is at   3.879111  0.059469  0.052104
      ESP Fit Center  318 is at   4.099099  0.481598 -0.322223
      ESP Fit Center  319 is at   4.052363  0.896393 -0.322223
      ESP Fit Center  320 is at   3.914498  1.290388 -0.322223
      ESP Fit Center  321 is at   3.692417  1.643827 -0.322223
      ESP Fit Center  322 is at   3.397257  1.938987 -0.322223
      ESP Fit Center  323 is at   3.043818  2.161068 -0.322223
      ESP Fit Center  324 is at   2.649823  2.298933 -0.322223
      ESP Fit Center  325 is at   3.692417 -0.680631 -0.322223
      ESP Fit Center  326 is at   3.914498 -0.327192 -0.322223
      ESP Fit Center  327 is at   4.052363  0.066803 -0.322223
      ESP Fit Center  328 is at   4.184291  0.481598 -0.723020
      ESP Fit Center  329 is at   4.138718  0.900632 -0.723020
      ESP Fit Center  330 is at   4.004131  1.300072 -0.723020
      ESP Fit Center  331 is at   3.786823  1.661242 -0.723020
      ESP Fit Center  332 is at   3.496954  1.967252 -0.723020
      ESP Fit Center  333 is at   3.148079  2.203795 -0.723020
      ESP Fit Center  334 is at   2.756511  2.359810 -0.723020
      ESP Fit Center  335 is at   2.340559  2.428002 -0.723020
      ESP Fit Center  336 is at   3.496954 -1.004056 -0.723020
      ESP Fit Center  337 is at   3.786823 -0.698046 -0.723020
      ESP Fit Center  338 is at   4.004131 -0.336876 -0.723020
      ESP Fit Center  339 is at   4.138718  0.062564 -0.723020
      ESP Fit Center  340 is at   4.184291  0.481598 -1.132772
      ESP Fit Center  341 is at   4.138718  0.900632 -1.132772
      ESP Fit Center  342 is at   4.004131  1.300072 -1.132772
      ESP Fit Center  343 is at   3.786823  1.661242 -1.132772
      ESP Fit Center  344 is at   3.496954  1.967252 -1.132772
      ESP Fit Center  345 is at   3.148079  2.203795 -1.132772
      ESP Fit Center  346 is at   2.756511  2.359810 -1.132772
      ESP Fit Center  347 is at   2.340559  2.428002 -1.132772
      ESP Fit Center  348 is at   1.919673  2.405182 -1.132772
      ESP Fit Center  349 is at   3.148079 -1.240599 -1.132772
      ESP Fit Center  350 is at   3.496954 -1.004056 -1.132772
      ESP Fit Center  351 is at   3.786823 -0.698046 -1.132772
      ESP Fit Center  352 is at   4.004131 -0.336876 -1.132772
      ESP Fit Center  353 is at   4.138718  0.062564 -1.132772
      ESP Fit Center  354 is at   4.099099  0.481598 -1.533569
      ESP Fit Center  355 is at   4.052363  0.896393 -1.533569
      ESP Fit Center  356 is at   3.914498  1.290388 -1.533569
      ESP Fit Center  357 is at   3.692417  1.643827 -1.533569
      ESP Fit Center  358 is at   3.397257  1.938987 -1.533569
      ESP Fit Center  359 is at   3.043818  2.161068 -1.533569
      ESP Fit Center  360 is at   2.649823  2.298933 -1.533569
      ESP Fit Center  361 is at   2.235028  2.345669 -1.533569
      ESP Fit Center  362 is at   1.820233  2.298933 -1.533569
      ESP Fit Center  363 is at   1.426238  2.161068 -1.533569
      ESP Fit Center  364 is at   3.043818 -1.197872 -1.533569
      ESP Fit Center  365 is at   3.397257 -0.975791 -1.533569
      ESP Fit Center  366 is at   3.692417 -0.680631 -1.533569
      ESP Fit Center  367 is at   3.914498 -0.327192 -1.533569
      ESP Fit Center  368 is at   4.052363  0.066803 -1.533569
      ESP Fit Center  369 is at   3.932438  0.481598 -1.907896
      ESP Fit Center  370 is at   3.879111  0.903727 -1.907896
      ESP Fit Center  371 is at   3.722480  1.299332 -1.907896
      ESP Fit Center  372 is at   3.472387  1.643555 -1.907896
      ESP Fit Center  373 is at   3.144546  1.914769 -1.907896
      ESP Fit Center  374 is at   2.759557  2.095931 -1.907896
      ESP Fit Center  375 is at   2.341609  2.175658 -1.907896
      ESP Fit Center  376 is at   1.916965  2.148942 -1.907896
      ESP Fit Center  377 is at   1.512306  2.017460 -1.907896
      ESP Fit Center  378 is at   2.341609 -1.212462 -1.907896
      ESP Fit Center  379 is at   2.759557 -1.132735 -1.907896
      ESP Fit Center  380 is at   3.144546 -0.951572 -1.907896
      ESP Fit Center  381 is at   3.472387 -0.680359 -1.907896
      ESP Fit Center  382 is at   3.722480 -0.336135 -1.907896
      ESP Fit Center  383 is at   3.879111  0.059469 -1.907896
      ESP Fit Center  384 is at   3.691592  0.481598 -2.239392
      ESP Fit Center  385 is at   3.632591  0.891960 -2.239392
      ESP Fit Center  386 is at   3.460368  1.269076 -2.239392
      ESP Fit Center  387 is at   3.188875  1.582396 -2.239392
      ESP Fit Center  388 is at   2.840107  1.806535 -2.239392
      ESP Fit Center  389 is at   2.442319  1.923336 -2.239392
      ESP Fit Center  390 is at   2.027738  1.923336 -2.239392
      ESP Fit Center  391 is at   1.629950  1.806535 -2.239392
      ESP Fit Center  392 is at   1.281182  1.582396 -2.239392
      ESP Fit Center  393 is at   2.027738 -0.960140 -2.239392
      ESP Fit Center  394 is at   2.442319 -0.960140 -2.239392
      ESP Fit Center  395 is at   2.840107 -0.843339 -2.239392
      ESP Fit Center  396 is at   3.188875 -0.619199 -2.239392
      ESP Fit Center  397 is at   3.460368 -0.305880 -2.239392
      ESP Fit Center  398 is at   3.632591  0.071237 -2.239392
      ESP Fit Center  399 is at   3.387087  0.481598 -2.513569
      ESP Fit Center  400 is at   3.309291  0.897770 -2.513569
      ESP Fit Center  401 is at   3.086410  1.257735 -2.513569
      ESP Fit Center  402 is at   2.748545  1.512879 -2.513569
      ESP Fit Center  403 is at   2.341327  1.628743 -2.513569
      ESP Fit Center  404 is at   1.919752  1.589678 -2.513569
      ESP Fit Center  405 is at   1.540757  1.400961 -2.513569
      ESP Fit Center  406 is at   1.255528  1.088079 -2.513569
      ESP Fit Center  407 is at   1.102585  0.693288 -2.513569
      ESP Fit Center  408 is at   1.540757 -0.437765 -2.513569
      ESP Fit Center  409 is at   1.919752 -0.626482 -2.513569
      ESP Fit Center  410 is at   2.341327 -0.665546 -2.513569
      ESP Fit Center  411 is at   2.748545 -0.549683 -2.513569
      ESP Fit Center  412 is at   3.086410 -0.294539 -2.513569
      ESP Fit Center  413 is at   3.309291  0.065426 -2.513569
      ESP Fit Center  414 is at   3.032232  0.481598 -2.718445
      ESP Fit Center  415 is at   2.925427  0.880200 -2.718445
      ESP Fit Center  416 is at   2.633630  1.171997 -2.718445
      ESP Fit Center  417 is at   2.235028  1.278802 -2.718445
      ESP Fit Center  418 is at   1.836426  1.171997 -2.718445
      ESP Fit Center  419 is at   1.544629  0.880200 -2.718445
      ESP Fit Center  420 is at   1.437824  0.481598 -2.718445
      ESP Fit Center  421 is at   1.544629  0.082996 -2.718445
      ESP Fit Center  422 is at   1.836426 -0.208801 -2.718445
      ESP Fit Center  423 is at   2.235028 -0.315606 -2.718445
      ESP Fit Center  424 is at   2.633630 -0.208801 -2.718445
      ESP Fit Center  425 is at   2.925427  0.082996 -2.718445
      ESP Fit Center  426 is at   2.642535  0.481598 -2.845065
      ESP Fit Center  427 is at   2.438782  0.834509 -2.845065
      ESP Fit Center  428 is at   2.031275  0.834509 -2.845065
      ESP Fit Center  429 is at   1.827521  0.481598 -2.845065
      ESP Fit Center  430 is at   2.031275  0.128687 -2.845065
      ESP Fit Center  431 is at   2.438782  0.128687 -2.845065
      ESP Fit Center  432 is at   2.235028  0.481598 -2.887896
      ESP Fit Center  433 is at   0.000295  2.099390 -0.818575
      ESP Fit Center  434 is at   0.000295 -2.100610 -0.818575
      ESP Fit Center  435 is at  -0.104025  2.056396 -1.228264
      ESP Fit Center  436 is at  -0.515961  1.993289 -1.228264
      ESP Fit Center  437 is at  -0.104025 -2.057615 -1.228264
      ESP Fit Center  438 is at   0.312183 -2.036508 -1.228264
      ESP Fit Center  439 is at   0.105332  1.936692 -1.622210
      ESP Fit Center  440 is at  -0.313586  1.913979 -1.622210
      ESP Fit Center  441 is at  -0.717828  1.801741 -1.622210
      ESP Fit Center  442 is at  -0.313586 -1.915198 -1.622210
      ESP Fit Center  443 is at   0.105332 -1.937912 -1.622210
      ESP Fit Center  444 is at   0.519339 -1.870039 -1.622210
      ESP Fit Center  445 is at   0.619465  1.632009 -1.985272
      ESP Fit Center  446 is at   0.210762  1.732745 -1.985272
      ESP Fit Center  447 is at  -0.210173  1.732745 -1.985272
      ESP Fit Center  448 is at  -0.618876  1.632009 -1.985272
      ESP Fit Center  449 is at  -0.991595  1.436391 -1.985272
      ESP Fit Center  450 is at  -0.618876 -1.633229 -1.985272
      ESP Fit Center  451 is at  -0.210173 -1.733965 -1.985272
      ESP Fit Center  452 is at   0.210762 -1.733965 -1.985272
      ESP Fit Center  453 is at   0.619465 -1.633229 -1.985272
      ESP Fit Center  454 is at   0.992185 -1.437611 -1.985272
      ESP Fit Center  455 is at   0.617155  1.350125 -2.303499
      ESP Fit Center  456 is at   0.211622  1.469200 -2.303499
      ESP Fit Center  457 is at  -0.211032  1.469200 -2.303499
      ESP Fit Center  458 is at  -0.616565  1.350125 -2.303499
      ESP Fit Center  459 is at  -0.972124  1.121621 -2.303499
      ESP Fit Center  460 is at  -0.616565 -1.351345 -2.303499
      ESP Fit Center  461 is at  -0.211032 -1.470420 -2.303499
      ESP Fit Center  462 is at   0.211622 -1.470420 -2.303499
      ESP Fit Center  463 is at   0.617155 -1.351345 -2.303499
      ESP Fit Center  464 is at   0.972713 -1.122841 -2.303499
      ESP Fit Center  465 is at   1.088208  0.420850 -2.564661
      ESP Fit Center  466 is at   0.862495  0.785389 -2.564661
      ESP Fit Center  467 is at   0.520337  1.043775 -2.564661
      ESP Fit Center  468 is at   0.107944  1.161111 -2.564661
      ESP Fit Center  469 is at  -0.318987  1.121550 -2.564661
      ESP Fit Center  470 is at  -0.702798  0.930435 -2.564661
      ESP Fit Center  471 is at  -0.991651  0.613577 -2.564661
      ESP Fit Center  472 is at  -1.146537  0.213770 -2.564661
      ESP Fit Center  473 is at  -0.991651 -0.614797 -2.564661
      ESP Fit Center  474 is at  -0.702798 -0.931655 -2.564661
      ESP Fit Center  475 is at  -0.318987 -1.122769 -2.564661
      ESP Fit Center  476 is at   0.107944 -1.162330 -2.564661
      ESP Fit Center  477 is at   0.520337 -1.044995 -2.564661
      ESP Fit Center  478 is at   0.862495 -0.786609 -2.564661
      ESP Fit Center  479 is at   1.088208 -0.422070 -2.564661
      ESP Fit Center  480 is at   0.803930 -0.000610 -2.758722
      ESP Fit Center  481 is at   0.696263  0.401208 -2.758722
      ESP Fit Center  482 is at   0.402112  0.695359 -2.758722
      ESP Fit Center  483 is at   0.000295  0.803025 -2.758722
      ESP Fit Center  484 is at  -0.401523  0.695359 -2.758722
      ESP Fit Center  485 is at  -0.695674  0.401208 -2.758722
      ESP Fit Center  486 is at  -0.803340 -0.000610 -2.758722
      ESP Fit Center  487 is at  -0.695674 -0.402428 -2.758722
      ESP Fit Center  488 is at  -0.401523 -0.696578 -2.758722
      ESP Fit Center  489 is at   0.000295 -0.804245 -2.758722
      ESP Fit Center  490 is at   0.402112 -0.696578 -2.758722
      ESP Fit Center  491 is at   0.696263 -0.402428 -2.758722
      ESP Fit Center  492 is at   0.409984 -0.000610 -2.878224
      ESP Fit Center  493 is at   0.205140  0.354192 -2.878224
      ESP Fit Center  494 is at  -0.204550  0.354192 -2.878224
      ESP Fit Center  495 is at  -0.409395 -0.000610 -2.878224
      ESP Fit Center  496 is at  -0.204550 -0.355412 -2.878224
      ESP Fit Center  497 is at   0.205140 -0.355412 -2.878224
      ESP Fit Center  498 is at   0.000295 -0.000610 -2.918575
      ESP Fit Center  499 is at  -2.759561  0.501267  1.751605
      ESP Fit Center  500 is at  -3.006056  0.688170  1.449626
      ESP Fit Center  501 is at  -3.144863  0.291482  1.449626
      ESP Fit Center  502 is at  -3.191918 -0.126147  1.449626
      ESP Fit Center  503 is at  -3.275362  0.685816  1.099796
      ESP Fit Center  504 is at  -3.396103  0.287788  1.099796
      ESP Fit Center  505 is at  -3.436872 -0.126147  1.099796
      ESP Fit Center  506 is at  -3.396103 -0.540082  1.099796
      ESP Fit Center  507 is at  -3.275362 -0.938110  1.099796
      ESP Fit Center  508 is at  -3.461891  0.705520  0.712746
      ESP Fit Center  509 is at  -3.578156  0.296890  0.712746
      ESP Fit Center  510 is at  -3.617356 -0.126147  0.712746
      ESP Fit Center  511 is at  -3.578156 -0.549184  0.712746
      ESP Fit Center  512 is at  -3.461891 -0.957815  0.712746
      ESP Fit Center  513 is at  -3.272519 -1.338124  0.712746
      ESP Fit Center  514 is at  -3.016490 -1.677161  0.712746
      ESP Fit Center  515 is at  -3.404637  1.080242  0.300234
      ESP Fit Center  516 is at  -3.582380  0.699072  0.300234
      ESP Fit Center  517 is at  -3.691233  0.292827  0.300234
      ESP Fit Center  518 is at  -3.727888 -0.126147  0.300234
      ESP Fit Center  519 is at  -2.866014 -1.974443  0.300234
      ESP Fit Center  520 is at  -2.521499 -2.215675  0.300234
      ESP Fit Center  521 is at  -2.140328 -2.393418  0.300234
      ESP Fit Center  522 is at  -1.734084 -2.502271  0.300234
      ESP Fit Center  523 is at  -0.489890 -2.393418  0.300234
      ESP Fit Center  524 is at  -3.547619  0.883011 -0.125204
      ESP Fit Center  525 is at  -2.418109 -2.313816 -0.125204
      ESP Fit Center  526 is at  -2.032525 -2.468756 -0.125204
      ESP Fit Center  527 is at  -1.626303 -2.556303 -0.125204
      ESP Fit Center  528 is at  -1.211128 -2.573940 -0.125204
      ESP Fit Center  529 is at  -0.798945 -2.521158 -0.125204
      ESP Fit Center  530 is at  -0.401611 -2.399475 -0.125204
      ESP Fit Center  531 is at  -3.404637  1.080242 -0.550642
      ESP Fit Center  532 is at  -1.734084 -2.502271 -0.550642
      ESP Fit Center  533 is at  -1.315109 -2.538926 -0.550642
      ESP Fit Center  534 is at  -0.896135 -2.502271 -0.550642
      ESP Fit Center  535 is at  -0.489890 -2.393418 -0.550642
      ESP Fit Center  536 is at  -0.108720 -2.215675 -0.550642
      ESP Fit Center  537 is at  -3.016490  1.424867 -0.963153
      ESP Fit Center  538 is at  -1.527534 -2.418573 -0.963153
      ESP Fit Center  539 is at  -1.102685 -2.418573 -0.963153
      ESP Fit Center  540 is at  -0.685070 -2.340507 -0.963153
      ESP Fit Center  541 is at  -0.288910 -2.187034 -0.963153
      ESP Fit Center  542 is at  -0.901174  1.954846 -1.350204
      ESP Fit Center  543 is at  -2.493897  1.638034 -1.350204
      ESP Fit Center  544 is at  -2.815422  1.374165 -1.350204
      ESP Fit Center  545 is at  -1.315109 -2.247909 -1.350204
      ESP Fit Center  546 is at  -0.901174 -2.207140 -1.350204
      ESP Fit Center  547 is at  -0.503146 -2.086400 -1.350204
      ESP Fit Center  548 is at  -0.897480  1.703606 -1.700033
      ESP Fit Center  549 is at  -1.315109  1.750662 -1.700033
      ESP Fit Center  550 is at  -1.732739  1.703606 -1.700033
      ESP Fit Center  551 is at  -2.129426  1.564799 -1.700033
      ESP Fit Center  552 is at  -2.485281  1.341201 -1.700033
      ESP Fit Center  553 is at  -0.897480 -1.955901 -1.700033
      ESP Fit Center  554 is at  -1.422580  1.445011 -2.002013
      ESP Fit Center  555 is at  -1.842488  1.357753 -2.002013
      ESP Fit Center  556 is at  -2.223283  1.160441 -2.002013
      ESP Fit Center  557 is at  -0.994701 -1.668038 -2.002013
      ESP Fit Center  558 is at  -1.102390  1.080242 -2.246966
      ESP Fit Center  559 is at  -1.527828  1.080242 -2.246966
      ESP Fit Center  560 is at  -1.927609  0.934734 -2.246966
      ESP Fit Center  561 is at  -1.315109  0.711802 -2.427451
      ESP Fit Center  562 is at  -1.102390 -0.494587 -2.537983
      ESP Fit Center  563 is at  -1.529461  1.376146  2.269330
      ESP Fit Center  564 is at  -1.108896  1.376146  2.221944
      ESP Fit Center  565 is at  -1.319179  1.740366  2.221944
      ESP Fit Center  566 is at  -1.739743  1.740366  2.221944
      ESP Fit Center  567 is at  -1.950026  1.376146  2.221944
      ESP Fit Center  568 is at  -1.739743  1.011927  2.221944
      ESP Fit Center  569 is at  -1.319179  1.011927  2.221944
      ESP Fit Center  570 is at  -0.709421  1.376146  2.082161
      ESP Fit Center  571 is at  -0.819285  1.786166  2.082161
      ESP Fit Center  572 is at  -1.119441  2.086322  2.082161
      ESP Fit Center  573 is at  -1.529461  2.196186  2.082161
      ESP Fit Center  574 is at  -1.939481  2.086322  2.082161
      ESP Fit Center  575 is at  -2.239637  1.786166  2.082161
      ESP Fit Center  576 is at  -2.349501  1.376146  2.082161
      ESP Fit Center  577 is at  -2.239637  0.966126  2.082161
      ESP Fit Center  578 is at  -0.819285  0.966126  2.082161
      ESP Fit Center  579 is at  -0.422131  1.779181  1.856991
      ESP Fit Center  580 is at  -0.626757  2.133604  1.856991
      ESP Fit Center  581 is at  -0.940263  2.396667  1.856991
      ESP Fit Center  582 is at  -1.324835  2.536639  1.856991
      ESP Fit Center  583 is at  -1.734087  2.536639  1.856991
      ESP Fit Center  584 is at  -2.118659  2.396667  1.856991
      ESP Fit Center  585 is at  -2.432164  2.133604  1.856991
      ESP Fit Center  586 is at  -2.636791  1.779181  1.856991
      ESP Fit Center  587 is at  -2.707857  1.376146  1.856991
      ESP Fit Center  588 is at  -2.636791  0.973111  1.856991
      ESP Fit Center  589 is at  -0.286373  2.175030  1.557726
      ESP Fit Center  590 is at  -0.561798  2.492888  1.557726
      ESP Fit Center  591 is at  -0.915618  2.720274  1.557726
      ESP Fit Center  592 is at  -1.319168  2.838767  1.557726
      ESP Fit Center  593 is at  -1.739754  2.838767  1.557726
      ESP Fit Center  594 is at  -2.143304  2.720274  1.557726
      ESP Fit Center  595 is at  -2.497123  2.492888  1.557726
      ESP Fit Center  596 is at  -2.772549  2.175030  1.557726
      ESP Fit Center  597 is at  -2.947267  1.792452  1.557726
      ESP Fit Center  598 is at  -3.007122  1.376146  1.557726
      ESP Fit Center  599 is at  -2.947267  0.959841  1.557726
      ESP Fit Center  600 is at  -0.254874  2.505332  1.199370
      ESP Fit Center  601 is at  -0.562143  2.777549  1.199370
      ESP Fit Center  602 is at  -0.925629  2.968321  1.199370
      ESP Fit Center  603 is at  -1.324207  3.066562  1.199370
      ESP Fit Center  604 is at  -1.734715  3.066562  1.199370
      ESP Fit Center  605 is at  -2.133293  2.968321  1.199370
      ESP Fit Center  606 is at  -2.496779  2.777549  1.199370
      ESP Fit Center  607 is at  -2.804048  2.505332  1.199370
      ESP Fit Center  608 is at  -3.037243  2.167491  1.199370
      ESP Fit Center  609 is at  -3.182811  1.783660  1.199370
      ESP Fit Center  610 is at  -3.232292  1.376146  1.199370
      ESP Fit Center  611 is at  -3.182811  0.968632  1.199370
      ESP Fit Center  612 is at  -0.088848  2.524997  0.799894
      ESP Fit Center  613 is at  -0.380610  2.816760  0.799894
      ESP Fit Center  614 is at  -0.729981  3.036284  0.799894
      ESP Fit Center  615 is at  -1.119441  3.172562  0.799894
      ESP Fit Center  616 is at  -1.529461  3.218760  0.799894
      ESP Fit Center  617 is at  -1.939481  3.172562  0.799894
      ESP Fit Center  618 is at  -2.328941  3.036284  0.799894
      ESP Fit Center  619 is at  -2.678312  2.816760  0.799894
      ESP Fit Center  620 is at  -2.970074  2.524997  0.799894
      ESP Fit Center  621 is at  -3.189599  2.175626  0.799894
      ESP Fit Center  622 is at  -3.325877  1.786166  0.799894
      ESP Fit Center  623 is at  -3.372075  1.376146  0.799894
      ESP Fit Center  624 is at  -3.325877  0.966126  0.799894
      ESP Fit Center  625 is at  -0.024845  2.519925  0.379330
      ESP Fit Center  626 is at  -0.305901  2.816632  0.379330
      ESP Fit Center  627 is at  -0.644169  3.045984  0.379330
      ESP Fit Center  628 is at  -1.023832  3.197256  0.379330
      ESP Fit Center  629 is at  -1.427138  3.263374  0.379330
      ESP Fit Center  630 is at  -1.835229  3.241248  0.379330
      ESP Fit Center  631 is at  -2.229022  3.131912  0.379330
      ESP Fit Center  632 is at  -2.590105  2.940478  0.379330
      ESP Fit Center  633 is at  -2.901592  2.675898  0.379330
      ESP Fit Center  634 is at  -3.148921  2.350543  0.379330
      ESP Fit Center  635 is at  -3.320525  1.979626  0.379330
      ESP Fit Center  636 is at  -3.408382  1.580491  0.379330
      ESP Fit Center  637 is at  -3.408382  1.171801  0.379330
      ESP Fit Center  638 is at  -0.088848  2.524997 -0.041235
      ESP Fit Center  639 is at  -0.380610  2.816760 -0.041235
      ESP Fit Center  640 is at  -0.729981  3.036284 -0.041235
      ESP Fit Center  641 is at  -1.119441  3.172562 -0.041235
      ESP Fit Center  642 is at  -1.529461  3.218760 -0.041235
      ESP Fit Center  643 is at  -1.939481  3.172562 -0.041235
      ESP Fit Center  644 is at  -2.328941  3.036284 -0.041235
      ESP Fit Center  645 is at  -2.678312  2.816760 -0.041235
      ESP Fit Center  646 is at  -2.970074  2.524997 -0.041235
      ESP Fit Center  647 is at  -3.189599  2.175626 -0.041235
      ESP Fit Center  648 is at  -3.325877  1.786166 -0.041235
      ESP Fit Center  649 is at  -3.372075  1.376146 -0.041235
      ESP Fit Center  650 is at  -0.021679  2.167491 -0.440710
      ESP Fit Center  651 is at  -0.254874  2.505332 -0.440710
      ESP Fit Center  652 is at  -0.562143  2.777549 -0.440710
      ESP Fit Center  653 is at  -0.925629  2.968321 -0.440710
      ESP Fit Center  654 is at  -1.324207  3.066562 -0.440710
      ESP Fit Center  655 is at  -1.734715  3.066562 -0.440710
      ESP Fit Center  656 is at  -2.133293  2.968321 -0.440710
      ESP Fit Center  657 is at  -2.496779  2.777549 -0.440710
      ESP Fit Center  658 is at  -2.804048  2.505332 -0.440710
      ESP Fit Center  659 is at  -3.037243  2.167491 -0.440710
      ESP Fit Center  660 is at  -3.182811  1.783660 -0.440710
      ESP Fit Center  661 is at  -3.232292  1.376146 -0.440710
      ESP Fit Center  662 is at  -0.286373  2.175030 -0.799066
      ESP Fit Center  663 is at  -0.561798  2.492888 -0.799066
      ESP Fit Center  664 is at  -0.915618  2.720274 -0.799066
      ESP Fit Center  665 is at  -1.319168  2.838767 -0.799066
      ESP Fit Center  666 is at  -1.739754  2.838767 -0.799066
      ESP Fit Center  667 is at  -2.143304  2.720274 -0.799066
      ESP Fit Center  668 is at  -2.497123  2.492888 -0.799066
      ESP Fit Center  669 is at  -2.772549  2.175030 -0.799066
      ESP Fit Center  670 is at  -2.947267  1.792452 -0.799066
      ESP Fit Center  671 is at  -0.626757  2.133604 -1.098332
      ESP Fit Center  672 is at  -0.940263  2.396667 -1.098332
      ESP Fit Center  673 is at  -1.324835  2.536639 -1.098332
      ESP Fit Center  674 is at  -1.734087  2.536639 -1.098332
      ESP Fit Center  675 is at  -2.118659  2.396667 -1.098332
      ESP Fit Center  676 is at  -2.432164  2.133604 -1.098332
      ESP Fit Center  677 is at  -2.636791  1.779181 -1.098332
      ESP Fit Center  678 is at  -1.119441  2.086322 -1.323501
      ESP Fit Center  679 is at  -1.529461  2.196186 -1.323501
      ESP Fit Center  680 is at  -1.939481  2.086322 -1.323501
      ESP Fit Center  681 is at  -1.253547 -0.763615  3.068630
      ESP Fit Center  682 is at  -0.846040 -0.763615  3.025799
      ESP Fit Center  683 is at  -1.049793 -0.410704  3.025799
      ESP Fit Center  684 is at  -1.457300 -0.410704  3.025799
      ESP Fit Center  685 is at  -1.661053 -0.763615  3.025799
      ESP Fit Center  686 is at  -1.457300 -1.116527  3.025799
      ESP Fit Center  687 is at  -1.049793 -1.116527  3.025799
      ESP Fit Center  688 is at  -0.456343 -0.763615  2.899179
      ESP Fit Center  689 is at  -0.563148 -0.365013  2.899179
      ESP Fit Center  690 is at  -0.854945 -0.073217  2.899179
      ESP Fit Center  691 is at  -1.253547  0.033589  2.899179
      ESP Fit Center  692 is at  -1.652148 -0.073217  2.899179
      ESP Fit Center  693 is at  -1.943945 -0.365013  2.899179
      ESP Fit Center  694 is at  -2.050750 -0.763615  2.899179
      ESP Fit Center  695 is at  -1.943945 -1.162217  2.899179
      ESP Fit Center  696 is at  -1.652148 -1.454014  2.899179
      ESP Fit Center  697 is at  -1.253547 -1.560819  2.899179
      ESP Fit Center  698 is at  -0.854945 -1.454014  2.899179
      ESP Fit Center  699 is at  -0.563148 -1.162217  2.899179
      ESP Fit Center  700 is at  -0.101487 -0.763615  2.694303
      ESP Fit Center  701 is at  -0.179283 -0.347444  2.694303
      ESP Fit Center  702 is at  -0.402165  0.012522  2.694303
      ESP Fit Center  703 is at  -0.740030  0.267666  2.694303
      ESP Fit Center  704 is at  -1.147248  0.383529  2.694303
      ESP Fit Center  705 is at  -1.568822  0.344465  2.694303
      ESP Fit Center  706 is at  -1.947817  0.155748  2.694303
      ESP Fit Center  707 is at  -2.233047 -0.157134  2.694303
      ESP Fit Center  708 is at  -2.385990 -0.551925  2.694303
      ESP Fit Center  709 is at  -2.385990 -0.975306  2.694303
      ESP Fit Center  710 is at  -2.233047 -1.370096  2.694303
      ESP Fit Center  711 is at  -1.947817 -1.682978  2.694303
      ESP Fit Center  712 is at  -1.568822 -1.871695  2.694303
      ESP Fit Center  713 is at  -1.147248 -1.910760  2.694303
      ESP Fit Center  714 is at  -0.740030 -1.794896  2.694303
      ESP Fit Center  715 is at  -0.402165 -1.539753  2.694303
      ESP Fit Center  716 is at  -0.179283 -1.179787  2.694303
      ESP Fit Center  717 is at   0.203017 -0.763615  2.420126
      ESP Fit Center  718 is at   0.144016 -0.353254  2.420126
      ESP Fit Center  719 is at  -0.028207  0.023863  2.420126
      ESP Fit Center  720 is at  -0.299700  0.337182  2.420126
      ESP Fit Center  721 is at  -0.648468  0.561322  2.420126
      ESP Fit Center  722 is at  -1.046256  0.678123  2.420126
      ESP Fit Center  723 is at  -1.460837  0.678123  2.420126
      ESP Fit Center  724 is at  -1.858625  0.561322  2.420126
      ESP Fit Center  725 is at  -2.207393  0.337182  2.420126
      ESP Fit Center  726 is at  -2.478886  0.023863  2.420126
      ESP Fit Center  727 is at  -2.651109 -0.353254  2.420126
      ESP Fit Center  728 is at  -2.710110 -0.763615  2.420126
      ESP Fit Center  729 is at  -2.651109 -1.173977  2.420126
      ESP Fit Center  730 is at  -2.478886 -1.551093  2.420126
      ESP Fit Center  731 is at  -2.207393 -1.864413  2.420126
      ESP Fit Center  732 is at  -1.858625 -2.088552  2.420126
      ESP Fit Center  733 is at  -1.460837 -2.205353  2.420126
      ESP Fit Center  734 is at  -1.046256 -2.205353  2.420126
      ESP Fit Center  735 is at  -0.648468 -2.088552  2.420126
      ESP Fit Center  736 is at  -0.299700 -1.864413  2.420126
      ESP Fit Center  737 is at  -0.028207 -1.551093  2.420126
      ESP Fit Center  738 is at   0.144016 -1.173977  2.420126
      ESP Fit Center  739 is at   0.443863 -0.763615  2.088630
      ESP Fit Center  740 is at  -0.729018  0.850717  2.088630
      ESP Fit Center  741 is at  -2.335516  0.544261  2.088630
      ESP Fit Center  742 is at  -2.626780  0.234097  2.088630
      ESP Fit Center  743 is at  -2.831758 -0.138757  2.088630
      ESP Fit Center  744 is at  -2.937572 -0.550873  2.088630
      ESP Fit Center  745 is at  -2.937572 -0.976357  2.088630
      ESP Fit Center  746 is at  -2.831758 -1.388474  2.088630
      ESP Fit Center  747 is at  -2.626780 -1.761328  2.088630
      ESP Fit Center  748 is at  -2.335516 -2.071492  2.088630
      ESP Fit Center  749 is at  -1.976268 -2.299478  2.088630
      ESP Fit Center  750 is at  -1.571609 -2.430959  2.088630
      ESP Fit Center  751 is at  -1.146965 -2.457676  2.088630
      ESP Fit Center  752 is at  -0.729018 -2.377948  2.088630
      ESP Fit Center  753 is at  -0.344029 -2.196786  2.088630
      ESP Fit Center  754 is at  -0.016188 -1.925572  2.088630
      ESP Fit Center  755 is at   0.233905 -1.581349  2.088630
      ESP Fit Center  756 is at   0.390536 -1.185744  2.088630
      ESP Fit Center  757 is at  -2.933016  0.045175  1.714303
      ESP Fit Center  758 is at  -3.070881 -0.348821  1.714303
      ESP Fit Center  759 is at  -3.117617 -0.763615  1.714303
      ESP Fit Center  760 is at  -3.070881 -1.178410  1.714303
      ESP Fit Center  761 is at  -2.933016 -1.572405  1.714303
      ESP Fit Center  762 is at  -2.710936 -1.925844  1.714303
      ESP Fit Center  763 is at  -2.415776 -2.221005  1.714303
      ESP Fit Center  764 is at  -2.062337 -2.443085  1.714303
      ESP Fit Center  765 is at  -1.668341 -2.580950  1.714303
      ESP Fit Center  766 is at  -1.253547 -2.627686  1.714303
      ESP Fit Center  767 is at  -0.838752 -2.580950  1.714303
      ESP Fit Center  768 is at  -0.444757 -2.443085  1.714303
      ESP Fit Center  769 is at  -0.091317 -2.221005  1.714303
      ESP Fit Center  770 is at   0.203843 -1.925844  1.714303
      ESP Fit Center  771 is at  -3.191383 -0.974368  1.313505
      ESP Fit Center  772 is at  -3.100772 -1.386018  1.313505
      ESP Fit Center  773 is at  -2.923786 -1.768565  1.313505
      ESP Fit Center  774 is at  -2.668703 -2.104122  1.313505
      ESP Fit Center  775 is at  -2.347448 -2.376999  1.313505
      ESP Fit Center  776 is at  -1.975043 -2.574435  1.313505
      ESP Fit Center  777 is at  -1.568902 -2.687200  1.313505
      ESP Fit Center  778 is at  -1.148016 -2.710019  1.313505
      ESP Fit Center  779 is at  -0.732063 -2.641828  1.313505
      ESP Fit Center  780 is at  -0.340495 -2.485813  1.313505
      ESP Fit Center  781 is at   0.008380 -2.249270  1.313505
      ESP Fit Center  782 is at  -2.923786 -1.768565  0.903754
      ESP Fit Center  783 is at  -2.668703 -2.104122  0.903754
      ESP Fit Center  784 is at  -2.347448 -2.376999  0.903754
      ESP Fit Center  785 is at  -1.975043 -2.574435  0.903754
      ESP Fit Center  786 is at  -1.568902 -2.687200  0.903754
      ESP Fit Center  787 is at  -1.148016 -2.710019  0.903754
      ESP Fit Center  788 is at  -0.732063 -2.641828  0.903754
      ESP Fit Center  789 is at  -0.340495 -2.485813  0.903754
      ESP Fit Center  790 is at  -2.062337 -2.443085  0.502956
      ESP Fit Center  791 is at  -1.668341 -2.580950  0.502956
      ESP Fit Center  792 is at  -1.253547 -2.627686  0.502956
      ESP Fit Center  793 is at  -0.838752 -2.580950  0.502956
      ESP Fit Center  794 is at  -0.444757 -2.443085  0.502956
      ESP Fit Center  795 is at  -3.691582 -0.482618  0.384558
      ESP Fit Center  796 is at  -3.632581 -0.892979  0.384558
      ESP Fit Center  797 is at  -3.460358 -1.270095  0.384558
      ESP Fit Center  798 is at  -3.813230  0.142241  0.053062
      ESP Fit Center  799 is at  -3.919043 -0.269876  0.053062
      ESP Fit Center  800 is at  -3.919043 -0.695359  0.053062
      ESP Fit Center  801 is at  -3.813230 -1.107476  0.053062
      ESP Fit Center  802 is at  -3.608252 -1.480330  0.053062
      ESP Fit Center  803 is at  -3.316988 -1.790494  0.053062
      ESP Fit Center  804 is at  -2.957740 -2.018480  0.053062
      ESP Fit Center  805 is at  -3.692407  0.679612 -0.321265
      ESP Fit Center  806 is at  -3.914488  0.326172 -0.321265
      ESP Fit Center  807 is at  -4.052353 -0.067823 -0.321265
      ESP Fit Center  808 is at  -4.099089 -0.482618 -0.321265
      ESP Fit Center  809 is at  -4.052353 -0.897412 -0.321265
      ESP Fit Center  810 is at  -3.914488 -1.291408 -0.321265
      ESP Fit Center  811 is at  -3.692407 -1.644847 -0.321265
      ESP Fit Center  812 is at  -3.397247 -1.940007 -0.321265
      ESP Fit Center  813 is at  -3.043808 -2.162087 -0.321265
      ESP Fit Center  814 is at  -2.649813 -2.299952 -0.321265
      ESP Fit Center  815 is at  -3.650174  0.857889 -0.722062
      ESP Fit Center  816 is at  -3.905258  0.522332 -0.722062
      ESP Fit Center  817 is at  -4.082243  0.139785 -0.722062
      ESP Fit Center  818 is at  -4.172854 -0.271865 -0.722062
      ESP Fit Center  819 is at  -4.172854 -0.693370 -0.722062
      ESP Fit Center  820 is at  -4.082243 -1.105020 -0.722062
      ESP Fit Center  821 is at  -3.905258 -1.487568 -0.722062
      ESP Fit Center  822 is at  -3.650174 -1.823125 -0.722062
      ESP Fit Center  823 is at  -3.328919 -2.096001 -0.722062
      ESP Fit Center  824 is at  -2.956515 -2.293437 -0.722062
      ESP Fit Center  825 is at  -2.550374 -2.406202 -0.722062
      ESP Fit Center  826 is at  -2.129487 -2.429022 -0.722062
      ESP Fit Center  827 is at  -3.328919  1.130766 -1.131814
      ESP Fit Center  828 is at  -3.650174  0.857889 -1.131814
      ESP Fit Center  829 is at  -3.905258  0.522332 -1.131814
      ESP Fit Center  830 is at  -4.082243  0.139785 -1.131814
      ESP Fit Center  831 is at  -4.172854 -0.271865 -1.131814
      ESP Fit Center  832 is at  -4.172854 -0.693370 -1.131814
      ESP Fit Center  833 is at  -4.082243 -1.105020 -1.131814
      ESP Fit Center  834 is at  -3.905258 -1.487568 -1.131814
      ESP Fit Center  835 is at  -3.650174 -1.823125 -1.131814
      ESP Fit Center  836 is at  -3.328919 -2.096001 -1.131814
      ESP Fit Center  837 is at  -2.956515 -2.293437 -1.131814
      ESP Fit Center  838 is at  -2.550374 -2.406202 -1.131814
      ESP Fit Center  839 is at  -2.129487 -2.429022 -1.131814
      ESP Fit Center  840 is at  -1.713535 -2.360830 -1.131814
      ESP Fit Center  841 is at  -3.043808  1.196852 -1.532611
      ESP Fit Center  842 is at  -3.397247  0.974772 -1.532611
      ESP Fit Center  843 is at  -3.692407  0.679612 -1.532611
      ESP Fit Center  844 is at  -3.914488  0.326172 -1.532611
      ESP Fit Center  845 is at  -4.052353 -0.067823 -1.532611
      ESP Fit Center  846 is at  -4.099089 -0.482618 -1.532611
      ESP Fit Center  847 is at  -4.052353 -0.897412 -1.532611
      ESP Fit Center  848 is at  -3.914488 -1.291408 -1.532611
      ESP Fit Center  849 is at  -3.692407 -1.644847 -1.532611
      ESP Fit Center  850 is at  -3.397247 -1.940007 -1.532611
      ESP Fit Center  851 is at  -3.043808 -2.162087 -1.532611
      ESP Fit Center  852 is at  -2.649813 -2.299952 -1.532611
      ESP Fit Center  853 is at  -2.235018 -2.346688 -1.532611
      ESP Fit Center  854 is at  -1.820223 -2.299952 -1.532611
      ESP Fit Center  855 is at  -1.426228 -2.162087 -1.532611
      ESP Fit Center  856 is at  -2.553081  1.184726 -1.906938
      ESP Fit Center  857 is at  -2.957740  1.053245 -1.906938
      ESP Fit Center  858 is at  -3.316988  0.825259 -1.906938
      ESP Fit Center  859 is at  -3.608252  0.515095 -1.906938
      ESP Fit Center  860 is at  -3.813230  0.142241 -1.906938
      ESP Fit Center  861 is at  -3.919043 -0.269876 -1.906938
      ESP Fit Center  862 is at  -3.919043 -0.695359 -1.906938
      ESP Fit Center  863 is at  -3.813230 -1.107476 -1.906938
      ESP Fit Center  864 is at  -3.608252 -1.480330 -1.906938
      ESP Fit Center  865 is at  -3.316988 -1.790494 -1.906938
      ESP Fit Center  866 is at  -2.957740 -2.018480 -1.906938
      ESP Fit Center  867 is at  -2.553081 -2.149962 -1.906938
      ESP Fit Center  868 is at  -2.128437 -2.176678 -1.906938
      ESP Fit Center  869 is at  -1.710490 -2.096950 -1.906938
      ESP Fit Center  870 is at  -1.325501 -1.915788 -1.906938
      ESP Fit Center  871 is at  -2.027728  0.959121 -2.238434
      ESP Fit Center  872 is at  -2.442309  0.959121 -2.238434
      ESP Fit Center  873 is at  -2.840097  0.842319 -2.238434
      ESP Fit Center  874 is at  -3.188865  0.618180 -2.238434
      ESP Fit Center  875 is at  -3.460358  0.304860 -2.238434
      ESP Fit Center  876 is at  -3.632581 -0.072256 -2.238434
      ESP Fit Center  877 is at  -3.691582 -0.482618 -2.238434
      ESP Fit Center  878 is at  -3.632581 -0.892979 -2.238434
      ESP Fit Center  879 is at  -3.460358 -1.270095 -2.238434
      ESP Fit Center  880 is at  -3.188865 -1.583415 -2.238434
      ESP Fit Center  881 is at  -2.840097 -1.807555 -2.238434
      ESP Fit Center  882 is at  -2.442309 -1.924356 -2.238434
      ESP Fit Center  883 is at  -2.027728 -1.924356 -2.238434
      ESP Fit Center  884 is at  -1.629940 -1.807555 -2.238434
      ESP Fit Center  885 is at  -1.281172 -1.583415 -2.238434
      ESP Fit Center  886 is at  -1.721501  0.548663 -2.512611
      ESP Fit Center  887 is at  -2.128720  0.664527 -2.512611
      ESP Fit Center  888 is at  -2.550294  0.625462 -2.512611
      ESP Fit Center  889 is at  -2.929289  0.436745 -2.512611
      ESP Fit Center  890 is at  -3.214519  0.123863 -2.512611
      ESP Fit Center  891 is at  -3.367461 -0.270927 -2.512611
      ESP Fit Center  892 is at  -3.367461 -0.694308 -2.512611
      ESP Fit Center  893 is at  -3.214519 -1.089099 -2.512611
      ESP Fit Center  894 is at  -2.929289 -1.401981 -2.512611
      ESP Fit Center  895 is at  -2.550294 -1.590698 -2.512611
      ESP Fit Center  896 is at  -2.128720 -1.629762 -2.512611
      ESP Fit Center  897 is at  -1.721501 -1.513899 -2.512611
      ESP Fit Center  898 is at  -1.383636 -1.258755 -2.512611
      ESP Fit Center  899 is at  -1.160755 -0.898789 -2.512611
      ESP Fit Center  900 is at  -1.437814 -0.482618 -2.717487
      ESP Fit Center  901 is at  -1.544619 -0.084016 -2.717487
      ESP Fit Center  902 is at  -1.836416  0.207781 -2.717487
      ESP Fit Center  903 is at  -2.235018  0.314586 -2.717487
      ESP Fit Center  904 is at  -2.633620  0.207781 -2.717487
      ESP Fit Center  905 is at  -2.925417 -0.084016 -2.717487
      ESP Fit Center  906 is at  -3.032222 -0.482618 -2.717487
      ESP Fit Center  907 is at  -2.925417 -0.881220 -2.717487
      ESP Fit Center  908 is at  -2.633620 -1.173016 -2.717487
      ESP Fit Center  909 is at  -2.235018 -1.279821 -2.717487
      ESP Fit Center  910 is at  -1.836416 -1.173016 -2.717487
      ESP Fit Center  911 is at  -1.544619 -0.881220 -2.717487
      ESP Fit Center  912 is at  -1.827511 -0.482618 -2.844107
      ESP Fit Center  913 is at  -2.031265 -0.129706 -2.844107
      ESP Fit Center  914 is at  -2.438772 -0.129706 -2.844107
      ESP Fit Center  915 is at  -2.642525 -0.482618 -2.844107
      ESP Fit Center  916 is at  -2.438772 -0.835529 -2.844107
      ESP Fit Center  917 is at  -2.031265 -0.835529 -2.844107
      ESP Fit Center  918 is at  -2.235018 -0.482618 -2.886938
      ESP Fit Center  919 is at   2.680827 -0.662793  2.188537
      ESP Fit Center  920 is at   3.043311 -0.673817  1.927614
      ESP Fit Center  921 is at   3.174807 -0.283553  1.927614
      ESP Fit Center  922 is at   3.503977  0.125855  1.620840
      ESP Fit Center  923 is at   3.464416  0.540150  1.620840
      ESP Fit Center  924 is at   3.347165 -0.687762  1.620840
      ESP Fit Center  925 is at   3.464416 -0.288440  1.620840
      ESP Fit Center  926 is at   3.739720  0.125855  1.275068
      ESP Fit Center  927 is at   3.704840  0.535660  1.275068
      ESP Fit Center  928 is at   3.601205  0.933676  1.275068
      ESP Fit Center  929 is at   3.431795  1.308453  1.275068
      ESP Fit Center  930 is at   3.601205 -0.681966  1.275068
      ESP Fit Center  931 is at   3.704840 -0.283950  1.275068
      ESP Fit Center  932 is at   3.921295  0.125855  0.898023
      ESP Fit Center  933 is at   3.889206  0.533593  0.898023
      ESP Fit Center  934 is at   3.793727  0.931291  0.898023
      ESP Fit Center  935 is at   3.637210  1.309157  0.898023
      ESP Fit Center  936 is at   3.423508  1.657886  0.898023
      ESP Fit Center  937 is at   3.157885  1.968891  0.898023
      ESP Fit Center  938 is at   3.637210 -1.057447  0.898023
      ESP Fit Center  939 is at   3.793727 -0.679581  0.898023
      ESP Fit Center  940 is at   3.889206 -0.281883  0.898023
      ESP Fit Center  941 is at   4.044647  0.125855  0.498127
      ESP Fit Center  942 is at   4.012655  0.542557  0.498127
      ESP Fit Center  943 is at   3.917428  0.949491  0.498127
      ESP Fit Center  944 is at   3.761200  1.337121  0.498127
      ESP Fit Center  945 is at   3.547631  1.696359  0.498127
      ESP Fit Center  946 is at   3.281727  2.018786  0.498127
      ESP Fit Center  947 is at   2.969722  2.296844  0.498127
      ESP Fit Center  948 is at   2.618927  2.524016  0.498127
      ESP Fit Center  949 is at   2.237567  2.694978  0.498127
      ESP Fit Center  950 is at   3.761200 -1.085410  0.498127
      ESP Fit Center  951 is at   3.917428 -0.697781  0.498127
      ESP Fit Center  952 is at   4.012655 -0.290847  0.498127
      ESP Fit Center  953 is at   3.055739  2.308862  0.084313
      ESP Fit Center  954 is at   2.710934  2.543946  0.084313
      ESP Fit Center  955 is at   2.334943  2.725013  0.084313
      ESP Fit Center  956 is at   1.936165  2.848020  0.084313
      ESP Fit Center  957 is at   1.523508  2.910218  0.084313
      ESP Fit Center  958 is at   1.106190  2.910218  0.084313
      ESP Fit Center  959 is at   0.693532  2.848020  0.084313
      ESP Fit Center  960 is at   0.294754  2.725013  0.084313
      ESP Fit Center  961 is at   3.830508 -1.085622  0.084313
      ESP Fit Center  962 is at   3.982971 -0.697152  0.084313
      ESP Fit Center  963 is at   2.334943  2.725013 -0.334176
      ESP Fit Center  964 is at   1.936165  2.848020 -0.334176
      ESP Fit Center  965 is at   1.523508  2.910218 -0.334176
      ESP Fit Center  966 is at   1.106190  2.910218 -0.334176
      ESP Fit Center  967 is at   0.693532  2.848020 -0.334176
      ESP Fit Center  968 is at   0.294754  2.725013 -0.334176
      ESP Fit Center  969 is at   3.621848 -1.447031 -0.334176
      ESP Fit Center  970 is at   3.830508 -1.085622 -0.334176
      ESP Fit Center  971 is at   1.834578  2.805721 -0.747990
      ESP Fit Center  972 is at   1.419407  2.853650 -0.747990
      ESP Fit Center  973 is at   1.001786  2.837642 -0.747990
      ESP Fit Center  974 is at   0.591503  2.758073 -0.747990
      ESP Fit Center  975 is at   0.198174  2.616806 -0.747990
      ESP Fit Center  976 is at   3.547631 -1.444649 -0.747990
      ESP Fit Center  977 is at   1.722587  2.700212 -1.147886
      ESP Fit Center  978 is at   1.314849  2.732302 -1.147886
      ESP Fit Center  979 is at   0.907111  2.700212 -1.147886
      ESP Fit Center  980 is at   0.509412  2.604733 -1.147886
      ESP Fit Center  981 is at   0.131547  2.448216 -1.147886
      ESP Fit Center  982 is at   3.157885 -1.717181 -1.147886
      ESP Fit Center  983 is at   3.423508 -1.406176 -1.147886
      ESP Fit Center  984 is at   1.417763  2.548541 -1.524932
      ESP Fit Center  985 is at   1.006847  2.531086 -1.524932
      ESP Fit Center  986 is at   0.604791  2.444436 -1.524932
      ESP Fit Center  987 is at   0.223163  2.291085 -1.524932
      ESP Fit Center  988 is at   1.006847 -2.279376 -1.524932
      ESP Fit Center  989 is at   2.218978 -2.124156 -1.524932
      ESP Fit Center  990 is at   2.586226 -1.938993 -1.524932
      ESP Fit Center  991 is at   2.916900 -1.694428 -1.524932
      ESP Fit Center  992 is at   1.003303  2.292701 -1.870703
      ESP Fit Center  993 is at   0.598855  2.194583 -1.870703
      ESP Fit Center  994 is at   1.003303 -2.040991 -1.870703
      ESP Fit Center  995 is at   1.419012 -2.060793 -1.870703
      ESP Fit Center  996 is at   1.830955 -2.001565 -1.870703
      ESP Fit Center  997 is at   2.224245 -1.865446 -1.870703
      ESP Fit Center  998 is at   2.584668 -1.657356 -1.870703
      ESP Fit Center  999 is at   1.006738  2.005250 -2.177477
      ESP Fit Center 1000 is at   0.609927  1.895076 -2.177477
      ESP Fit Center 1001 is at   1.006738 -1.753540 -2.177477
      ESP Fit Center 1002 is at   1.417955 -1.775835 -2.177477
      ESP Fit Center 1003 is at   1.824352 -1.709210 -2.177477
      ESP Fit Center 1004 is at   2.206925 -1.556779 -2.177477
      ESP Fit Center 1005 is at   0.906614  1.649406 -2.438400
      ESP Fit Center 1006 is at   1.314849 -1.451441 -2.438400
      ESP Fit Center 1007 is at   1.723083 -1.397696 -2.438400
      ESP Fit Center 1008 is at   2.103497 -1.240123 -2.438400
      ESP Fit Center 1009 is at   1.525809 -1.070563 -2.647644
      ESP Fit Center 1010 is at   1.922286 -0.926257 -2.647644
      ESP Fit Center 1011 is at   1.314849 -0.699459 -2.800535
      ESP Fit Center 1012 is at   1.106190  0.487263 -2.893658
      ESP Fit Center 1013 is at   1.529315 -1.375389  2.540689
      ESP Fit Center 1014 is at   1.950710 -1.375389  2.499185
      ESP Fit Center 1015 is at   1.740013 -1.010450  2.499185
      ESP Fit Center 1016 is at   1.318617 -1.010450  2.499185
      ESP Fit Center 1017 is at   1.107920 -1.375389  2.499185
      ESP Fit Center 1018 is at   1.318617 -1.740327  2.499185
      ESP Fit Center 1019 is at   1.740013 -1.740327  2.499185
      ESP Fit Center 1020 is at   2.355911 -1.375389  2.376269
      ESP Fit Center 1021 is at   2.245168 -0.962090  2.376269
      ESP Fit Center 1022 is at   0.702719 -1.375389  2.376269
      ESP Fit Center 1023 is at   0.813462 -1.788687  2.376269
      ESP Fit Center 1024 is at   1.116017 -2.091242  2.376269
      ESP Fit Center 1025 is at   1.529315 -2.201985  2.376269
      ESP Fit Center 1026 is at   1.942613 -2.091242  2.376269
      ESP Fit Center 1027 is at   2.245168 -1.788687  2.376269
      ESP Fit Center 1028 is at   2.729347 -1.375389  2.176664
      ESP Fit Center 1029 is at   2.656976 -0.964954  2.176664
      ESP Fit Center 1030 is at   0.610037 -2.146754  2.176664
      ESP Fit Center 1031 is at   0.929299 -2.414647  2.176664
      ESP Fit Center 1032 is at   1.320932 -2.557189  2.176664
      ESP Fit Center 1033 is at   1.737698 -2.557189  2.176664
      ESP Fit Center 1034 is at   2.129331 -2.414647  2.176664
      ESP Fit Center 1035 is at   2.448593 -2.146754  2.176664
      ESP Fit Center 1036 is at   2.656976 -1.785824  2.176664
      ESP Fit Center 1037 is at   3.056666 -1.375389  1.908040
      ESP Fit Center 1038 is at   3.000027 -0.963314  1.908040
      ESP Fit Center 1039 is at   0.344532 -2.339281  1.908040
      ESP Fit Center 1040 is at   0.648522 -2.623188  1.908040
      ESP Fit Center 1041 is at   1.017836 -2.814551  1.908040
      ESP Fit Center 1042 is at   1.425085 -2.899179  1.908040
      ESP Fit Center 1043 is at   1.840064 -2.870793  1.908040
      ESP Fit Center 1044 is at   2.231996 -2.731501  1.908040
      ESP Fit Center 1045 is at   2.571813 -2.491631  1.908040
      ESP Fit Center 1046 is at   2.834313 -2.168975  1.908040
      ESP Fit Center 1047 is at   3.000027 -1.787463  1.908040
      ESP Fit Center 1048 is at   3.325289 -1.375389  1.580721
      ESP Fit Center 1049 is at   3.276879 -0.961208  1.580721
      ESP Fit Center 1050 is at   0.296843 -2.681733  1.580721
      ESP Fit Center 1051 is at   0.631328 -2.930748  1.580721
      ESP Fit Center 1052 is at   1.014224 -3.095913  1.580721
      ESP Fit Center 1053 is at   1.424888 -3.168324  1.580721
      ESP Fit Center 1054 is at   1.841183 -3.144078  1.580721
      ESP Fit Center 1055 is at   2.240664 -3.024481  1.580721
      ESP Fit Center 1056 is at   2.601797 -2.815981  1.580721
      ESP Fit Center 1057 is at   2.905111 -2.529819  1.580721
      ESP Fit Center 1058 is at   3.134256 -2.181420  1.580721
      ESP Fit Center 1059 is at   3.276879 -1.789569  1.580721
      ESP Fit Center 1060 is at   3.524895 -1.375389  1.207285
      ESP Fit Center 1061 is at   0.194012 -2.858393  1.207285
      ESP Fit Center 1062 is at   0.531525 -3.103611  1.207285
      ESP Fit Center 1063 is at   0.912647 -3.273298  1.207285
      ESP Fit Center 1064 is at   1.320720 -3.360036  1.207285
      ESP Fit Center 1065 is at   1.737910 -3.360036  1.207285
      ESP Fit Center 1066 is at   2.145983 -3.273298  1.207285
      ESP Fit Center 1067 is at   2.527105 -3.103611  1.207285
      ESP Fit Center 1068 is at   2.864619 -2.858393  1.207285
      ESP Fit Center 1069 is at   3.143773 -2.548361  1.207285
      ESP Fit Center 1070 is at   3.352368 -2.187064  1.207285
      ESP Fit Center 1071 is at   3.481287 -1.790293  1.207285
      ESP Fit Center 1072 is at   3.647811 -1.375389  0.802084
      ESP Fit Center 1073 is at   0.031312 -2.873392  0.802084
      ESP Fit Center 1074 is at   0.352342 -3.136854  0.802084
      ESP Fit Center 1075 is at   0.718602 -3.332624  0.802084
      ESP Fit Center 1076 is at   1.116017 -3.453178  0.802084
      ESP Fit Center 1077 is at   1.529315 -3.493885  0.802084
      ESP Fit Center 1078 is at   1.942613 -3.453178  0.802084
      ESP Fit Center 1079 is at   2.340028 -3.332624  0.802084
      ESP Fit Center 1080 is at   2.706288 -3.136854  0.802084
      ESP Fit Center 1081 is at   3.027318 -2.873392  0.802084
      ESP Fit Center 1082 is at   3.290780 -2.552362  0.802084
      ESP Fit Center 1083 is at   3.486550 -2.186102  0.802084
      ESP Fit Center 1084 is at   3.607105 -1.788687  0.802084
      ESP Fit Center 1085 is at   3.689315 -1.375389  0.380689
      ESP Fit Center 1086 is at  -0.168560 -2.710612  0.380689
      ESP Fit Center 1087 is at   0.114816 -3.007808  0.380689
      ESP Fit Center 1088 is at   0.449315 -3.246003  0.380689
      ESP Fit Center 1089 is at   0.822848 -3.416590  0.380689
      ESP Fit Center 1090 is at   1.221915 -3.513403  0.380689
      ESP Fit Center 1091 is at   1.632092 -3.532942  0.380689
      ESP Fit Center 1092 is at   2.038554 -3.474502  0.380689
      ESP Fit Center 1093 is at   2.426611 -3.340194  0.380689
      ESP Fit Center 1094 is at   2.782238 -3.134873  0.380689
      ESP Fit Center 1095 is at   3.092581 -2.865959  0.380689
      ESP Fit Center 1096 is at   3.346423 -2.543173  0.380689
      ESP Fit Center 1097 is at   3.534590 -2.178179  0.380689
      ESP Fit Center 1098 is at   3.650281 -1.784171  0.380689
      ESP Fit Center 1099 is at   0.031312 -2.873392 -0.040706
      ESP Fit Center 1100 is at   0.352342 -3.136854 -0.040706
      ESP Fit Center 1101 is at   0.718602 -3.332624 -0.040706
      ESP Fit Center 1102 is at   1.116017 -3.453178 -0.040706
      ESP Fit Center 1103 is at   1.529315 -3.493885 -0.040706
      ESP Fit Center 1104 is at   1.942613 -3.453178 -0.040706
      ESP Fit Center 1105 is at   2.340028 -3.332624 -0.040706
      ESP Fit Center 1106 is at   2.706288 -3.136854 -0.040706
      ESP Fit Center 1107 is at   3.027318 -2.873392 -0.040706
      ESP Fit Center 1108 is at   3.290780 -2.552362 -0.040706
      ESP Fit Center 1109 is at   3.486550 -2.186102 -0.040706
      ESP Fit Center 1110 is at   3.607105 -1.788687 -0.040706
      ESP Fit Center 1111 is at   0.194012 -2.858393 -0.445907
      ESP Fit Center 1112 is at   0.531525 -3.103611 -0.445907
      ESP Fit Center 1113 is at   0.912647 -3.273298 -0.445907
      ESP Fit Center 1114 is at   1.320720 -3.360036 -0.445907
      ESP Fit Center 1115 is at   1.737910 -3.360036 -0.445907
      ESP Fit Center 1116 is at   2.145983 -3.273298 -0.445907
      ESP Fit Center 1117 is at   2.527105 -3.103611 -0.445907
      ESP Fit Center 1118 is at   2.864619 -2.858393 -0.445907
      ESP Fit Center 1119 is at   3.143773 -2.548361 -0.445907
      ESP Fit Center 1120 is at   3.352368 -2.187064 -0.445907
      ESP Fit Center 1121 is at   3.481287 -1.790293 -0.445907
      ESP Fit Center 1122 is at   0.296843 -2.681733 -0.819342
      ESP Fit Center 1123 is at   0.631328 -2.930748 -0.819342
      ESP Fit Center 1124 is at   1.014224 -3.095913 -0.819342
      ESP Fit Center 1125 is at   1.424888 -3.168324 -0.819342
      ESP Fit Center 1126 is at   1.841183 -3.144078 -0.819342
      ESP Fit Center 1127 is at   2.240664 -3.024481 -0.819342
      ESP Fit Center 1128 is at   2.601797 -2.815981 -0.819342
      ESP Fit Center 1129 is at   2.905111 -2.529819 -0.819342
      ESP Fit Center 1130 is at   3.134256 -2.181420 -0.819342
      ESP Fit Center 1131 is at   3.276879 -1.789569 -0.819342
      ESP Fit Center 1132 is at   0.648522 -2.623188 -1.146661
      ESP Fit Center 1133 is at   1.017836 -2.814551 -1.146661
      ESP Fit Center 1134 is at   1.425085 -2.899179 -1.146661
      ESP Fit Center 1135 is at   1.840064 -2.870793 -1.146661
      ESP Fit Center 1136 is at   2.231996 -2.731501 -1.146661
      ESP Fit Center 1137 is at   2.571813 -2.491631 -1.146661
      ESP Fit Center 1138 is at   2.834313 -2.168975 -1.146661
      ESP Fit Center 1139 is at   0.929299 -2.414647 -1.415285
      ESP Fit Center 1140 is at   1.320932 -2.557189 -1.415285
      ESP Fit Center 1141 is at   1.737698 -2.557189 -1.415285
      ESP Fit Center 1142 is at   2.129331 -2.414647 -1.415285
      ESP Fit Center 1143 is at   2.448593 -2.146754 -1.415285
      ESP Fit Center 1144 is at   1.253964  0.764900  3.347706
      ESP Fit Center 1145 is at   1.665563  0.764900  3.309566
      ESP Fit Center 1146 is at   1.459764  1.121355  3.309566
      ESP Fit Center 1147 is at   1.048165  1.121355  3.309566
      ESP Fit Center 1148 is at   0.842365  0.764900  3.309566
      ESP Fit Center 1149 is at   1.048165  0.408445  3.309566
      ESP Fit Center 1150 is at   1.459764  0.408445  3.309566
      ESP Fit Center 1151 is at   2.063145  0.764900  3.196444
      ESP Fit Center 1152 is at   1.954736  1.169491  3.196444
      ESP Fit Center 1153 is at   1.658555  1.465672  3.196444
      ESP Fit Center 1154 is at   1.253964  1.574082  3.196444
      ESP Fit Center 1155 is at   0.849373  1.465672  3.196444
      ESP Fit Center 1156 is at   0.553192  1.169491  3.196444
      ESP Fit Center 1157 is at   0.444783  0.764900  3.196444
      ESP Fit Center 1158 is at   0.553192  0.360310  3.196444
      ESP Fit Center 1159 is at   0.849373  0.064129  3.196444
      ESP Fit Center 1160 is at   1.253964 -0.044281  3.196444
      ESP Fit Center 1161 is at   1.658555  0.064129  3.196444
      ESP Fit Center 1162 is at   1.954736  0.360310  3.196444
      ESP Fit Center 1163 is at   2.433172  0.764900  3.012192
      ESP Fit Center 1164 is at   2.353543  1.190879  3.012192
      ESP Fit Center 1165 is at   2.125409  1.559328  3.012192
      ESP Fit Center 1166 is at   1.779582  1.820484  3.012192
      ESP Fit Center 1167 is at   1.362768  1.939078  3.012192
      ESP Fit Center 1168 is at   0.931258  1.899093  3.012192
      ESP Fit Center 1169 is at   0.543332  1.705929  3.012192
      ESP Fit Center 1170 is at   0.251381  1.385673  3.012192
      ESP Fit Center 1171 is at   0.094834  0.981579  3.012192
      ESP Fit Center 1172 is at   0.094834  0.548221  3.012192
      ESP Fit Center 1173 is at   0.251381  0.144127  3.012192
      ESP Fit Center 1174 is at   0.543332 -0.176128  3.012192
      ESP Fit Center 1175 is at   0.931258 -0.369292  3.012192
      ESP Fit Center 1176 is at   1.362768 -0.409277  3.012192
      ESP Fit Center 1177 is at   1.779582 -0.290683  3.012192
      ESP Fit Center 1178 is at   2.125409 -0.029527  3.012192
      ESP Fit Center 1179 is at   2.353543  0.338921  3.012192
      ESP Fit Center 1180 is at   2.763042  0.764900  2.763086
      ESP Fit Center 1181 is at   2.701914  1.190057  2.763086
      ESP Fit Center 1182 is at   2.523481  1.580770  2.763086
      ESP Fit Center 1183 is at   2.242200  1.905386  2.763086
      ESP Fit Center 1184 is at   1.880858  2.137606  2.763086
      ESP Fit Center 1185 is at   1.468728  2.258618  2.763086
      ESP Fit Center 1186 is at   1.039200  2.258618  2.763086
      ESP Fit Center 1187 is at   0.627070  2.137606  2.763086
      ESP Fit Center 1188 is at   0.265728  1.905386  2.763086
      ESP Fit Center 1189 is at  -0.015553  1.580770  2.763086
      ESP Fit Center 1190 is at  -0.193986  1.190057  2.763086
      ESP Fit Center 1191 is at  -0.255114  0.764900  2.763086
      ESP Fit Center 1192 is at  -0.193986  0.339744  2.763086
      ESP Fit Center 1193 is at   0.265728 -0.375585  2.763086
      ESP Fit Center 1194 is at   0.627070 -0.607806  2.763086
      ESP Fit Center 1195 is at   1.039200 -0.728818  2.763086
      ESP Fit Center 1196 is at   1.468728 -0.728818  2.763086
      ESP Fit Center 1197 is at   1.880858 -0.607806  2.763086
      ESP Fit Center 1198 is at   2.242200 -0.375585  2.763086
      ESP Fit Center 1199 is at   2.523481 -0.050969  2.763086
      ESP Fit Center 1200 is at   2.701914  0.339744  2.763086
      ESP Fit Center 1201 is at   3.041523  0.764900  2.457608
      ESP Fit Center 1202 is at   2.993339  1.177140  2.457608
      ESP Fit Center 1203 is at   2.851385  1.567155  2.457608
      ESP Fit Center 1204 is at   2.623313  1.913921  2.457608
      ESP Fit Center 1205 is at   2.321420  2.198743  2.457608
      ESP Fit Center 1206 is at   1.961980  2.406265  2.457608
      ESP Fit Center 1207 is at   1.564370  2.525302  2.457608
      ESP Fit Center 1208 is at   1.150027  2.549435  2.457608
      ESP Fit Center 1209 is at   0.741286  2.477363  2.457608
      ESP Fit Center 1210 is at   0.360185  2.312971  2.457608
      ESP Fit Center 1211 is at   0.027267  2.065123  2.457608
      ESP Fit Center 1212 is at  -0.239519  1.747180  2.457608
      ESP Fit Center 1213 is at  -0.425792  1.376281  2.457608
      ESP Fit Center 1214 is at  -0.521508  0.972423  2.457608
      ESP Fit Center 1215 is at   0.741286 -0.947562  2.457608
      ESP Fit Center 1216 is at   1.961980 -0.876465  2.457608
      ESP Fit Center 1217 is at   2.321420 -0.668942  2.457608
      ESP Fit Center 1218 is at   2.623313 -0.384120  2.457608
      ESP Fit Center 1219 is at   2.851385 -0.037355  2.457608
      ESP Fit Center 1220 is at   2.993339  0.352661  2.457608
      ESP Fit Center 1221 is at   3.259130  0.764900  2.106160
      ESP Fit Center 1222 is at   3.215312  1.181798  2.106160
      ESP Fit Center 1223 is at   3.085774  1.580475  2.106160
      ESP Fit Center 1224 is at   2.876177  1.943507  2.106160
      ESP Fit Center 1225 is at   2.595682  2.255029  2.106160
      ESP Fit Center 1226 is at   2.256547  2.501425  2.106160
      ESP Fit Center 1227 is at   1.873594  2.671926  2.106160
      ESP Fit Center 1228 is at   1.463561  2.759082  2.106160
      ESP Fit Center 1229 is at   1.044367  2.759082  2.106160
      ESP Fit Center 1230 is at   0.634334  2.671926  2.106160
      ESP Fit Center 1231 is at   0.251381  2.501425  2.106160
      ESP Fit Center 1232 is at  -0.087754  2.255029  2.106160
      ESP Fit Center 1233 is at   3.085774 -0.050674  2.106160
      ESP Fit Center 1234 is at   3.215312  0.348003  2.106160
      ESP Fit Center 1235 is at   3.408453  0.764900  1.720711
      ESP Fit Center 1236 is at   3.367056  1.185220  1.720711
      ESP Fit Center 1237 is at   3.244453  1.589388  1.720711
      ESP Fit Center 1238 is at   3.045357  1.961871  1.720711
      ESP Fit Center 1239 is at   2.777418  2.288354  1.720711
      ESP Fit Center 1240 is at   2.450934  2.556293  1.720711
      ESP Fit Center 1241 is at   2.078451  2.755389  1.720711
      ESP Fit Center 1242 is at   1.674284  2.877992  1.720711
      ESP Fit Center 1243 is at   1.253964  2.919390  1.720711
      ESP Fit Center 1244 is at   0.833644  2.877992  1.720711
      ESP Fit Center 1245 is at   0.429477  2.755389  1.720711
      ESP Fit Center 1246 is at   0.056994  2.556293  1.720711
      ESP Fit Center 1247 is at   3.324637  1.593873  1.314387
      ESP Fit Center 1248 is at   3.130333  1.970770  1.314387
      ESP Fit Center 1249 is at   2.868213  2.304083  1.314387
      ESP Fit Center 1250 is at   2.547749  2.581767  1.314387
      ESP Fit Center 1251 is at   2.180524  2.793784  1.314387
      ESP Fit Center 1252 is at   1.779811  2.932472  1.314387
      ESP Fit Center 1253 is at   1.360093  2.992819  1.314387
      ESP Fit Center 1254 is at   0.936539  2.972642  1.314387
      ESP Fit Center 1255 is at   0.524457  2.872672  1.314387
      ESP Fit Center 1256 is at   0.138742  2.696522  1.314387
      ESP Fit Center 1257 is at   2.868213  2.304083  0.901025
      ESP Fit Center 1258 is at   2.547749  2.581767  0.901025
      ESP Fit Center 1259 is at   2.180524  2.793784  0.901025
      ESP Fit Center 1260 is at   1.779811  2.932472  0.901025
      ESP Fit Center 1261 is at   1.360093  2.992819  0.901025
      ESP Fit Center 1262 is at   0.936539  2.972642  0.901025
      ESP Fit Center 1263 is at   0.524457  2.872672  0.901025
      ESP Fit Center 1264 is at   0.138742  2.696522  0.901025
      ESP Fit Center 1265 is at   2.078451  2.755389  0.494701
      ESP Fit Center 1266 is at   1.674284  2.877992  0.494701
      ESP Fit Center 1267 is at   1.253964  2.919390  0.494701
      ESP Fit Center 1268 is at   0.833644  2.877992  0.494701
      ESP Fit Center 1269 is at   0.429477  2.755389  0.494701
      ESP Fit Center 1270 is at   3.974403  0.893838  0.422006
      ESP Fit Center 1271 is at   3.832449  1.283853  0.422006
      ESP Fit Center 1272 is at   4.240194  0.481598  0.070558
      ESP Fit Center 1273 is at   4.196376  0.898496  0.070558
      ESP Fit Center 1274 is at   4.066838  1.297173  0.070558
      ESP Fit Center 1275 is at   3.857241  1.660205  0.070558
      ESP Fit Center 1276 is at   3.576746  1.971727  0.070558
      ESP Fit Center 1277 is at   3.237611  2.218123  0.070558
      ESP Fit Center 1278 is at   4.196376  0.064701  0.070558
      ESP Fit Center 1279 is at   4.389518  0.481598 -0.314891
      ESP Fit Center 1280 is at   4.348120  0.901918 -0.314891
      ESP Fit Center 1281 is at   4.225517  1.306086 -0.314891
      ESP Fit Center 1282 is at   4.026421  1.678568 -0.314891
      ESP Fit Center 1283 is at   3.758482  2.005052 -0.314891
      ESP Fit Center 1284 is at   3.431998  2.272991 -0.314891
      ESP Fit Center 1285 is at   3.059516  2.472087 -0.314891
      ESP Fit Center 1286 is at   2.655348  2.594690 -0.314891
      ESP Fit Center 1287 is at   4.026421 -0.715372 -0.314891
      ESP Fit Center 1288 is at   4.225517 -0.342889 -0.314891
      ESP Fit Center 1289 is at   4.348120  0.061278 -0.314891
      ESP Fit Center 1290 is at   4.465473  0.481598 -0.721215
      ESP Fit Center 1291 is at   4.425166  0.903713 -0.721215
      ESP Fit Center 1292 is at   4.305701  1.310571 -0.721215
      ESP Fit Center 1293 is at   4.111398  1.687468 -0.721215
      ESP Fit Center 1294 is at   3.849277  2.020781 -0.721215
      ESP Fit Center 1295 is at   3.528813  2.298465 -0.721215
      ESP Fit Center 1296 is at   3.161588  2.510482 -0.721215
      ESP Fit Center 1297 is at   2.760875  2.649170 -0.721215
      ESP Fit Center 1298 is at   2.341157  2.709516 -0.721215
      ESP Fit Center 1299 is at   3.849277 -1.057585 -0.721215
      ESP Fit Center 1300 is at   4.111398 -0.724271 -0.721215
      ESP Fit Center 1301 is at   4.305701 -0.347374 -0.721215
      ESP Fit Center 1302 is at   4.425166  0.059484 -0.721215
      ESP Fit Center 1303 is at   4.465473  0.481598 -1.134577
      ESP Fit Center 1304 is at   4.425166  0.903713 -1.134577
      ESP Fit Center 1305 is at   4.305701  1.310571 -1.134577
      ESP Fit Center 1306 is at   4.111398  1.687468 -1.134577
      ESP Fit Center 1307 is at   3.849277  2.020781 -1.134577
      ESP Fit Center 1308 is at   3.528813  2.298465 -1.134577
      ESP Fit Center 1309 is at   3.161588  2.510482 -1.134577
      ESP Fit Center 1310 is at   2.760875  2.649170 -1.134577
      ESP Fit Center 1311 is at   2.341157  2.709516 -1.134577
      ESP Fit Center 1312 is at   1.917603  2.689340 -1.134577
      ESP Fit Center 1313 is at   3.528813 -1.335268 -1.134577
      ESP Fit Center 1314 is at   3.849277 -1.057585 -1.134577
      ESP Fit Center 1315 is at   4.111398 -0.724271 -1.134577
      ESP Fit Center 1316 is at   4.305701 -0.347374 -1.134577
      ESP Fit Center 1317 is at   4.425166  0.059484 -1.134577
      ESP Fit Center 1318 is at   4.389518  0.481598 -1.540901
      ESP Fit Center 1319 is at   4.348120  0.901918 -1.540901
      ESP Fit Center 1320 is at   4.225517  1.306086 -1.540901
      ESP Fit Center 1321 is at   4.026421  1.678568 -1.540901
      ESP Fit Center 1322 is at   3.758482  2.005052 -1.540901
      ESP Fit Center 1323 is at   3.431998  2.272991 -1.540901
      ESP Fit Center 1324 is at   3.059516  2.472087 -1.540901
      ESP Fit Center 1325 is at   2.655348  2.594690 -1.540901
      ESP Fit Center 1326 is at   2.235028  2.636088 -1.540901
      ESP Fit Center 1327 is at   1.814708  2.594690 -1.540901
      ESP Fit Center 1328 is at   3.431998 -1.309794 -1.540901
      ESP Fit Center 1329 is at   3.758482 -1.041856 -1.540901
      ESP Fit Center 1330 is at   4.026421 -0.715372 -1.540901
      ESP Fit Center 1331 is at   4.225517 -0.342889 -1.540901
      ESP Fit Center 1332 is at   4.348120  0.061278 -1.540901
      ESP Fit Center 1333 is at   4.240194  0.481598 -1.926350
      ESP Fit Center 1334 is at   4.196376  0.898496 -1.926350
      ESP Fit Center 1335 is at   4.066838  1.297173 -1.926350
      ESP Fit Center 1336 is at   3.857241  1.660205 -1.926350
      ESP Fit Center 1337 is at   3.576746  1.971727 -1.926350
      ESP Fit Center 1338 is at   3.237611  2.218123 -1.926350
      ESP Fit Center 1339 is at   2.854658  2.388624 -1.926350
      ESP Fit Center 1340 is at   2.444625  2.475779 -1.926350
      ESP Fit Center 1341 is at   2.025431  2.475779 -1.926350
      ESP Fit Center 1342 is at   1.615398  2.388624 -1.926350
      ESP Fit Center 1343 is at   2.854658 -1.425428 -1.926350
      ESP Fit Center 1344 is at   3.237611 -1.254926 -1.926350
      ESP Fit Center 1345 is at   3.576746 -1.008530 -1.926350
      ESP Fit Center 1346 is at   3.857241 -0.697009 -1.926350
      ESP Fit Center 1347 is at   4.066838 -0.333976 -1.926350
      ESP Fit Center 1348 is at   4.196376  0.064701 -1.926350
      ESP Fit Center 1349 is at   4.022587  0.481598 -2.277798
      ESP Fit Center 1350 is at   3.974403  0.893838 -2.277798
      ESP Fit Center 1351 is at   3.832449  1.283853 -2.277798
      ESP Fit Center 1352 is at   3.604377  1.630619 -2.277798
      ESP Fit Center 1353 is at   3.302484  1.915440 -2.277798
      ESP Fit Center 1354 is at   2.943044  2.122963 -2.277798
      ESP Fit Center 1355 is at   2.545434  2.242000 -2.277798
      ESP Fit Center 1356 is at   2.131091  2.266132 -2.277798
      ESP Fit Center 1357 is at   1.722351  2.194061 -2.277798
      ESP Fit Center 1358 is at   1.341249  2.029669 -2.277798
      ESP Fit Center 1359 is at   2.545434 -1.278803 -2.277798
      ESP Fit Center 1360 is at   2.943044 -1.159767 -2.277798
      ESP Fit Center 1361 is at   3.302484 -0.952244 -2.277798
      ESP Fit Center 1362 is at   3.604377 -0.667422 -2.277798
      ESP Fit Center 1363 is at   3.832449 -0.320657 -2.277798
      ESP Fit Center 1364 is at   3.974403  0.069359 -2.277798
      ESP Fit Center 1365 is at   3.744106  0.481598 -2.583276
      ESP Fit Center 1366 is at   3.682978  0.906755 -2.583276
      ESP Fit Center 1367 is at   3.504546  1.297467 -2.583276
      ESP Fit Center 1368 is at   3.223264  1.622083 -2.583276
      ESP Fit Center 1369 is at   2.861922  1.854304 -2.583276
      ESP Fit Center 1370 is at   2.449792  1.975316 -2.583276
      ESP Fit Center 1371 is at   2.020264  1.975316 -2.583276
      ESP Fit Center 1372 is at   1.608134  1.854304 -2.583276
      ESP Fit Center 1373 is at   1.246792  1.622083 -2.583276
      ESP Fit Center 1374 is at   2.449792 -1.012120 -2.583276
      ESP Fit Center 1375 is at   2.861922 -0.891108 -2.583276
      ESP Fit Center 1376 is at   3.223264 -0.658887 -2.583276
      ESP Fit Center 1377 is at   3.504546 -0.334271 -2.583276
      ESP Fit Center 1378 is at   3.682978  0.056442 -2.583276
      ESP Fit Center 1379 is at   3.414236  0.481598 -2.832382
      ESP Fit Center 1380 is at   3.334607  0.907577 -2.832382
      ESP Fit Center 1381 is at   3.106473  1.276025 -2.832382
      ESP Fit Center 1382 is at   2.760646  1.537182 -2.832382
      ESP Fit Center 1383 is at   2.343832  1.655776 -2.832382
      ESP Fit Center 1384 is at   1.912323  1.615791 -2.832382
      ESP Fit Center 1385 is at   1.524397  1.422626 -2.832382
      ESP Fit Center 1386 is at   1.232445  1.102371 -2.832382
      ESP Fit Center 1387 is at   1.912323 -0.652594 -2.832382
      ESP Fit Center 1388 is at   2.343832 -0.692580 -2.832382
      ESP Fit Center 1389 is at   2.760646 -0.573986 -2.832382
      ESP Fit Center 1390 is at   3.106473 -0.312829 -2.832382
      ESP Fit Center 1391 is at   3.334607  0.055619 -2.832382
      ESP Fit Center 1392 is at   3.044209  0.481598 -3.016634
      ESP Fit Center 1393 is at   2.935800  0.886189 -3.016634
      ESP Fit Center 1394 is at   2.639619  1.182370 -3.016634
      ESP Fit Center 1395 is at   2.235028  1.290779 -3.016634
      ESP Fit Center 1396 is at   1.830437  1.182370 -3.016634
      ESP Fit Center 1397 is at   1.534257  0.886189 -3.016634
      ESP Fit Center 1398 is at   1.425847  0.481598 -3.016634
      ESP Fit Center 1399 is at   1.534257  0.077007 -3.016634
      ESP Fit Center 1400 is at   1.830437 -0.219173 -3.016634
      ESP Fit Center 1401 is at   2.235028 -0.327583 -3.016634
      ESP Fit Center 1402 is at   2.639619 -0.219173 -3.016634
      ESP Fit Center 1403 is at   2.935800  0.077007 -3.016634
      ESP Fit Center 1404 is at   2.646627  0.481598 -3.129756
      ESP Fit Center 1405 is at   2.440828  0.838053 -3.129756
      ESP Fit Center 1406 is at   2.029229  0.838053 -3.129756
      ESP Fit Center 1407 is at   1.823429  0.481598 -3.129756
      ESP Fit Center 1408 is at   2.029229  0.125143 -3.129756
      ESP Fit Center 1409 is at   2.440828  0.125143 -3.129756
      ESP Fit Center 1410 is at   2.235028  0.481598 -3.167896
      ESP Fit Center 1411 is at  -0.105745  2.360549 -1.235330
      ESP Fit Center 1412 is at   0.317560 -2.342758 -1.235330
      ESP Fit Center 1413 is at   0.107604  2.252098 -1.639423
      ESP Fit Center 1414 is at  -0.320662  2.231697 -1.639423
      ESP Fit Center 1415 is at   0.107604 -2.253318 -1.639423
      ESP Fit Center 1416 is at   0.531993 -2.192300 -1.639423
      ESP Fit Center 1417 is at   0.315032  2.053883 -2.018575
      ESP Fit Center 1418 is at  -0.104978  2.075183 -2.018575
      ESP Fit Center 1419 is at  -0.520677  2.011501 -2.018575
      ESP Fit Center 1420 is at  -0.104978 -2.076403 -2.018575
      ESP Fit Center 1421 is at   0.315032 -2.055103 -2.018575
      ESP Fit Center 1422 is at   0.722155 -1.949691 -2.018575
      ESP Fit Center 1423 is at   0.319548  1.809966 -2.361265
      ESP Fit Center 1424 is at  -0.106605  1.834786 -2.361265
      ESP Fit Center 1425 is at  -0.526995  1.760660 -2.361265
      ESP Fit Center 1426 is at  -0.918959  1.591584 -2.361265
      ESP Fit Center 1427 is at  -0.526995 -1.761880 -2.361265
      ESP Fit Center 1428 is at  -0.106605 -1.836006 -2.361265
      ESP Fit Center 1429 is at   0.319548 -1.811186 -2.361265
      ESP Fit Center 1430 is at   0.728490 -1.688756 -2.361265
      ESP Fit Center 1431 is at   0.710033  1.369122 -2.657081
      ESP Fit Center 1432 is at   0.314164  1.509814 -2.657081
      ESP Fit Center 1433 is at  -0.104982  1.538484 -2.657081
      ESP Fit Center 1434 is at  -0.516321  1.453007 -2.657081
      ESP Fit Center 1435 is at  -0.889344  1.259722 -2.657081
      ESP Fit Center 1436 is at  -0.889344 -1.260941 -2.657081
      ESP Fit Center 1437 is at  -0.516321 -1.454227 -2.657081
      ESP Fit Center 1438 is at  -0.104982 -1.539704 -2.657081
      ESP Fit Center 1439 is at   0.314164 -1.511033 -2.657081
      ESP Fit Center 1440 is at   0.710033 -1.370342 -2.657081
      ESP Fit Center 1441 is at   1.053263 -1.128063 -2.657081
      ESP Fit Center 1442 is at   0.919548  0.770735 -2.897036
      ESP Fit Center 1443 is at   0.600295  1.038621 -2.897036
      ESP Fit Center 1444 is at   0.208673  1.181159 -2.897036
      ESP Fit Center 1445 is at  -0.208083  1.181159 -2.897036
      ESP Fit Center 1446 is at  -0.599705  1.038621 -2.897036
      ESP Fit Center 1447 is at  -0.918959  0.770735 -2.897036
      ESP Fit Center 1448 is at  -1.127336  0.409814 -2.897036
      ESP Fit Center 1449 is at  -0.918959 -0.771955 -2.897036
      ESP Fit Center 1450 is at  -0.599705 -1.039840 -2.897036
      ESP Fit Center 1451 is at  -0.208083 -1.182379 -2.897036
      ESP Fit Center 1452 is at   0.208673 -1.182379 -2.897036
      ESP Fit Center 1453 is at   0.600295 -1.039840 -2.897036
      ESP Fit Center 1454 is at   0.919548 -0.771955 -2.897036
      ESP Fit Center 1455 is at   1.127926 -0.411034 -2.897036
      ESP Fit Center 1456 is at   0.821143 -0.000610 -3.073837
      ESP Fit Center 1457 is at   0.711170  0.409814 -3.073837
      ESP Fit Center 1458 is at   0.410719  0.710266 -3.073837
      ESP Fit Center 1459 is at   0.000295  0.820238 -3.073837
      ESP Fit Center 1460 is at  -0.410129  0.710266 -3.073837
      ESP Fit Center 1461 is at  -0.710581  0.409814 -3.073837
      ESP Fit Center 1462 is at  -0.820554 -0.000610 -3.073837
      ESP Fit Center 1463 is at  -0.710581 -0.411034 -3.073837
      ESP Fit Center 1464 is at  -0.410129 -0.711485 -3.073837
      ESP Fit Center 1465 is at   0.000295 -0.821458 -3.073837
      ESP Fit Center 1466 is at   0.410719 -0.711485 -3.073837
      ESP Fit Center 1467 is at   0.711170 -0.411034 -3.073837
      ESP Fit Center 1468 is at   0.417050 -0.000610 -3.182113
      ESP Fit Center 1469 is at   0.208673  0.360311 -3.182113
      ESP Fit Center 1470 is at  -0.208083  0.360311 -3.182113
      ESP Fit Center 1471 is at  -0.416461 -0.000610 -3.182113
      ESP Fit Center 1472 is at  -0.208083 -0.361531 -3.182113
      ESP Fit Center 1473 is at   0.208673 -0.361531 -3.182113
      ESP Fit Center 1474 is at   0.000295 -0.000610 -3.218575
      ESP Fit Center 1475 is at  -2.681088  0.662501  2.188265
      ESP Fit Center 1476 is at  -2.946980  0.855717  1.927342
      ESP Fit Center 1477 is at  -3.119899  0.481957  1.927342
      ESP Fit Center 1478 is at  -3.208429  0.079764  1.927342
      ESP Fit Center 1479 is at  -3.260884  0.876969  1.620568
      ESP Fit Center 1480 is at  -3.415562  0.490601  1.620568
      ESP Fit Center 1481 is at  -3.494325  0.081943  1.620568
      ESP Fit Center 1482 is at  -3.494325 -0.334237  1.620568
      ESP Fit Center 1483 is at  -3.524721  0.872660  1.274796
      ESP Fit Center 1484 is at  -3.661737  0.484867  1.274796
      ESP Fit Center 1485 is at  -3.731245  0.079496  1.274796
      ESP Fit Center 1486 is at  -3.731245 -0.331791  1.274796
      ESP Fit Center 1487 is at  -3.661737 -0.737162  1.274796
      ESP Fit Center 1488 is at  -3.524721 -1.124955  1.274796
      ESP Fit Center 1489 is at  -3.637470  1.057155  0.897751
      ESP Fit Center 1490 is at  -3.793987  0.679289  0.897751
      ESP Fit Center 1491 is at  -3.889466  0.281591  0.897751
      ESP Fit Center 1492 is at  -3.921556 -0.126147  0.897751
      ESP Fit Center 1493 is at  -3.889466 -0.533885  0.897751
      ESP Fit Center 1494 is at  -3.793987 -0.931583  0.897751
      ESP Fit Center 1495 is at  -3.637470 -1.309449  0.897751
      ESP Fit Center 1496 is at  -3.423769 -1.658178  0.897751
      ESP Fit Center 1497 is at  -3.158145 -1.969183  0.897751
      ESP Fit Center 1498 is at  -3.847004  0.894298  0.497855
      ESP Fit Center 1499 is at  -3.973101  0.495847  0.497855
      ESP Fit Center 1500 is at  -4.036898  0.082817  0.497855
      ESP Fit Center 1501 is at  -4.036898 -0.335111  0.497855
      ESP Fit Center 1502 is at  -3.973101 -0.748141  0.497855
      ESP Fit Center 1503 is at  -3.847004 -1.146592  0.497855
      ESP Fit Center 1504 is at  -3.661561 -1.521125  0.497855
      ESP Fit Center 1505 is at  -3.421119 -1.862961  0.497855
      ESP Fit Center 1506 is at  -3.131314 -2.164087  0.497855
      ESP Fit Center 1507 is at  -2.798939 -2.417445  0.497855
      ESP Fit Center 1508 is at  -2.431784 -2.617098  0.497855
      ESP Fit Center 1509 is at  -3.830768  1.085330  0.084041
      ESP Fit Center 1510 is at  -3.983232  0.696860  0.084041
      ESP Fit Center 1511 is at  -3.055999 -2.309154  0.084041
      ESP Fit Center 1512 is at  -2.711195 -2.544238  0.084041
      ESP Fit Center 1513 is at  -2.335204 -2.725306  0.084041
      ESP Fit Center 1514 is at  -1.936426 -2.848312  0.084041
      ESP Fit Center 1515 is at  -1.523769 -2.910510  0.084041
      ESP Fit Center 1516 is at  -1.106450 -2.910510  0.084041
      ESP Fit Center 1517 is at  -0.693793 -2.848312  0.084041
      ESP Fit Center 1518 is at  -0.295015 -2.725306  0.084041
      ESP Fit Center 1519 is at  -3.622109  1.446739 -0.334448
      ESP Fit Center 1520 is at  -3.830768  1.085330 -0.334448
      ESP Fit Center 1521 is at  -2.335204 -2.725306 -0.334448
      ESP Fit Center 1522 is at  -1.936426 -2.848312 -0.334448
      ESP Fit Center 1523 is at  -1.523769 -2.910510 -0.334448
      ESP Fit Center 1524 is at  -1.106450 -2.910510 -0.334448
      ESP Fit Center 1525 is at  -0.693793 -2.848312 -0.334448
      ESP Fit Center 1526 is at  -0.295015 -2.725306 -0.334448
      ESP Fit Center 1527 is at  -3.421119  1.610666 -0.748262
      ESP Fit Center 1528 is at  -3.661561  1.268831 -0.748262
      ESP Fit Center 1529 is at  -2.038455 -2.758365 -0.748262
      ESP Fit Center 1530 is at  -1.628172 -2.837934 -0.748262
      ESP Fit Center 1531 is at  -1.210551 -2.853942 -0.748262
      ESP Fit Center 1532 is at  -0.795380 -2.806013 -0.748262
      ESP Fit Center 1533 is at  -0.392392 -2.695270 -0.748262
      ESP Fit Center 1534 is at  -0.011031 -2.524308 -0.748262
      ESP Fit Center 1535 is at  -3.158145  1.716889 -1.148159
      ESP Fit Center 1536 is at  -3.423769  1.405884 -1.148159
      ESP Fit Center 1537 is at  -1.722847 -2.700504 -1.148159
      ESP Fit Center 1538 is at  -1.315109 -2.732594 -1.148159
      ESP Fit Center 1539 is at  -0.907371 -2.700504 -1.148159
      ESP Fit Center 1540 is at  -0.509673 -2.605025 -1.148159
      ESP Fit Center 1541 is at  -0.131807 -2.448508 -1.148159
      ESP Fit Center 1542 is at  -0.804239  2.244298 -1.525204
      ESP Fit Center 1543 is at  -2.406795  2.039083 -1.525204
      ESP Fit Center 1544 is at  -2.757018  1.823442 -1.525204
      ESP Fit Center 1545 is at  -3.065760  1.551715 -1.525204
      ESP Fit Center 1546 is at  -1.212195 -2.548833 -1.525204
      ESP Fit Center 1547 is at  -0.804239 -2.496593 -1.525204
      ESP Fit Center 1548 is at  -0.410980 -2.376159 -1.525204
      ESP Fit Center 1549 is at  -1.210946  2.060501 -1.870975
      ESP Fit Center 1550 is at  -1.626655  2.040699 -1.870975
      ESP Fit Center 1551 is at  -2.031103  1.942581 -1.870975
      ESP Fit Center 1552 is at  -2.409673  1.769693 -1.870975
      ESP Fit Center 1553 is at  -2.748683  1.528285 -1.870975
      ESP Fit Center 1554 is at  -1.210946 -2.312796 -1.870975
      ESP Fit Center 1555 is at  -0.799003 -2.253567 -1.870975
      ESP Fit Center 1556 is at  -1.212003  1.775543 -2.177749
      ESP Fit Center 1557 is at  -1.623221  1.753248 -2.177749
      ESP Fit Center 1558 is at  -2.020031  1.643074 -2.177749
      ESP Fit Center 1559 is at  -2.383881  1.450173 -2.177749
      ESP Fit Center 1560 is at  -0.805606 -1.961212 -2.177749
      ESP Fit Center 1561 is at  -1.315109  1.451149 -2.438672
      ESP Fit Center 1562 is at  -1.723344  1.397404 -2.438672
      ESP Fit Center 1563 is at  -2.103757  1.239831 -2.438672
      ESP Fit Center 1564 is at  -0.906875 -1.649698 -2.438672
      ESP Fit Center 1565 is at  -1.526070  1.070271 -2.647916
      ESP Fit Center 1566 is at  -1.922547  0.925965 -2.647916
      ESP Fit Center 1567 is at  -1.315109  0.699167 -2.800808
      ESP Fit Center 1568 is at  -1.106450 -0.487555 -2.893930
      ESP Fit Center 1569 is at  -1.529461  1.376146  2.539330
      ESP Fit Center 1570 is at  -1.108066  1.376146  2.497826
      ESP Fit Center 1571 is at  -1.318763  1.741085  2.497826
      ESP Fit Center 1572 is at  -1.740159  1.741085  2.497826
      ESP Fit Center 1573 is at  -1.950856  1.376146  2.497826
      ESP Fit Center 1574 is at  -1.740159  1.011207  2.497826
      ESP Fit Center 1575 is at  -1.318763  1.011207  2.497826
      ESP Fit Center 1576 is at  -0.702865  1.376146  2.374910
      ESP Fit Center 1577 is at  -0.813608  1.789444  2.374910
      ESP Fit Center 1578 is at  -1.116163  2.091999  2.374910
      ESP Fit Center 1579 is at  -1.529461  2.202742  2.374910
      ESP Fit Center 1580 is at  -1.942759  2.091999  2.374910
      ESP Fit Center 1581 is at  -2.245314  1.789444  2.374910
      ESP Fit Center 1582 is at  -2.356057  1.376146  2.374910
      ESP Fit Center 1583 is at  -2.245314  0.962848  2.374910
      ESP Fit Center 1584 is at  -0.610183  2.147512  2.175304
      ESP Fit Center 1585 is at  -0.929445  2.415404  2.175304
      ESP Fit Center 1586 is at  -1.321078  2.557947  2.175304
      ESP Fit Center 1587 is at  -1.737844  2.557947  2.175304
      ESP Fit Center 1588 is at  -2.129477  2.415404  2.175304
      ESP Fit Center 1589 is at  -2.448739  2.147512  2.175304
      ESP Fit Center 1590 is at  -2.657122  1.786581  2.175304
      ESP Fit Center 1591 is at  -2.729493  1.376146  2.175304
      ESP Fit Center 1592 is at  -2.657122  0.965711  2.175304
      ESP Fit Center 1593 is at  -0.486963  2.492389  1.906681
      ESP Fit Center 1594 is at  -0.826780  2.732258  1.906681
      ESP Fit Center 1595 is at  -1.218712  2.871551  1.906681
      ESP Fit Center 1596 is at  -1.633691  2.899936  1.906681
      ESP Fit Center 1597 is at  -2.040940  2.815309  1.906681
      ESP Fit Center 1598 is at  -2.410254  2.623946  1.906681
      ESP Fit Center 1599 is at  -2.714244  2.340039  1.906681
      ESP Fit Center 1600 is at  -2.930364  1.984644  1.906681
      ESP Fit Center 1601 is at  -3.042586  1.584120  1.906681
      ESP Fit Center 1602 is at  -3.042586  1.168172  1.906681
      ESP Fit Center 1603 is at  -0.153665  2.530576  1.579362
      ESP Fit Center 1604 is at  -0.456979  2.816739  1.579362
      ESP Fit Center 1605 is at  -0.818112  3.025239  1.579362
      ESP Fit Center 1606 is at  -1.217593  3.144836  1.579362
      ESP Fit Center 1607 is at  -1.633888  3.169082  1.579362
      ESP Fit Center 1608 is at  -2.044552  3.096671  1.579362
      ESP Fit Center 1609 is at  -2.427448  2.931506  1.579362
      ESP Fit Center 1610 is at  -2.761933  2.682491  1.579362
      ESP Fit Center 1611 is at  -3.029976  2.363050  1.579362
      ESP Fit Center 1612 is at  -3.217125  1.990406  1.579362
      ESP Fit Center 1613 is at  -3.313292  1.584646  1.579362
      ESP Fit Center 1614 is at  -3.313292  1.167646  1.579362
      ESP Fit Center 1615 is at  -0.194157  2.859151  1.205926
      ESP Fit Center 1616 is at  -0.531671  3.104369  1.205926
      ESP Fit Center 1617 is at  -0.912793  3.274055  1.205926
      ESP Fit Center 1618 is at  -1.320866  3.360794  1.205926
      ESP Fit Center 1619 is at  -1.738056  3.360794  1.205926
      ESP Fit Center 1620 is at  -2.146129  3.274055  1.205926
      ESP Fit Center 1621 is at  -2.527251  3.104369  1.205926
      ESP Fit Center 1622 is at  -2.864764  2.859151  1.205926
      ESP Fit Center 1623 is at  -3.143919  2.549119  1.205926
      ESP Fit Center 1624 is at  -3.352514  2.187822  1.205926
      ESP Fit Center 1625 is at  -3.481433  1.791051  1.205926
      ESP Fit Center 1626 is at  -3.525041  1.376146  1.205926
      ESP Fit Center 1627 is at  -0.031458  2.874149  0.800725
      ESP Fit Center 1628 is at  -0.352488  3.137611  0.800725
      ESP Fit Center 1629 is at  -0.718748  3.333381  0.800725
      ESP Fit Center 1630 is at  -1.116163  3.453936  0.800725
      ESP Fit Center 1631 is at  -1.529461  3.494642  0.800725
      ESP Fit Center 1632 is at  -1.942759  3.453936  0.800725
      ESP Fit Center 1633 is at  -2.340174  3.333381  0.800725
      ESP Fit Center 1634 is at  -2.706434  3.137611  0.800725
      ESP Fit Center 1635 is at  -3.027464  2.874149  0.800725
      ESP Fit Center 1636 is at  -3.290926  2.553120  0.800725
      ESP Fit Center 1637 is at  -3.486696  2.186860  0.800725
      ESP Fit Center 1638 is at  -3.607251  1.789444  0.800725
      ESP Fit Center 1639 is at  -3.647957  1.376146  0.800725
      ESP Fit Center 1640 is at   0.033805  2.866717  0.379330
      ESP Fit Center 1641 is at  -0.276538  3.135630  0.379330
      ESP Fit Center 1642 is at  -0.632165  3.340951  0.379330
      ESP Fit Center 1643 is at  -1.020222  3.475259  0.379330
      ESP Fit Center 1644 is at  -1.426684  3.533700  0.379330
      ESP Fit Center 1645 is at  -1.836861  3.514160  0.379330
      ESP Fit Center 1646 is at  -2.235928  3.417348  0.379330
      ESP Fit Center 1647 is at  -2.609461  3.246761  0.379330
      ESP Fit Center 1648 is at  -2.943960  3.008565  0.379330
      ESP Fit Center 1649 is at  -3.227336  2.711370  0.379330
      ESP Fit Center 1650 is at  -3.449346  2.365915  0.379330
      ESP Fit Center 1651 is at  -3.601966  1.984688  0.379330
      ESP Fit Center 1652 is at  -3.679680  1.581467  0.379330
      ESP Fit Center 1653 is at  -0.031458  2.874149 -0.042065
      ESP Fit Center 1654 is at  -0.352488  3.137611 -0.042065
      ESP Fit Center 1655 is at  -0.718748  3.333381 -0.042065
      ESP Fit Center 1656 is at  -1.116163  3.453936 -0.042065
      ESP Fit Center 1657 is at  -1.529461  3.494642 -0.042065
      ESP Fit Center 1658 is at  -1.942759  3.453936 -0.042065
      ESP Fit Center 1659 is at  -2.340174  3.333381 -0.042065
      ESP Fit Center 1660 is at  -2.706434  3.137611 -0.042065
      ESP Fit Center 1661 is at  -3.027464  2.874149 -0.042065
      ESP Fit Center 1662 is at  -3.290926  2.553120 -0.042065
      ESP Fit Center 1663 is at  -3.486696  2.186860 -0.042065
      ESP Fit Center 1664 is at  -3.607251  1.789444 -0.042065
      ESP Fit Center 1665 is at  -0.194157  2.859151 -0.447266
      ESP Fit Center 1666 is at  -0.531671  3.104369 -0.447266
      ESP Fit Center 1667 is at  -0.912793  3.274055 -0.447266
      ESP Fit Center 1668 is at  -1.320866  3.360794 -0.447266
      ESP Fit Center 1669 is at  -1.738056  3.360794 -0.447266
      ESP Fit Center 1670 is at  -2.146129  3.274055 -0.447266
      ESP Fit Center 1671 is at  -2.527251  3.104369 -0.447266
      ESP Fit Center 1672 is at  -2.864764  2.859151 -0.447266
      ESP Fit Center 1673 is at  -3.143919  2.549119 -0.447266
      ESP Fit Center 1674 is at  -3.352514  2.187822 -0.447266
      ESP Fit Center 1675 is at  -3.481433  1.791051 -0.447266
      ESP Fit Center 1676 is at  -0.153665  2.530576 -0.820702
      ESP Fit Center 1677 is at  -0.456979  2.816739 -0.820702
      ESP Fit Center 1678 is at  -0.818112  3.025239 -0.820702
      ESP Fit Center 1679 is at  -1.217593  3.144836 -0.820702
      ESP Fit Center 1680 is at  -1.633888  3.169082 -0.820702
      ESP Fit Center 1681 is at  -2.044552  3.096671 -0.820702
      ESP Fit Center 1682 is at  -2.427448  2.931506 -0.820702
      ESP Fit Center 1683 is at  -2.761933  2.682491 -0.820702
      ESP Fit Center 1684 is at  -3.029976  2.363050 -0.820702
      ESP Fit Center 1685 is at  -3.217125  1.990406 -0.820702
      ESP Fit Center 1686 is at  -0.486963  2.492389 -1.148021
      ESP Fit Center 1687 is at  -0.826780  2.732258 -1.148021
      ESP Fit Center 1688 is at  -1.218712  2.871551 -1.148021
      ESP Fit Center 1689 is at  -1.633691  2.899936 -1.148021
      ESP Fit Center 1690 is at  -2.040940  2.815309 -1.148021
      ESP Fit Center 1691 is at  -2.410254  2.623946 -1.148021
      ESP Fit Center 1692 is at  -2.714244  2.340039 -1.148021
      ESP Fit Center 1693 is at  -2.930364  1.984644 -1.148021
      ESP Fit Center 1694 is at  -0.929445  2.415404 -1.416644
      ESP Fit Center 1695 is at  -1.321078  2.557947 -1.416644
      ESP Fit Center 1696 is at  -1.737844  2.557947 -1.416644
      ESP Fit Center 1697 is at  -2.129477  2.415404 -1.416644
      ESP Fit Center 1698 is at  -2.448739  2.147512 -1.416644
      ESP Fit Center 1699 is at  -1.253547 -0.763615  3.348630
      ESP Fit Center 1700 is at  -0.841948 -0.763615  3.310489
      ESP Fit Center 1701 is at  -1.047747 -0.407160  3.310489
      ESP Fit Center 1702 is at  -1.459346 -0.407160  3.310489
      ESP Fit Center 1703 is at  -1.665145 -0.763615  3.310489
      ESP Fit Center 1704 is at  -1.459346 -1.120070  3.310489
      ESP Fit Center 1705 is at  -1.047747 -1.120070  3.310489
      ESP Fit Center 1706 is at  -0.444365 -0.763615  3.197367
      ESP Fit Center 1707 is at  -0.552775 -0.359025  3.197367
      ESP Fit Center 1708 is at  -0.848956 -0.062844  3.197367
      ESP Fit Center 1709 is at  -1.253547  0.045566  3.197367
      ESP Fit Center 1710 is at  -1.658137 -0.062844  3.197367
      ESP Fit Center 1711 is at  -1.954318 -0.359025  3.197367
      ESP Fit Center 1712 is at  -2.062728 -0.763615  3.197367
      ESP Fit Center 1713 is at  -1.954318 -1.168206  3.197367
      ESP Fit Center 1714 is at  -1.658137 -1.464387  3.197367
      ESP Fit Center 1715 is at  -1.253547 -1.572797  3.197367
      ESP Fit Center 1716 is at  -0.848956 -1.464387  3.197367
      ESP Fit Center 1717 is at  -0.552775 -1.168206  3.197367
      ESP Fit Center 1718 is at  -0.074338 -0.763615  3.013116
      ESP Fit Center 1719 is at  -0.153968 -0.337636  3.013116
      ESP Fit Center 1720 is at  -0.382101  0.030812  3.013116
      ESP Fit Center 1721 is at  -0.727928  0.291968  3.013116
      ESP Fit Center 1722 is at  -1.144743  0.410562  3.013116
      ESP Fit Center 1723 is at  -1.576252  0.370577  3.013116
      ESP Fit Center 1724 is at  -1.964178  0.177413  3.013116
      ESP Fit Center 1725 is at  -2.256129 -0.142842  3.013116
      ESP Fit Center 1726 is at  -2.412676 -0.546936  3.013116
      ESP Fit Center 1727 is at  -2.412676 -0.980294  3.013116
      ESP Fit Center 1728 is at  -2.256129 -1.384388  3.013116
      ESP Fit Center 1729 is at  -1.964178 -1.704644  3.013116
      ESP Fit Center 1730 is at  -1.576252 -1.897808  3.013116
      ESP Fit Center 1731 is at  -1.144743 -1.937793  3.013116
      ESP Fit Center 1732 is at  -0.727928 -1.819199  3.013116
      ESP Fit Center 1733 is at  -0.382101 -1.558043  3.013116
      ESP Fit Center 1734 is at  -0.153968 -1.189594  3.013116
      ESP Fit Center 1735 is at   0.255532 -0.763615  2.764010
      ESP Fit Center 1736 is at   0.194403 -0.338459  2.764010
      ESP Fit Center 1737 is at  -0.265310  0.376870  2.764010
      ESP Fit Center 1738 is at  -0.626653  0.609091  2.764010
      ESP Fit Center 1739 is at  -1.038782  0.730103  2.764010
      ESP Fit Center 1740 is at  -1.468311  0.730103  2.764010
      ESP Fit Center 1741 is at  -1.880440  0.609091  2.764010
      ESP Fit Center 1742 is at  -2.241783  0.376870  2.764010
      ESP Fit Center 1743 is at  -2.523064  0.052254  2.764010
      ESP Fit Center 1744 is at  -2.701496 -0.338459  2.764010
      ESP Fit Center 1745 is at  -2.762625 -0.763615  2.764010
      ESP Fit Center 1746 is at  -2.701496 -1.188772  2.764010
      ESP Fit Center 1747 is at  -2.523064 -1.579485  2.764010
      ESP Fit Center 1748 is at  -2.241783 -1.904101  2.764010
      ESP Fit Center 1749 is at  -1.880440 -2.136321  2.764010
      ESP Fit Center 1750 is at  -1.468311 -2.257333  2.764010
      ESP Fit Center 1751 is at  -1.038782 -2.257333  2.764010
      ESP Fit Center 1752 is at  -0.626653 -2.136321  2.764010
      ESP Fit Center 1753 is at  -0.265310 -1.904101  2.764010
      ESP Fit Center 1754 is at   0.015971 -1.579485  2.764010
      ESP Fit Center 1755 is at   0.194403 -1.188772  2.764010
      ESP Fit Center 1756 is at  -0.545531  0.877750  2.458531
      ESP Fit Center 1757 is at  -0.943140  0.996786  2.458531
      ESP Fit Center 1758 is at  -2.147326  0.784456  2.458531
      ESP Fit Center 1759 is at  -2.480244  0.536608  2.458531
      ESP Fit Center 1760 is at  -2.747030  0.218664  2.458531
      ESP Fit Center 1761 is at  -2.933302 -0.152234  2.458531
      ESP Fit Center 1762 is at  -3.029018 -0.556092  2.458531
      ESP Fit Center 1763 is at  -3.029018 -0.971138  2.458531
      ESP Fit Center 1764 is at  -2.933302 -1.374996  2.458531
      ESP Fit Center 1765 is at  -2.747030 -1.745895  2.458531
      ESP Fit Center 1766 is at  -2.480244 -2.063838  2.458531
      ESP Fit Center 1767 is at  -2.147326 -2.311686  2.458531
      ESP Fit Center 1768 is at  -1.766224 -2.476078  2.458531
      ESP Fit Center 1769 is at  -1.357484 -2.548150  2.458531
      ESP Fit Center 1770 is at  -0.943140 -2.524017  2.458531
      ESP Fit Center 1771 is at  -0.545531 -2.404980  2.458531
      ESP Fit Center 1772 is at  -0.186091 -2.197458  2.458531
      ESP Fit Center 1773 is at   0.115803 -1.912636  2.458531
      ESP Fit Center 1774 is at   0.343874 -1.565870  2.458531
      ESP Fit Center 1775 is at   0.485828 -1.175855  2.458531
      ESP Fit Center 1776 is at  -3.085357  0.051959  2.107083
      ESP Fit Center 1777 is at  -3.214895 -0.346718  2.107083
      ESP Fit Center 1778 is at  -3.258712 -0.763615  2.107083
      ESP Fit Center 1779 is at  -3.214895 -1.180513  2.107083
      ESP Fit Center 1780 is at  -3.085357 -1.579190  2.107083
      ESP Fit Center 1781 is at  -2.875760 -1.942222  2.107083
      ESP Fit Center 1782 is at  -2.595264 -2.253744  2.107083
      ESP Fit Center 1783 is at  -2.256129 -2.500140  2.107083
      ESP Fit Center 1784 is at  -1.873177 -2.670641  2.107083
      ESP Fit Center 1785 is at  -1.463143 -2.757797  2.107083
      ESP Fit Center 1786 is at  -1.043950 -2.757797  2.107083
      ESP Fit Center 1787 is at  -0.633916 -2.670641  2.107083
      ESP Fit Center 1788 is at  -0.250964 -2.500140  2.107083
      ESP Fit Center 1789 is at   0.088171 -2.253744  2.107083
      ESP Fit Center 1790 is at  -3.408036 -0.763615  1.721635
      ESP Fit Center 1791 is at  -3.366638 -1.183935  1.721635
      ESP Fit Center 1792 is at  -3.244035 -1.588103  1.721635
      ESP Fit Center 1793 is at  -3.044939 -1.960586  1.721635
      ESP Fit Center 1794 is at  -2.777001 -2.287069  1.721635
      ESP Fit Center 1795 is at  -2.450517 -2.555008  1.721635
      ESP Fit Center 1796 is at  -2.078034 -2.754104  1.721635
      ESP Fit Center 1797 is at  -1.673867 -2.876707  1.721635
      ESP Fit Center 1798 is at  -1.253547 -2.918105  1.721635
      ESP Fit Center 1799 is at  -0.833226 -2.876707  1.721635
      ESP Fit Center 1800 is at  -0.429059 -2.754104  1.721635
      ESP Fit Center 1801 is at  -0.056576 -2.555008  1.721635
      ESP Fit Center 1802 is at  -3.393642 -1.392004  1.315311
      ESP Fit Center 1803 is at  -3.236045 -1.785664  1.315311
      ESP Fit Center 1804 is at  -3.006794 -2.142385  1.315311
      ESP Fit Center 1805 is at  -2.714177 -2.449273  1.315311
      ESP Fit Center 1806 is at  -2.368769 -2.695237  1.315311
      ESP Fit Center 1807 is at  -1.983053 -2.871387  1.315311
      ESP Fit Center 1808 is at  -1.570972 -2.971357  1.315311
      ESP Fit Center 1809 is at  -1.147418 -2.991534  1.315311
      ESP Fit Center 1810 is at  -0.727699 -2.931187  1.315311
      ESP Fit Center 1811 is at  -0.326986 -2.792499  1.315311
      ESP Fit Center 1812 is at  -3.006794 -2.142385  0.901948
      ESP Fit Center 1813 is at  -2.714177 -2.449273  0.901948
      ESP Fit Center 1814 is at  -2.368769 -2.695237  0.901948
      ESP Fit Center 1815 is at  -1.983053 -2.871387  0.901948
      ESP Fit Center 1816 is at  -1.570972 -2.971357  0.901948
      ESP Fit Center 1817 is at  -1.147418 -2.991534  0.901948
      ESP Fit Center 1818 is at  -0.727699 -2.931187  0.901948
      ESP Fit Center 1819 is at  -0.326986 -2.792499  0.901948
      ESP Fit Center 1820 is at  -2.078034 -2.754104  0.495624
      ESP Fit Center 1821 is at  -1.673867 -2.876707  0.495624
      ESP Fit Center 1822 is at  -1.253547 -2.918105  0.495624
      ESP Fit Center 1823 is at  -0.833226 -2.876707  0.495624
      ESP Fit Center 1824 is at  -0.429059 -2.754104  0.495624
      ESP Fit Center 1825 is at  -4.010490 -0.690140  0.422964
      ESP Fit Center 1826 is at  -3.914774 -1.093999  0.422964
      ESP Fit Center 1827 is at  -3.728502 -1.464897  0.422964
      ESP Fit Center 1828 is at  -4.196366 -0.065720  0.071516
      ESP Fit Center 1829 is at  -4.240184 -0.482618  0.071516
      ESP Fit Center 1830 is at  -4.196366 -0.899515  0.071516
      ESP Fit Center 1831 is at  -4.066828 -1.298192  0.071516
      ESP Fit Center 1832 is at  -3.857231 -1.661224  0.071516
      ESP Fit Center 1833 is at  -3.576736 -1.972746  0.071516
      ESP Fit Center 1834 is at  -3.237601 -2.219142  0.071516
      ESP Fit Center 1835 is at  -4.026411  0.714353 -0.313933
      ESP Fit Center 1836 is at  -4.225507  0.341870 -0.313933
      ESP Fit Center 1837 is at  -4.348110 -0.062298 -0.313933
      ESP Fit Center 1838 is at  -4.389508 -0.482618 -0.313933
      ESP Fit Center 1839 is at  -4.348110 -0.902938 -0.313933
      ESP Fit Center 1840 is at  -4.225507 -1.307105 -0.313933
      ESP Fit Center 1841 is at  -4.026411 -1.679588 -0.313933
      ESP Fit Center 1842 is at  -3.758472 -2.006072 -0.313933
      ESP Fit Center 1843 is at  -3.431988 -2.274010 -0.313933
      ESP Fit Center 1844 is at  -3.059506 -2.473106 -0.313933
      ESP Fit Center 1845 is at  -2.655338 -2.595709 -0.313933
      ESP Fit Center 1846 is at  -3.988266  0.896152 -0.720257
      ESP Fit Center 1847 is at  -4.217516  0.539431 -0.720257
      ESP Fit Center 1848 is at  -4.375114  0.145771 -0.720257
      ESP Fit Center 1849 is at  -4.455363 -0.270600 -0.720257
      ESP Fit Center 1850 is at  -4.455363 -0.694635 -0.720257
      ESP Fit Center 1851 is at  -4.375114 -1.111006 -0.720257
      ESP Fit Center 1852 is at  -4.217516 -1.504666 -0.720257
      ESP Fit Center 1853 is at  -3.988266 -1.861387 -0.720257
      ESP Fit Center 1854 is at  -3.695649 -2.168275 -0.720257
      ESP Fit Center 1855 is at  -3.350240 -2.414239 -0.720257
      ESP Fit Center 1856 is at  -2.964525 -2.590390 -0.720257
      ESP Fit Center 1857 is at  -2.552444 -2.690359 -0.720257
      ESP Fit Center 1858 is at  -3.695649  1.203040 -1.133619
      ESP Fit Center 1859 is at  -3.988266  0.896152 -1.133619
      ESP Fit Center 1860 is at  -4.217516  0.539431 -1.133619
      ESP Fit Center 1861 is at  -4.375114  0.145771 -1.133619
      ESP Fit Center 1862 is at  -4.455363 -0.270600 -1.133619
      ESP Fit Center 1863 is at  -4.455363 -0.694635 -1.133619
      ESP Fit Center 1864 is at  -4.375114 -1.111006 -1.133619
      ESP Fit Center 1865 is at  -4.217516 -1.504666 -1.133619
      ESP Fit Center 1866 is at  -3.988266 -1.861387 -1.133619
      ESP Fit Center 1867 is at  -3.695649 -2.168275 -1.133619
      ESP Fit Center 1868 is at  -3.350240 -2.414239 -1.133619
      ESP Fit Center 1869 is at  -2.964525 -2.590390 -1.133619
      ESP Fit Center 1870 is at  -2.552444 -2.690359 -1.133619
      ESP Fit Center 1871 is at  -2.128889 -2.710536 -1.133619
      ESP Fit Center 1872 is at  -3.431988  1.308775 -1.539943
      ESP Fit Center 1873 is at  -3.758472  1.040836 -1.539943
      ESP Fit Center 1874 is at  -4.026411  0.714353 -1.539943
      ESP Fit Center 1875 is at  -4.225507  0.341870 -1.539943
      ESP Fit Center 1876 is at  -4.348110 -0.062298 -1.539943
      ESP Fit Center 1877 is at  -4.389508 -0.482618 -1.539943
      ESP Fit Center 1878 is at  -4.348110 -0.902938 -1.539943
      ESP Fit Center 1879 is at  -4.225507 -1.307105 -1.539943
      ESP Fit Center 1880 is at  -4.026411 -1.679588 -1.539943
      ESP Fit Center 1881 is at  -3.758472 -2.006072 -1.539943
      ESP Fit Center 1882 is at  -3.431988 -2.274010 -1.539943
      ESP Fit Center 1883 is at  -3.059506 -2.473106 -1.539943
      ESP Fit Center 1884 is at  -2.655338 -2.595709 -1.539943
      ESP Fit Center 1885 is at  -2.235018 -2.637107 -1.539943
      ESP Fit Center 1886 is at  -1.814698 -2.595709 -1.539943
      ESP Fit Center 1887 is at  -2.854648  1.424408 -1.925392
      ESP Fit Center 1888 is at  -3.237601  1.253907 -1.925392
      ESP Fit Center 1889 is at  -3.576736  1.007511 -1.925392
      ESP Fit Center 1890 is at  -3.857231  0.695989 -1.925392
      ESP Fit Center 1891 is at  -4.066828  0.332957 -1.925392
      ESP Fit Center 1892 is at  -4.196366 -0.065720 -1.925392
      ESP Fit Center 1893 is at  -4.240184 -0.482618 -1.925392
      ESP Fit Center 1894 is at  -4.196366 -0.899515 -1.925392
      ESP Fit Center 1895 is at  -4.066828 -1.298192 -1.925392
      ESP Fit Center 1896 is at  -3.857231 -1.661224 -1.925392
      ESP Fit Center 1897 is at  -3.576736 -1.972746 -1.925392
      ESP Fit Center 1898 is at  -3.237601 -2.219142 -1.925392
      ESP Fit Center 1899 is at  -2.854648 -2.389644 -1.925392
      ESP Fit Center 1900 is at  -2.444615 -2.476799 -1.925392
      ESP Fit Center 1901 is at  -2.025421 -2.476799 -1.925392
      ESP Fit Center 1902 is at  -1.615388 -2.389644 -1.925392
      ESP Fit Center 1903 is at  -2.747696  1.229845 -2.276839
      ESP Fit Center 1904 is at  -3.128797  1.065454 -2.276839
      ESP Fit Center 1905 is at  -3.461715  0.817605 -2.276839
      ESP Fit Center 1906 is at  -3.728502  0.499662 -2.276839
      ESP Fit Center 1907 is at  -3.914774  0.128763 -2.276839
      ESP Fit Center 1908 is at  -4.010490 -0.275095 -2.276839
      ESP Fit Center 1909 is at  -4.010490 -0.690140 -2.276839
      ESP Fit Center 1910 is at  -3.914774 -1.093999 -2.276839
      ESP Fit Center 1911 is at  -3.728502 -1.464897 -2.276839
      ESP Fit Center 1912 is at  -3.461715 -1.782841 -2.276839
      ESP Fit Center 1913 is at  -3.128797 -2.030689 -2.276839
      ESP Fit Center 1914 is at  -2.747696 -2.195080 -2.276839
      ESP Fit Center 1915 is at  -2.338955 -2.267152 -2.276839
      ESP Fit Center 1916 is at  -1.924612 -2.243019 -2.276839
      ESP Fit Center 1917 is at  -1.527002 -2.123983 -2.276839
      ESP Fit Center 1918 is at  -1.167562 -1.916460 -2.276839
      ESP Fit Center 1919 is at  -2.449782  1.011100 -2.582318
      ESP Fit Center 1920 is at  -2.861912  0.890088 -2.582318
      ESP Fit Center 1921 is at  -3.223254  0.657868 -2.582318
      ESP Fit Center 1922 is at  -3.504536  0.333252 -2.582318
      ESP Fit Center 1923 is at  -3.682968 -0.057461 -2.582318
      ESP Fit Center 1924 is at  -3.744096 -0.482618 -2.582318
      ESP Fit Center 1925 is at  -3.682968 -0.907774 -2.582318
      ESP Fit Center 1926 is at  -3.504536 -1.298487 -2.582318
      ESP Fit Center 1927 is at  -3.223254 -1.623103 -2.582318
      ESP Fit Center 1928 is at  -2.861912 -1.855323 -2.582318
      ESP Fit Center 1929 is at  -2.449782 -1.976336 -2.582318
      ESP Fit Center 1930 is at  -2.020254 -1.976336 -2.582318
      ESP Fit Center 1931 is at  -1.608124 -1.855323 -2.582318
      ESP Fit Center 1932 is at  -1.246782 -1.623103 -2.582318
      ESP Fit Center 1933 is at  -1.709400  0.572966 -2.831424
      ESP Fit Center 1934 is at  -2.126215  0.691560 -2.831424
      ESP Fit Center 1935 is at  -2.557724  0.651575 -2.831424
      ESP Fit Center 1936 is at  -2.945650  0.458411 -2.831424
      ESP Fit Center 1937 is at  -3.237601  0.138155 -2.831424
      ESP Fit Center 1938 is at  -3.394148 -0.265939 -2.831424
      ESP Fit Center 1939 is at  -3.394148 -0.699297 -2.831424
      ESP Fit Center 1940 is at  -3.237601 -1.103391 -2.831424
      ESP Fit Center 1941 is at  -2.945650 -1.423646 -2.831424
      ESP Fit Center 1942 is at  -2.557724 -1.616810 -2.831424
      ESP Fit Center 1943 is at  -2.126215 -1.656795 -2.831424
      ESP Fit Center 1944 is at  -1.709400 -1.538201 -2.831424
      ESP Fit Center 1945 is at  -1.363573 -1.277045 -2.831424
      ESP Fit Center 1946 is at  -1.135439 -0.908597 -2.831424
      ESP Fit Center 1947 is at  -1.425837 -0.482618 -3.015676
      ESP Fit Center 1948 is at  -1.534247 -0.078027 -3.015676
      ESP Fit Center 1949 is at  -1.830427  0.218154 -3.015676
      ESP Fit Center 1950 is at  -2.235018  0.326564 -3.015676
      ESP Fit Center 1951 is at  -2.639609  0.218154 -3.015676
      ESP Fit Center 1952 is at  -2.935790 -0.078027 -3.015676
      ESP Fit Center 1953 is at  -3.044199 -0.482618 -3.015676
      ESP Fit Center 1954 is at  -2.935790 -0.887208 -3.015676
      ESP Fit Center 1955 is at  -2.639609 -1.183389 -3.015676
      ESP Fit Center 1956 is at  -2.235018 -1.291799 -3.015676
      ESP Fit Center 1957 is at  -1.830427 -1.183389 -3.015676
      ESP Fit Center 1958 is at  -1.534247 -0.887208 -3.015676
      ESP Fit Center 1959 is at  -1.823419 -0.482618 -3.128798
      ESP Fit Center 1960 is at  -2.029219 -0.126162 -3.128798
      ESP Fit Center 1961 is at  -2.440818 -0.126162 -3.128798
      ESP Fit Center 1962 is at  -2.646617 -0.482618 -3.128798
      ESP Fit Center 1963 is at  -2.440818 -0.839073 -3.128798
      ESP Fit Center 1964 is at  -2.029219 -0.839073 -3.128798
      ESP Fit Center 1965 is at  -2.235018 -0.482618 -3.166938
      ESP Fit Center 1966 is at   3.055214 -0.679324  2.374131
      ESP Fit Center 1967 is at   3.187615 -0.286372  2.374131
      ESP Fit Center 1968 is at   3.542235  0.125855  2.102455
      ESP Fit Center 1969 is at   3.382683 -0.701981  2.102455
      ESP Fit Center 1970 is at   3.501983 -0.295681  2.102455
      ESP Fit Center 1971 is at   3.813912  0.125855  1.792667
      ESP Fit Center 1972 is at   3.779828  0.537187  1.792667
      ESP Fit Center 1973 is at   3.678506  0.937300  1.792667
      ESP Fit Center 1974 is at   3.512709 -1.063567  1.792667
      ESP Fit Center 1975 is at   3.678506 -0.685589  1.792667
      ESP Fit Center 1976 is at   3.779828 -0.285477  1.792667
      ESP Fit Center 1977 is at   4.042829  0.125855  1.450068
      ESP Fit Center 1978 is at   4.010858  0.542279  1.450068
      ESP Fit Center 1979 is at   3.915695  0.948943  1.450068
      ESP Fit Center 1980 is at   3.759570  1.336314  1.450068
      ESP Fit Center 1981 is at   3.759570 -1.084604  1.450068
      ESP Fit Center 1982 is at   3.915695 -0.697233  1.450068
      ESP Fit Center 1983 is at   4.010858 -0.290569  1.450068
      ESP Fit Center 1984 is at   4.225069  0.125855  1.080521
      ESP Fit Center 1985 is at   4.195447  0.540023  1.080521
      ESP Fit Center 1986 is at   4.107185  0.945759  1.080521
      ESP Fit Center 1987 is at   3.962078  1.334804  1.080521
      ESP Fit Center 1988 is at   3.763082  1.699239  1.080521
      ESP Fit Center 1989 is at   3.514247  2.031644  1.080521
      ESP Fit Center 1990 is at   3.962078 -1.083094  1.080521
      ESP Fit Center 1991 is at   4.107185 -0.694049  1.080521
      ESP Fit Center 1992 is at   4.195447 -0.288312  1.080521
      ESP Fit Center 1993 is at   4.357515  0.125855  0.690348
      ESP Fit Center 1994 is at   4.329176  0.540165  0.690348
      ESP Fit Center 1995 is at   4.244685  0.946757  0.690348
      ESP Fit Center 1996 is at   4.105617  1.338057  0.690348
      ESP Fit Center 1997 is at   3.914562  1.706776  0.690348
      ESP Fit Center 1998 is at   3.675079  2.046045  0.690348
      ESP Fit Center 1999 is at   3.391630  2.349545  0.690348
      ESP Fit Center 2000 is at   3.069495  2.611622  0.690348
      ESP Fit Center 2001 is at   2.714673  2.827394  0.690348
      ESP Fit Center 2002 is at   4.105617 -1.086346  0.690348
      ESP Fit Center 2003 is at   4.244685 -0.695046  0.690348
      ESP Fit Center 2004 is at   4.329176 -0.288455  0.690348
      ESP Fit Center 2005 is at   4.437900  0.125855  0.286226
      ESP Fit Center 2006 is at   3.485970  2.370778  0.286226
      ESP Fit Center 2007 is at   3.167380  2.640130  0.286226
      ESP Fit Center 2008 is at   2.815730  2.864615  0.286226
      ESP Fit Center 2009 is at   2.437298  3.040226  0.286226
      ESP Fit Center 2010 is at   2.038835  3.163830  0.286226
      ESP Fit Center 2011 is at   1.627453  3.233222  0.286226
      ESP Fit Center 2012 is at   1.210492  3.247162  0.286226
      ESP Fit Center 2013 is at   0.795394  3.205403  0.286226
      ESP Fit Center 2014 is at   0.389565  3.108689  0.286226
      ESP Fit Center 2015 is at   4.001927 -1.465704  0.286226
      ESP Fit Center 2016 is at   4.190086 -1.093351  0.286226
      ESP Fit Center 2017 is at   4.326935 -0.699241  0.286226
      ESP Fit Center 2018 is at   4.410035 -0.290407  0.286226
      ESP Fit Center 2019 is at   2.889849  2.853835 -0.124932
      ESP Fit Center 2020 is at   2.520302  3.036076 -0.124932
      ESP Fit Center 2021 is at   2.130129  3.168521 -0.124932
      ESP Fit Center 2022 is at   1.726006  3.248906 -0.124932
      ESP Fit Center 2023 is at   1.314849  3.275855 -0.124932
      ESP Fit Center 2024 is at   0.903691  3.248906 -0.124932
      ESP Fit Center 2025 is at   0.499569  3.168521 -0.124932
      ESP Fit Center 2026 is at   4.042829 -1.449145 -0.124932
      ESP Fit Center 2027 is at   4.225069 -1.079598 -0.124932
      ESP Fit Center 2028 is at   4.357515 -0.689425 -0.124932
      ESP Fit Center 2029 is at   2.437298  3.040226 -0.536089
      ESP Fit Center 2030 is at   2.038835  3.163830 -0.536089
      ESP Fit Center 2031 is at   1.627453  3.233222 -0.536089
      ESP Fit Center 2032 is at   1.210492  3.247162 -0.536089
      ESP Fit Center 2033 is at   0.795394  3.205403 -0.536089
      ESP Fit Center 2034 is at   0.389565  3.108689 -0.536089
      ESP Fit Center 2035 is at   3.765817 -1.809656 -0.536089
      ESP Fit Center 2036 is at   4.001927 -1.465704 -0.536089
      ESP Fit Center 2037 is at   4.190086 -1.093351 -0.536089
      ESP Fit Center 2038 is at   1.933898  3.104881 -0.940212
      ESP Fit Center 2039 is at   1.522488  3.161428 -0.940212
      ESP Fit Center 2040 is at   1.107210  3.161428 -0.940212
      ESP Fit Center 2041 is at   0.695800  3.104881 -0.940212
      ESP Fit Center 2042 is at   0.295922  2.992841 -0.940212
      ESP Fit Center 2043 is at  -0.084976  2.827394 -0.940212
      ESP Fit Center 2044 is at   3.675079 -1.794335 -0.940212
      ESP Fit Center 2045 is at   3.914562 -1.455065 -0.940212
      ESP Fit Center 2046 is at   1.729016  3.006454 -1.330384
      ESP Fit Center 2047 is at   1.314849  3.036076 -1.330384
      ESP Fit Center 2048 is at   0.900681  3.006454 -1.330384
      ESP Fit Center 2049 is at   0.494945  2.918191 -1.330384
      ESP Fit Center 2050 is at   0.105899  2.773085 -1.330384
      ESP Fit Center 2051 is at   3.220638 -2.073543 -1.330384
      ESP Fit Center 2052 is at   3.514247 -1.779934 -1.330384
      ESP Fit Center 2053 is at   1.419338  2.851833 -1.699932
      ESP Fit Center 2054 is at   1.001995  2.835836 -1.699932
      ESP Fit Center 2055 is at   0.591984  2.756319 -1.699932
      ESP Fit Center 2056 is at   0.198918  2.615147 -1.699932
      ESP Fit Center 2057 is at   0.591984 -2.504609 -1.699932
      ESP Fit Center 2058 is at   1.001995 -2.584126 -1.699932
      ESP Fit Center 2059 is at   2.236952 -2.441556 -1.699932
      ESP Fit Center 2060 is at   2.618059 -2.270709 -1.699932
      ESP Fit Center 2061 is at   2.968620 -2.043688 -1.699932
      ESP Fit Center 2062 is at   3.280417 -1.765815 -1.699932
      ESP Fit Center 2063 is at   1.108478  2.616383 -2.042530
      ESP Fit Center 2064 is at   0.701365  2.548447 -2.042530
      ESP Fit Center 2065 is at   0.310987  2.414430 -2.042530
      ESP Fit Center 2066 is at   1.108478 -2.364672 -2.042530
      ESP Fit Center 2067 is at   1.521220 -2.364672 -2.042530
      ESP Fit Center 2068 is at   1.928332 -2.296737 -2.042530
      ESP Fit Center 2069 is at   2.318711 -2.162720 -2.042530
      ESP Fit Center 2070 is at   2.681707 -1.966277 -2.042530
      ESP Fit Center 2071 is at   3.007418 -1.712765 -2.042530
      ESP Fit Center 2072 is at   0.997859  2.330570 -2.352318
      ESP Fit Center 2073 is at   0.586342  2.230737 -2.352318
      ESP Fit Center 2074 is at   0.997859 -2.078860 -2.352318
      ESP Fit Center 2075 is at   1.420832 -2.099008 -2.352318
      ESP Fit Center 2076 is at   1.839975 -2.038745 -2.352318
      ESP Fit Center 2077 is at   2.240138 -1.900247 -2.352318
      ESP Fit Center 2078 is at   2.606860 -1.688520 -2.352318
      ESP Fit Center 2079 is at   1.004616  2.018192 -2.623995
      ESP Fit Center 2080 is at   1.004616 -1.766482 -2.623995
      ESP Fit Center 2081 is at   1.418665 -1.788931 -2.623995
      ESP Fit Center 2082 is at   1.827861 -1.721847 -2.623995
      ESP Fit Center 2083 is at   2.213068 -1.568366 -2.623995
      ESP Fit Center 2084 is at   0.907209  1.647188 -2.852912
      ESP Fit Center 2085 is at   1.314849 -1.449145 -2.852912
      ESP Fit Center 2086 is at   1.722489 -1.395478 -2.852912
      ESP Fit Center 2087 is at   2.102349 -1.238135 -2.852912
      ESP Fit Center 2088 is at   1.105524  1.312994 -3.035152
      ESP Fit Center 2089 is at   1.524173 -1.061284 -3.035152
      ESP Fit Center 2090 is at   1.917575 -0.918098 -3.035152
      ESP Fit Center 2091 is at   1.314849 -0.689425 -3.167598
      ESP Fit Center 2092 is at   1.722489 -0.580198 -3.167598
      ESP Fit Center 2093 is at   1.109270  0.481928 -3.247983
      ESP Fit Center 2094 is at   1.520427 -0.230218 -3.247983
      ESP Fit Center 2095 is at   1.314849  0.125855 -3.274932
      ESP Fit Center 2096 is at   1.529315 -1.375389  2.810689
      ESP Fit Center 2097 is at   1.951280 -1.375389  2.773772
      ESP Fit Center 2098 is at   1.107350 -1.375389  2.773772
      ESP Fit Center 2099 is at   1.318332 -1.740821  2.773772
      ESP Fit Center 2100 is at   1.740298 -1.740821  2.773772
      ESP Fit Center 2101 is at   2.360424 -1.375389  2.664142
      ESP Fit Center 2102 is at   0.698206 -1.375389  2.664142
      ESP Fit Center 2103 is at   0.809554 -1.790943  2.664142
      ESP Fit Center 2104 is at   1.113761 -2.095150  2.664142
      ESP Fit Center 2105 is at   1.529315 -2.206498  2.664142
      ESP Fit Center 2106 is at   1.944870 -2.095150  2.664142
      ESP Fit Center 2107 is at   2.249076 -1.790943  2.664142
      ESP Fit Center 2108 is at   2.744315 -1.375389  2.485131
      ESP Fit Center 2109 is at   0.598571 -2.156376  2.485131
      ESP Fit Center 2110 is at   0.921815 -2.427609  2.485131
      ESP Fit Center 2111 is at   1.318332 -2.571930  2.485131
      ESP Fit Center 2112 is at   1.740298 -2.571930  2.485131
      ESP Fit Center 2113 is at   2.136815 -2.427609  2.485131
      ESP Fit Center 2114 is at   2.460059 -2.156376  2.485131
      ESP Fit Center 2115 is at   2.671042 -1.790943  2.485131
      ESP Fit Center 2116 is at   3.091289 -1.375389  2.242177
      ESP Fit Center 2117 is at   0.628555 -2.651474  2.242177
      ESP Fit Center 2118 is at   1.006242 -2.847176  2.242177
      ESP Fit Center 2119 is at   1.422722 -2.933721  2.242177
      ESP Fit Center 2120 is at   1.847108 -2.904692  2.242177
      ESP Fit Center 2121 is at   2.247925 -2.762242  2.242177
      ESP Fit Center 2122 is at   2.595445 -2.516935  2.242177
      ESP Fit Center 2123 is at   2.863896 -2.186965  2.242177
      ESP Fit Center 2124 is at   3.033367 -1.796804  2.242177
      ESP Fit Center 2125 is at   3.390803 -1.375389  1.942663
      ESP Fit Center 2126 is at   0.368696 -2.830759  1.942663
      ESP Fit Center 2127 is at   0.721646 -3.052531  1.942663
      ESP Fit Center 2128 is at   1.115095 -3.190205  1.942663
      ESP Fit Center 2129 is at   1.529315 -3.236877  1.942663
      ESP Fit Center 2130 is at   1.943535 -3.190205  1.942663
      ESP Fit Center 2131 is at   2.336984 -3.052531  1.942663
      ESP Fit Center 2132 is at   2.689934 -2.830759  1.942663
      ESP Fit Center 2133 is at   2.984685 -2.536007  1.942663
      ESP Fit Center 2134 is at   3.206458 -2.183058  1.942663
      ESP Fit Center 2135 is at   3.344132 -1.789609  1.942663
      ESP Fit Center 2136 is at   3.633757 -1.375389  1.595689
      ESP Fit Center 2137 is at   0.360150 -3.125168  1.595689
      ESP Fit Center 2138 is at   0.723980 -3.319639  1.595689
      ESP Fit Center 2139 is at   1.118759 -3.439394  1.595689
      ESP Fit Center 2140 is at   1.529315 -3.479830  1.595689
      ESP Fit Center 2141 is at   1.939871 -3.439394  1.595689
      ESP Fit Center 2142 is at   2.334650 -3.319639  1.595689
      ESP Fit Center 2143 is at   2.698480 -3.125168  1.595689
      ESP Fit Center 2144 is at   3.017380 -2.863454  1.595689
      ESP Fit Center 2145 is at   3.279094 -2.544554  1.595689
      ESP Fit Center 2146 is at   3.473566 -2.180724  1.595689
      ESP Fit Center 2147 is at   3.593321 -1.785945  1.595689
      ESP Fit Center 2148 is at   3.812768 -1.375389  1.211798
      ESP Fit Center 2149 is at   0.153227 -3.197623  1.211798
      ESP Fit Center 2150 is at   0.511492 -3.419452  1.211798
      ESP Fit Center 2151 is at   0.904418 -3.571672  1.211798
      ESP Fit Center 2152 is at   1.318625 -3.649101  1.211798
      ESP Fit Center 2153 is at   1.740006 -3.649101  1.211798
      ESP Fit Center 2154 is at   2.154212 -3.571672  1.211798
      ESP Fit Center 2155 is at   2.547138 -3.419452  1.211798
      ESP Fit Center 2156 is at   2.905403 -3.197623  1.211798
      ESP Fit Center 2157 is at   3.216807 -2.913741  1.211798
      ESP Fit Center 2158 is at   3.470746 -2.577472  1.211798
      ESP Fit Center 2159 is at   3.658572 -2.200267  1.211798
      ESP Fit Center 2160 is at   3.773888 -1.794972  1.211798
      ESP Fit Center 2161 is at  -0.008929 -3.208596  0.802654
      ESP Fit Center 2162 is at   0.332774 -3.447859  0.802654
      ESP Fit Center 2163 is at   0.710832 -3.624151  0.802654
      ESP Fit Center 2164 is at   1.113761 -3.732115  0.802654
      ESP Fit Center 2165 is at   1.529315 -3.768471  0.802654
      ESP Fit Center 2166 is at   1.944870 -3.732115  0.802654
      ESP Fit Center 2167 is at   2.347798 -3.624151  0.802654
      ESP Fit Center 2168 is at   2.725856 -3.447859  0.802654
      ESP Fit Center 2169 is at   3.067559 -3.208596  0.802654
      ESP Fit Center 2170 is at   3.362523 -2.913633  0.802654
      ESP Fit Center 2171 is at   3.601786 -2.571930  0.802654
      ESP Fit Center 2172 is at   3.778077 -2.193871  0.802654
      ESP Fit Center 2173 is at   3.886042 -1.790943  0.802654
      ESP Fit Center 2174 is at  -0.225038 -3.056800  0.380689
      ESP Fit Center 2175 is at   0.084356 -3.329102  0.380689
      ESP Fit Center 2176 is at   0.435320 -3.545198  0.380689
      ESP Fit Center 2177 is at   0.817756 -3.698874  0.380689
      ESP Fit Center 2178 is at   1.220662 -3.785707  0.380689
      ESP Fit Center 2179 is at   1.632447 -3.803199  0.380689
      ESP Fit Center 2180 is at   2.041266 -3.750848  0.380689
      ESP Fit Center 2181 is at   2.435356 -3.630159  0.380689
      ESP Fit Center 2182 is at   2.803382 -3.444604  0.380689
      ESP Fit Center 2183 is at   3.134755 -3.199522  0.380689
      ESP Fit Center 2184 is at   3.419942 -2.901963  0.380689
      ESP Fit Center 2185 is at   3.650739 -2.560487  0.380689
      ESP Fit Center 2186 is at   3.820507 -2.184918  0.380689
      ESP Fit Center 2187 is at   3.924362 -1.786061  0.380689
      ESP Fit Center 2188 is at  -0.008929 -3.208596 -0.041276
      ESP Fit Center 2189 is at   0.332774 -3.447859 -0.041276
      ESP Fit Center 2190 is at   0.710832 -3.624151 -0.041276
      ESP Fit Center 2191 is at   1.113761 -3.732115 -0.041276
      ESP Fit Center 2192 is at   1.529315 -3.768471 -0.041276
      ESP Fit Center 2193 is at   1.944870 -3.732115 -0.041276
      ESP Fit Center 2194 is at   2.347798 -3.624151 -0.041276
      ESP Fit Center 2195 is at   2.725856 -3.447859 -0.041276
      ESP Fit Center 2196 is at   3.067559 -3.208596 -0.041276
      ESP Fit Center 2197 is at   3.362523 -2.913633 -0.041276
      ESP Fit Center 2198 is at   3.601786 -2.571930 -0.041276
      ESP Fit Center 2199 is at   3.778077 -2.193871 -0.041276
      ESP Fit Center 2200 is at   3.886042 -1.790943 -0.041276
      ESP Fit Center 2201 is at   0.153227 -3.197623 -0.450420
      ESP Fit Center 2202 is at   0.511492 -3.419452 -0.450420
      ESP Fit Center 2203 is at   0.904418 -3.571672 -0.450420
      ESP Fit Center 2204 is at   1.318625 -3.649101 -0.450420
      ESP Fit Center 2205 is at   1.740006 -3.649101 -0.450420
      ESP Fit Center 2206 is at   2.154212 -3.571672 -0.450420
      ESP Fit Center 2207 is at   2.547138 -3.419452 -0.450420
      ESP Fit Center 2208 is at   2.905403 -3.197623 -0.450420
      ESP Fit Center 2209 is at   3.216807 -2.913741 -0.450420
      ESP Fit Center 2210 is at   3.470746 -2.577472 -0.450420
      ESP Fit Center 2211 is at   3.658572 -2.200267 -0.450420
      ESP Fit Center 2212 is at   0.360150 -3.125168 -0.834311
      ESP Fit Center 2213 is at   0.723980 -3.319639 -0.834311
      ESP Fit Center 2214 is at   1.118759 -3.439394 -0.834311
      ESP Fit Center 2215 is at   1.529315 -3.479830 -0.834311
      ESP Fit Center 2216 is at   1.939871 -3.439394 -0.834311
      ESP Fit Center 2217 is at   2.334650 -3.319639 -0.834311
      ESP Fit Center 2218 is at   2.698480 -3.125168 -0.834311
      ESP Fit Center 2219 is at   3.017380 -2.863454 -0.834311
      ESP Fit Center 2220 is at   3.279094 -2.544554 -0.834311
      ESP Fit Center 2221 is at   3.473566 -2.180724 -0.834311
      ESP Fit Center 2222 is at   0.368696 -2.830759 -1.181285
      ESP Fit Center 2223 is at   0.721646 -3.052531 -1.181285
      ESP Fit Center 2224 is at   1.115095 -3.190205 -1.181285
      ESP Fit Center 2225 is at   1.529315 -3.236877 -1.181285
      ESP Fit Center 2226 is at   1.943535 -3.190205 -1.181285
      ESP Fit Center 2227 is at   2.336984 -3.052531 -1.181285
      ESP Fit Center 2228 is at   2.689934 -2.830759 -1.181285
      ESP Fit Center 2229 is at   2.984685 -2.536007 -1.181285
      ESP Fit Center 2230 is at   3.206458 -2.183058 -1.181285
      ESP Fit Center 2231 is at   0.628555 -2.651474 -1.480799
      ESP Fit Center 2232 is at   1.006242 -2.847176 -1.480799
      ESP Fit Center 2233 is at   1.422722 -2.933721 -1.480799
      ESP Fit Center 2234 is at   1.847108 -2.904692 -1.480799
      ESP Fit Center 2235 is at   2.247925 -2.762242 -1.480799
      ESP Fit Center 2236 is at   2.595445 -2.516935 -1.480799
      ESP Fit Center 2237 is at   1.740298 -2.571930 -1.723752
      ESP Fit Center 2238 is at   1.253964  0.764900  3.627706
      ESP Fit Center 2239 is at   1.668742  0.764900  3.593336
      ESP Fit Center 2240 is at   1.461353  1.124109  3.593336
      ESP Fit Center 2241 is at   1.046575  1.124109  3.593336
      ESP Fit Center 2242 is at   0.839186  0.764900  3.593336
      ESP Fit Center 2243 is at   1.046575  0.405692  3.593336
      ESP Fit Center 2244 is at   1.461353  0.405692  3.593336
      ESP Fit Center 2245 is at   2.072207  0.764900  3.491165
      ESP Fit Center 2246 is at   1.962583  1.174022  3.491165
      ESP Fit Center 2247 is at   1.663085  1.473519  3.491165
      ESP Fit Center 2248 is at   1.253964  1.583143  3.491165
      ESP Fit Center 2249 is at   0.844843  1.473519  3.491165
      ESP Fit Center 2250 is at   0.545345  1.174022  3.491165
      ESP Fit Center 2251 is at   0.435721  0.764900  3.491165
      ESP Fit Center 2252 is at   0.545345  0.355779  3.491165
      ESP Fit Center 2253 is at   0.844843  0.056281  3.491165
      ESP Fit Center 2254 is at   1.253964 -0.053342  3.491165
      ESP Fit Center 2255 is at   1.663085  0.056281  3.491165
      ESP Fit Center 2256 is at   1.962583  0.355779  3.491165
      ESP Fit Center 2257 is at   2.453351  0.764900  3.323980
      ESP Fit Center 2258 is at   2.381020  1.175115  3.323980
      ESP Fit Center 2259 is at   2.172748  1.535852  3.323980
      ESP Fit Center 2260 is at   1.853658  1.803600  3.323980
      ESP Fit Center 2261 is at   1.462235  1.946066  3.323980
      ESP Fit Center 2262 is at   1.045693  1.946066  3.323980
      ESP Fit Center 2263 is at   0.654270  1.803600  3.323980
      ESP Fit Center 2264 is at   0.335180  1.535852  3.323980
      ESP Fit Center 2265 is at   0.126909  1.175115  3.323980
      ESP Fit Center 2266 is at   0.054577  0.764900  3.323980
      ESP Fit Center 2267 is at   0.126909  0.354686  3.323980
      ESP Fit Center 2268 is at   0.335180 -0.006051  3.323980
      ESP Fit Center 2269 is at   0.654270 -0.273800  3.323980
      ESP Fit Center 2270 is at   1.045693 -0.416266  3.323980
      ESP Fit Center 2271 is at   1.462235 -0.416266  3.323980
      ESP Fit Center 2272 is at   1.853658 -0.273800  3.323980
      ESP Fit Center 2273 is at   2.172748 -0.006051  3.323980
      ESP Fit Center 2274 is at   2.381020  0.354686  3.323980
      ESP Fit Center 2275 is at   2.801780  0.764900  3.096340
      ESP Fit Center 2276 is at   2.744383  1.182496  3.096340
      ESP Fit Center 2277 is at   2.576448  1.569121  3.096340
      ESP Fit Center 2278 is at   2.310431  1.896100  3.096340
      ESP Fit Center 2279 is at   1.966060  2.139183  3.096340
      ESP Fit Center 2280 is at   1.568877  2.280342  3.096340
      ESP Fit Center 2281 is at   1.148337  2.309108  3.096340
      ESP Fit Center 2282 is at   0.735632  2.223347  3.096340
      ESP Fit Center 2283 is at   0.361369  2.029419  3.096340
      ESP Fit Center 2284 is at   0.053306  1.741708  3.096340
      ESP Fit Center 2285 is at  -0.165710  1.381552  3.096340
      ESP Fit Center 2286 is at  -0.279436  0.975661  3.096340
      ESP Fit Center 2287 is at  -0.279436  0.554139  3.096340
      ESP Fit Center 2288 is at   0.361369 -0.499619  3.096340
      ESP Fit Center 2289 is at   0.735632 -0.693546  3.096340
      ESP Fit Center 2290 is at   1.148337 -0.779307  3.096340
      ESP Fit Center 2291 is at   1.568877 -0.750542  3.096340
      ESP Fit Center 2292 is at   1.966060 -0.609383  3.096340
      ESP Fit Center 2293 is at   2.310431 -0.366299  3.096340
      ESP Fit Center 2294 is at   2.576448 -0.039320  3.096340
      ESP Fit Center 2295 is at   2.744383  0.347305  3.096340
      ESP Fit Center 2296 is at   3.107988  0.764900  2.814455
      ESP Fit Center 2297 is at   3.058013  1.192468  2.814455
      ESP Fit Center 2298 is at   2.910781  1.596985  2.814455
      ESP Fit Center 2299 is at   2.674229  1.956644  2.814455
      ESP Fit Center 2300 is at   2.361111  2.252056  2.814455
      ESP Fit Center 2301 is at   1.988306  2.467295  2.814455
      ESP Fit Center 2302 is at   1.575912  2.590758  2.814455
      ESP Fit Center 2303 is at   1.146162  2.615788  2.814455
      ESP Fit Center 2304 is at   0.722224  2.541036  2.814455
      ESP Fit Center 2305 is at   0.326952  2.370532  2.814455
      ESP Fit Center 2306 is at  -0.018345  2.113469  2.814455
      ESP Fit Center 2307 is at  -0.295051  1.783703  2.814455
      ESP Fit Center 2308 is at  -0.488249  1.399014  2.814455
      ESP Fit Center 2309 is at  -0.587524  0.980139  2.814455
      ESP Fit Center 2310 is at   0.722224 -1.011235  2.814455
      ESP Fit Center 2311 is at   1.146162 -1.085987  2.814455
      ESP Fit Center 2312 is at   1.575912 -1.060957  2.814455
      ESP Fit Center 2313 is at   1.988306 -0.937495  2.814455
      ESP Fit Center 2314 is at   2.361111 -0.722256  2.814455
      ESP Fit Center 2315 is at   2.674229 -0.426844  2.814455
      ESP Fit Center 2316 is at   2.910781 -0.067184  2.814455
      ESP Fit Center 2317 is at   3.058013  0.337333  2.814455
      ESP Fit Center 2318 is at   3.363624  0.764900  2.486015
      ESP Fit Center 2319 is at   3.320439  1.189572  2.486015
      ESP Fit Center 2320 is at   3.192652  1.596857  2.486015
      ESP Fit Center 2321 is at   2.985495  1.970082  2.486015
      ESP Fit Center 2322 is at   2.707450  2.293966  2.486015
      ESP Fit Center 2323 is at   2.369898  2.555251  2.486015
      ESP Fit Center 2324 is at   1.986660  2.743238  2.486015
      ESP Fit Center 2325 is at   1.573425  2.850232  2.486015
      ESP Fit Center 2326 is at   1.147112  2.871852  2.486015
      ESP Fit Center 2327 is at   0.725173  2.807213  2.486015
      ESP Fit Center 2328 is at   0.324882  2.658962  2.486015
      ESP Fit Center 2329 is at  -0.037371  2.433168  2.486015
      ESP Fit Center 2330 is at  -0.346757  2.139074  2.486015
      ESP Fit Center 2331 is at   2.985495 -0.440281  2.486015
      ESP Fit Center 2332 is at   3.192652 -0.067056  2.486015
      ESP Fit Center 2333 is at   3.320439  0.340229  2.486015
      ESP Fit Center 2334 is at   3.561713  0.764900  2.119978
      ESP Fit Center 2335 is at   3.522419  1.188948  2.119978
      ESP Fit Center 2336 is at   3.405876  1.598555  2.119978
      ESP Fit Center 2337 is at   3.216052  1.979773  2.119978
      ESP Fit Center 2338 is at   2.959411  2.319621  2.119978
      ESP Fit Center 2339 is at   2.644693  2.606524  2.119978
      ESP Fit Center 2340 is at   2.282616  2.830712  2.119978
      ESP Fit Center 2341 is at   1.885509  2.984552  2.119978
      ESP Fit Center 2342 is at   1.466896  3.062805  2.119978
      ESP Fit Center 2343 is at   1.041032  3.062805  2.119978
      ESP Fit Center 2344 is at   0.622419  2.984552  2.119978
      ESP Fit Center 2345 is at   0.225312  2.830712  2.119978
      ESP Fit Center 2346 is at  -0.136765  2.606524  2.119978
      ESP Fit Center 2347 is at   3.522419  0.340853  2.119978
      ESP Fit Center 2348 is at   3.659740  1.189103  1.726329
      ESP Fit Center 2349 is at   3.549528  1.600417  1.726329
      ESP Fit Center 2350 is at   3.369568  1.986345  1.726329
      ESP Fit Center 2351 is at   3.125325  2.335159  1.726329
      ESP Fit Center 2352 is at   2.824223  2.636262  1.726329
      ESP Fit Center 2353 is at   2.475408  2.880504  1.726329
      ESP Fit Center 2354 is at   2.089481  3.060465  1.726329
      ESP Fit Center 2355 is at   1.678167  3.170676  1.726329
      ESP Fit Center 2356 is at   1.253964  3.207789  1.726329
      ESP Fit Center 2357 is at   0.829761  3.170676  1.726329
      ESP Fit Center 2358 is at   0.418447  3.060465  1.726329
      ESP Fit Center 2359 is at   0.032520  2.880504  1.726329
      ESP Fit Center 2360 is at   3.446446  1.989694  1.315806
      ESP Fit Center 2361 is at   3.207918  2.342608  1.315806
      ESP Fit Center 2362 is at   2.913178  2.650133  1.315806
      ESP Fit Center 2363 is at   2.570706  2.903425  1.315806
      ESP Fit Center 2364 is at   2.190353  3.095194  1.315806
      ESP Fit Center 2365 is at   1.783062  3.219926  1.315806
      ESP Fit Center 2366 is at   1.360551  3.274030  1.315806
      ESP Fit Center 2367 is at   0.934972  3.255952  1.315806
      ESP Fit Center 2368 is at   0.518571  3.166211  1.315806
      ESP Fit Center 2369 is at   0.123326  3.007388  1.315806
      ESP Fit Center 2370 is at   2.913178  2.650133  0.899606
      ESP Fit Center 2371 is at   2.570706  2.903425  0.899606
      ESP Fit Center 2372 is at   2.190353  3.095194  0.899606
      ESP Fit Center 2373 is at   1.783062  3.219926  0.899606
      ESP Fit Center 2374 is at   1.360551  3.274030  0.899606
      ESP Fit Center 2375 is at   0.934972  3.255952  0.899606
      ESP Fit Center 2376 is at   0.518571  3.166211  0.899606
      ESP Fit Center 2377 is at   4.542777  0.481598  0.084377
      ESP Fit Center 2378 is at   4.503483  0.905646  0.084377
      ESP Fit Center 2379 is at   4.386940  1.315253  0.084377
      ESP Fit Center 2380 is at   4.197116  1.696471  0.084377
      ESP Fit Center 2381 is at   3.940475  2.036318  0.084377
      ESP Fit Center 2382 is at   3.625758  2.323221  0.084377
      ESP Fit Center 2383 is at   4.503483  0.057550  0.084377
      ESP Fit Center 2384 is at   4.677917  0.481598 -0.309273
      ESP Fit Center 2385 is at   4.640804  0.905801 -0.309273
      ESP Fit Center 2386 is at   4.530593  1.317115 -0.309273
      ESP Fit Center 2387 is at   4.350632  1.703042 -0.309273
      ESP Fit Center 2388 is at   4.106389  2.051857 -0.309273
      ESP Fit Center 2389 is at   3.805287  2.352959 -0.309273
      ESP Fit Center 2390 is at   3.456472  2.597202 -0.309273
      ESP Fit Center 2391 is at   3.070545  2.777163 -0.309273
      ESP Fit Center 2392 is at   4.350632 -0.739846 -0.309273
      ESP Fit Center 2393 is at   4.530593 -0.353919 -0.309273
      ESP Fit Center 2394 is at   4.640804  0.057395 -0.309273
      ESP Fit Center 2395 is at   4.746421  0.481598 -0.719796
      ESP Fit Center 2396 is at   4.710297  0.906026 -0.719796
      ESP Fit Center 2397 is at   4.602964  1.318243 -0.719796
      ESP Fit Center 2398 is at   4.427510  1.706392 -0.719796
      ESP Fit Center 2399 is at   4.188982  2.059305 -0.719796
      ESP Fit Center 2400 is at   3.894242  2.366831 -0.719796
      ESP Fit Center 2401 is at   3.551770  2.620122 -0.719796
      ESP Fit Center 2402 is at   3.171417  2.811892 -0.719796
      ESP Fit Center 2403 is at   2.764127  2.936623 -0.719796
      ESP Fit Center 2404 is at   4.188982 -1.096109 -0.719796
      ESP Fit Center 2405 is at   4.427510 -0.743195 -0.719796
      ESP Fit Center 2406 is at   4.602964 -0.355047 -0.719796
      ESP Fit Center 2407 is at   4.710297  0.057171 -0.719796
      ESP Fit Center 2408 is at   4.746421  0.481598 -1.135996
      ESP Fit Center 2409 is at   4.710297  0.906026 -1.135996
      ESP Fit Center 2410 is at   4.602964  1.318243 -1.135996
      ESP Fit Center 2411 is at   4.427510  1.706392 -1.135996
      ESP Fit Center 2412 is at   4.188982  2.059305 -1.135996
      ESP Fit Center 2413 is at   3.894242  2.366831 -1.135996
      ESP Fit Center 2414 is at   3.551770  2.620122 -1.135996
      ESP Fit Center 2415 is at   3.171417  2.811892 -1.135996
      ESP Fit Center 2416 is at   2.764127  2.936623 -1.135996
      ESP Fit Center 2417 is at   2.341615  2.990728 -1.135996
      ESP Fit Center 2418 is at   3.894242 -1.403635 -1.135996
      ESP Fit Center 2419 is at   4.188982 -1.096109 -1.135996
      ESP Fit Center 2420 is at   4.427510 -0.743195 -1.135996
      ESP Fit Center 2421 is at   4.602964 -0.355047 -1.135996
      ESP Fit Center 2422 is at   4.710297  0.057171 -1.135996
      ESP Fit Center 2423 is at   4.677917  0.481598 -1.546519
      ESP Fit Center 2424 is at   4.640804  0.905801 -1.546519
      ESP Fit Center 2425 is at   4.530593  1.317115 -1.546519
      ESP Fit Center 2426 is at   4.350632  1.703042 -1.546519
      ESP Fit Center 2427 is at   4.106389  2.051857 -1.546519
      ESP Fit Center 2428 is at   3.805287  2.352959 -1.546519
      ESP Fit Center 2429 is at   3.456472  2.597202 -1.546519
      ESP Fit Center 2430 is at   3.070545  2.777163 -1.546519
      ESP Fit Center 2431 is at   2.659231  2.887374 -1.546519
      ESP Fit Center 2432 is at   2.235028  2.924487 -1.546519
      ESP Fit Center 2433 is at   3.805287 -1.389763 -1.546519
      ESP Fit Center 2434 is at   4.106389 -1.088660 -1.546519
      ESP Fit Center 2435 is at   4.350632 -0.739846 -1.546519
      ESP Fit Center 2436 is at   4.530593 -0.353919 -1.546519
      ESP Fit Center 2437 is at   4.640804  0.057395 -1.546519
      ESP Fit Center 2438 is at   4.542777  0.481598 -1.940168
      ESP Fit Center 2439 is at   4.503483  0.905646 -1.940168
      ESP Fit Center 2440 is at   4.386940  1.315253 -1.940168
      ESP Fit Center 2441 is at   4.197116  1.696471 -1.940168
      ESP Fit Center 2442 is at   3.940475  2.036318 -1.940168
      ESP Fit Center 2443 is at   3.625758  2.323221 -1.940168
      ESP Fit Center 2444 is at   3.263680  2.547410 -1.940168
      ESP Fit Center 2445 is at   2.866574  2.701250 -1.940168
      ESP Fit Center 2446 is at   2.447960  2.779502 -1.940168
      ESP Fit Center 2447 is at   2.022096  2.779502 -1.940168
      ESP Fit Center 2448 is at   1.603483  2.701250 -1.940168
      ESP Fit Center 2449 is at   3.263680 -1.584214 -1.940168
      ESP Fit Center 2450 is at   3.625758 -1.360025 -1.940168
      ESP Fit Center 2451 is at   3.940475 -1.073122 -1.940168
      ESP Fit Center 2452 is at   4.197116 -0.733275 -1.940168
      ESP Fit Center 2453 is at   4.386940 -0.352057 -1.940168
      ESP Fit Center 2454 is at   4.503483  0.057550 -1.940168
      ESP Fit Center 2455 is at   4.344688  0.481598 -2.306205
      ESP Fit Center 2456 is at   4.301503  0.906269 -2.306205
      ESP Fit Center 2457 is at   4.173716  1.313555 -2.306205
      ESP Fit Center 2458 is at   3.966560  1.686780 -2.306205
      ESP Fit Center 2459 is at   3.688514  2.010664 -2.306205
      ESP Fit Center 2460 is at   3.350962  2.271949 -2.306205
      ESP Fit Center 2461 is at   2.967724  2.459936 -2.306205
      ESP Fit Center 2462 is at   2.554489  2.566930 -2.306205
      ESP Fit Center 2463 is at   2.128176  2.588550 -2.306205
      ESP Fit Center 2464 is at   1.706237  2.523911 -2.306205
      ESP Fit Center 2465 is at   2.967724 -1.496740 -2.306205
      ESP Fit Center 2466 is at   3.350962 -1.308752 -2.306205
      ESP Fit Center 2467 is at   3.688514 -1.047468 -2.306205
      ESP Fit Center 2468 is at   3.966560 -0.723583 -2.306205
      ESP Fit Center 2469 is at   4.173716 -0.350358 -2.306205
      ESP Fit Center 2470 is at   4.301503  0.056927 -2.306205
      ESP Fit Center 2471 is at   4.089052  0.481598 -2.634646
      ESP Fit Center 2472 is at   4.039077  0.909166 -2.634646
      ESP Fit Center 2473 is at   3.891845  1.313683 -2.634646
      ESP Fit Center 2474 is at   3.655293  1.673342 -2.634646
      ESP Fit Center 2475 is at   3.342175  1.968754 -2.634646
      ESP Fit Center 2476 is at   2.969370  2.183993 -2.634646
      ESP Fit Center 2477 is at   2.556976  2.307456 -2.634646
      ESP Fit Center 2478 is at   2.127226  2.332486 -2.634646
      ESP Fit Center 2479 is at   1.703288  2.257734 -2.634646
      ESP Fit Center 2480 is at   1.308016  2.087230 -2.634646
      ESP Fit Center 2481 is at   2.556976 -1.344259 -2.634646
      ESP Fit Center 2482 is at   2.969370 -1.220797 -2.634646
      ESP Fit Center 2483 is at   3.342175 -1.005558 -2.634646
      ESP Fit Center 2484 is at   3.655293 -0.710146 -2.634646
      ESP Fit Center 2485 is at   3.891845 -0.350486 -2.634646
      ESP Fit Center 2486 is at   4.039077  0.054031 -2.634646
      ESP Fit Center 2487 is at   3.782844  0.481598 -2.916530
      ESP Fit Center 2488 is at   3.725447  0.899194 -2.916530
      ESP Fit Center 2489 is at   3.557512  1.285819 -2.916530
      ESP Fit Center 2490 is at   3.291495  1.612798 -2.916530
      ESP Fit Center 2491 is at   2.947124  1.855881 -2.916530
      ESP Fit Center 2492 is at   2.549941  1.997040 -2.916530
      ESP Fit Center 2493 is at   2.129401  2.025806 -2.916530
      ESP Fit Center 2494 is at   1.716696  1.940045 -2.916530
      ESP Fit Center 2495 is at   1.342433  1.746117 -2.916530
      ESP Fit Center 2496 is at   2.549941 -1.033844 -2.916530
      ESP Fit Center 2497 is at   2.947124 -0.892685 -2.916530
      ESP Fit Center 2498 is at   3.291495 -0.649601 -2.916530
      ESP Fit Center 2499 is at   3.557512 -0.322622 -2.916530
      ESP Fit Center 2500 is at   3.725447  0.064002 -2.916530
      ESP Fit Center 2501 is at   3.434416  0.481598 -3.144170
      ESP Fit Center 2502 is at   3.362084  0.891813 -3.144170
      ESP Fit Center 2503 is at   3.153812  1.252550 -3.144170
      ESP Fit Center 2504 is at   2.834722  1.520298 -3.144170
      ESP Fit Center 2505 is at   2.443300  1.662764 -3.144170
      ESP Fit Center 2506 is at   2.026757  1.662764 -3.144170
      ESP Fit Center 2507 is at   1.635334  1.520298 -3.144170
      ESP Fit Center 2508 is at   1.316244  1.252550 -3.144170
      ESP Fit Center 2509 is at   2.026757 -0.699568 -3.144170
      ESP Fit Center 2510 is at   2.443300 -0.699568 -3.144170
      ESP Fit Center 2511 is at   2.834722 -0.557102 -3.144170
      ESP Fit Center 2512 is at   3.153812 -0.289353 -3.144170
      ESP Fit Center 2513 is at   3.362084  0.071383 -3.144170
      ESP Fit Center 2514 is at   3.053271  0.481598 -3.311355
      ESP Fit Center 2515 is at   2.943647  0.890719 -3.311355
      ESP Fit Center 2516 is at   2.644149  1.190217 -3.311355
      ESP Fit Center 2517 is at   2.235028  1.299841 -3.311355
      ESP Fit Center 2518 is at   1.825907  1.190217 -3.311355
      ESP Fit Center 2519 is at   1.526409  0.890719 -3.311355
      ESP Fit Center 2520 is at   1.416786  0.481598 -3.311355
      ESP Fit Center 2521 is at   1.526409  0.072477 -3.311355
      ESP Fit Center 2522 is at   1.825907 -0.227021 -3.311355
      ESP Fit Center 2523 is at   2.235028 -0.336645 -3.311355
      ESP Fit Center 2524 is at   2.644149 -0.227021 -3.311355
      ESP Fit Center 2525 is at   2.943647  0.072477 -3.311355
      ESP Fit Center 2526 is at   2.649807  0.481598 -3.413526
      ESP Fit Center 2527 is at   2.442417  0.840807 -3.413526
      ESP Fit Center 2528 is at   2.027639  0.840807 -3.413526
      ESP Fit Center 2529 is at   1.820250  0.481598 -3.413526
      ESP Fit Center 2530 is at   2.027639  0.122390 -3.413526
      ESP Fit Center 2531 is at   2.442417  0.122390 -3.413526
      ESP Fit Center 2532 is at   2.235028  0.481598 -3.447896
      ESP Fit Center 2533 is at  -0.211757  2.558472 -1.652920
      ESP Fit Center 2534 is at   0.212346 -2.559692 -1.652920
      ESP Fit Center 2535 is at   0.000295  2.405108 -2.044349
      ESP Fit Center 2536 is at  -0.417454  2.368559 -2.044349
      ESP Fit Center 2537 is at   0.000295 -2.406328 -2.044349
      ESP Fit Center 2538 is at   0.418043 -2.369779 -2.044349
      ESP Fit Center 2539 is at   0.104230  2.181262 -2.405595
      ESP Fit Center 2540 is at  -0.310570  2.161502 -2.405595
      ESP Fit Center 2541 is at  -0.714135  2.063599 -2.405595
      ESP Fit Center 2542 is at  -0.310570 -2.162722 -2.405595
      ESP Fit Center 2543 is at   0.104230 -2.182482 -2.405595
      ESP Fit Center 2544 is at   0.515274 -2.123383 -2.405595
      ESP Fit Center 2545 is at   0.425129  1.860711 -2.727763
      ESP Fit Center 2546 is at   0.000295  1.908578 -2.727763
      ESP Fit Center 2547 is at  -0.424540  1.860711 -2.727763
      ESP Fit Center 2548 is at  -0.828071  1.719509 -2.727763
      ESP Fit Center 2549 is at  -0.424540 -1.861931 -2.727763
      ESP Fit Center 2550 is at   0.000295 -1.909798 -2.727763
      ESP Fit Center 2551 is at   0.425129 -1.861931 -2.727763
      ESP Fit Center 2552 is at   0.828661 -1.720729 -2.727763
      ESP Fit Center 2553 is at   0.793805  1.373790 -3.002920
      ESP Fit Center 2554 is at   0.411046  1.532334 -3.002920
      ESP Fit Center 2555 is at   0.000295  1.586410 -3.002920
      ESP Fit Center 2556 is at  -0.410456  1.532334 -3.002920
      ESP Fit Center 2557 is at  -0.793215  1.373790 -3.002920
      ESP Fit Center 2558 is at  -0.793215 -1.375010 -3.002920
      ESP Fit Center 2559 is at  -0.410456 -1.533554 -3.002920
      ESP Fit Center 2560 is at   0.000295 -1.587630 -3.002920
      ESP Fit Center 2561 is at   0.411046 -1.533554 -3.002920
      ESP Fit Center 2562 is at   0.793805 -1.375010 -3.002920
      ESP Fit Center 2563 is at   0.939292  0.787303 -3.224292
      ESP Fit Center 2564 is at   0.613182  1.060942 -3.224292
      ESP Fit Center 2565 is at   0.213148  1.206542 -3.224292
      ESP Fit Center 2566 is at  -0.212559  1.206542 -3.224292
      ESP Fit Center 2567 is at  -0.612592  1.060942 -3.224292
      ESP Fit Center 2568 is at  -0.938703  0.787303 -3.224292
      ESP Fit Center 2569 is at  -1.151556  0.418630 -3.224292
      ESP Fit Center 2570 is at  -0.938703 -0.788522 -3.224292
      ESP Fit Center 2571 is at  -0.612592 -1.062162 -3.224292
      ESP Fit Center 2572 is at  -0.212559 -1.207762 -3.224292
      ESP Fit Center 2573 is at   0.213148 -1.207762 -3.224292
      ESP Fit Center 2574 is at   0.613182 -1.062162 -3.224292
      ESP Fit Center 2575 is at   0.939292 -0.788522 -3.224292
      ESP Fit Center 2576 is at   1.152146 -0.419849 -3.224292
      ESP Fit Center 2577 is at   0.834641 -0.000610 -3.386427
      ESP Fit Center 2578 is at   0.722860  0.416563 -3.386427
      ESP Fit Center 2579 is at   0.417468  0.721955 -3.386427
      ESP Fit Center 2580 is at   0.000295  0.833736 -3.386427
      ESP Fit Center 2581 is at  -0.416878  0.721955 -3.386427
      ESP Fit Center 2582 is at  -0.722270  0.416563 -3.386427
      ESP Fit Center 2583 is at  -0.834051 -0.000610 -3.386427
      ESP Fit Center 2584 is at  -0.722270 -0.417783 -3.386427
      ESP Fit Center 2585 is at  -0.416878 -0.723175 -3.386427
      ESP Fit Center 2586 is at   0.000295 -0.834956 -3.386427
      ESP Fit Center 2587 is at   0.417468 -0.723175 -3.386427
      ESP Fit Center 2588 is at   0.722860 -0.417783 -3.386427
      ESP Fit Center 2589 is at   0.422668 -0.000610 -3.485333
      ESP Fit Center 2590 is at   0.211481  0.365176 -3.485333
      ESP Fit Center 2591 is at  -0.210892  0.365176 -3.485333
      ESP Fit Center 2592 is at  -0.422078 -0.000610 -3.485333
      ESP Fit Center 2593 is at  -0.210892 -0.366396 -3.485333
      ESP Fit Center 2594 is at   0.211481 -0.366396 -3.485333
      ESP Fit Center 2595 is at   0.000295 -0.000610 -3.518575
      ESP Fit Center 2596 is at  -2.958217  0.862478  2.373859
      ESP Fit Center 2597 is at  -3.132328  0.486145  2.373859
      ESP Fit Center 2598 is at  -3.294889  0.894500  2.102183
      ESP Fit Center 2599 is at  -3.452271  0.501380  2.102183
      ESP Fit Center 2600 is at  -3.532410  0.085579  2.102183
      ESP Fit Center 2601 is at  -3.532410 -0.337874  2.102183
      ESP Fit Center 2602 is at  -3.512970  1.063275  1.792395
      ESP Fit Center 2603 is at  -3.678766  0.685297  1.792395
      ESP Fit Center 2604 is at  -3.780088  0.285185  1.792395
      ESP Fit Center 2605 is at  -3.814172 -0.126147  1.792395
      ESP Fit Center 2606 is at  -3.780088 -0.537479  1.792395
      ESP Fit Center 2607 is at  -3.678766 -0.937592  1.792395
      ESP Fit Center 2608 is at  -3.845318  0.893618  1.449796
      ESP Fit Center 2609 is at  -3.971331  0.495433  1.449796
      ESP Fit Center 2610 is at  -4.035085  0.082678  1.449796
      ESP Fit Center 2611 is at  -4.035085 -0.334972  1.449796
      ESP Fit Center 2612 is at  -3.971331 -0.747727  1.449796
      ESP Fit Center 2613 is at  -3.845318 -1.145913  1.449796
      ESP Fit Center 2614 is at  -3.659998 -1.520196  1.449796
      ESP Fit Center 2615 is at  -3.962339  1.082802  1.080249
      ESP Fit Center 2616 is at  -4.107446  0.693757  1.080249
      ESP Fit Center 2617 is at  -4.195708  0.288020  1.080249
      ESP Fit Center 2618 is at  -4.225330 -0.126147  1.080249
      ESP Fit Center 2619 is at  -4.195708 -0.540315  1.080249
      ESP Fit Center 2620 is at  -4.107446 -0.946051  1.080249
      ESP Fit Center 2621 is at  -3.962339 -1.335096  1.080249
      ESP Fit Center 2622 is at  -3.763343 -1.699531  1.080249
      ESP Fit Center 2623 is at  -3.514507 -2.031936  1.080249
      ESP Fit Center 2624 is at  -4.105877  1.086054  0.690076
      ESP Fit Center 2625 is at  -4.244945  0.694754  0.690076
      ESP Fit Center 2626 is at  -4.329436  0.288162  0.690076
      ESP Fit Center 2627 is at  -4.357776 -0.126147  0.690076
      ESP Fit Center 2628 is at  -4.329436 -0.540457  0.690076
      ESP Fit Center 2629 is at  -4.244945 -0.947049  0.690076
      ESP Fit Center 2630 is at  -4.105877 -1.338349  0.690076
      ESP Fit Center 2631 is at  -3.914823 -1.707068  0.690076
      ESP Fit Center 2632 is at  -3.675340 -2.046337  0.690076
      ESP Fit Center 2633 is at  -3.391891 -2.349837  0.690076
      ESP Fit Center 2634 is at  -3.069755 -2.611914  0.690076
      ESP Fit Center 2635 is at  -2.714934 -2.827686  0.690076
      ESP Fit Center 2636 is at  -4.102492  1.282381  0.285954
      ESP Fit Center 2637 is at  -4.265359  0.898291  0.285954
      ESP Fit Center 2638 is at  -4.375580  0.495921  0.285954
      ESP Fit Center 2639 is at  -4.431187  0.082450  0.285954
      ESP Fit Center 2640 is at  -3.631327 -2.221042  0.285954
      ESP Fit Center 2641 is at  -3.331438 -2.511072  0.285954
      ESP Fit Center 2642 is at  -2.995568 -2.758543  0.285954
      ESP Fit Center 2643 is at  -2.629710 -2.959039  0.285954
      ESP Fit Center 2644 is at  -2.240393 -3.108981  0.285954
      ESP Fit Center 2645 is at  -1.834565 -3.205695  0.285954
      ESP Fit Center 2646 is at  -1.419466 -3.247454  0.285954
      ESP Fit Center 2647 is at  -1.002505 -3.233514  0.285954
      ESP Fit Center 2648 is at  -0.591123 -3.164122  0.285954
      ESP Fit Center 2649 is at  -4.043089  1.448853 -0.125204
      ESP Fit Center 2650 is at  -4.225330  1.079306 -0.125204
      ESP Fit Center 2651 is at  -4.357776  0.689133 -0.125204
      ESP Fit Center 2652 is at  -2.890109 -2.854127 -0.125204
      ESP Fit Center 2653 is at  -2.520562 -3.036368 -0.125204
      ESP Fit Center 2654 is at  -2.130389 -3.168814 -0.125204
      ESP Fit Center 2655 is at  -1.726267 -3.249199 -0.125204
      ESP Fit Center 2656 is at  -1.315109 -3.276147 -0.125204
      ESP Fit Center 2657 is at  -0.903952 -3.249199 -0.125204
      ESP Fit Center 2658 is at  -0.499829 -3.168814 -0.125204
      ESP Fit Center 2659 is at  -3.889883  1.641335 -0.536361
      ESP Fit Center 2660 is at  -4.102492  1.282381 -0.536361
      ESP Fit Center 2661 is at  -2.629710 -2.959039 -0.536361
      ESP Fit Center 2662 is at  -2.240393 -3.108981 -0.536361
      ESP Fit Center 2663 is at  -1.834565 -3.205695 -0.536361
      ESP Fit Center 2664 is at  -1.419466 -3.247454 -0.536361
      ESP Fit Center 2665 is at  -1.002505 -3.233514 -0.536361
      ESP Fit Center 2666 is at  -0.591123 -3.164122 -0.536361
      ESP Fit Center 2667 is at  -0.192660 -3.040518 -0.536361
      ESP Fit Center 2668 is at  -3.675340  1.794043 -0.940484
      ESP Fit Center 2669 is at  -3.914823  1.454773 -0.940484
      ESP Fit Center 2670 is at  -1.934158 -3.105173 -0.940484
      ESP Fit Center 2671 is at  -1.522748 -3.161720 -0.940484
      ESP Fit Center 2672 is at  -1.107470 -3.161720 -0.940484
      ESP Fit Center 2673 is at  -0.696061 -3.105173 -0.940484
      ESP Fit Center 2674 is at  -0.296182 -2.993133 -0.940484
      ESP Fit Center 2675 is at   0.084715 -2.827686 -0.940484
      ESP Fit Center 2676 is at  -3.220899  2.073251 -1.330656
      ESP Fit Center 2677 is at  -3.514507  1.779642 -1.330656
      ESP Fit Center 2678 is at  -1.729277 -3.006746 -1.330656
      ESP Fit Center 2679 is at  -1.315109 -3.036368 -1.330656
      ESP Fit Center 2680 is at  -0.900942 -3.006746 -1.330656
      ESP Fit Center 2681 is at  -0.495206 -2.918483 -1.330656
      ESP Fit Center 2682 is at  -0.106160 -2.773377 -1.330656
      ESP Fit Center 2683 is at  -0.795726  2.551933 -1.700204
      ESP Fit Center 2684 is at  -1.210620  2.599831 -1.700204
      ESP Fit Center 2685 is at  -2.431040  2.363144 -1.700204
      ESP Fit Center 2686 is at  -2.797951  2.163625 -1.700204
      ESP Fit Center 2687 is at  -3.130105  1.910435 -1.700204
      ESP Fit Center 2688 is at  -3.419716  1.609509 -1.700204
      ESP Fit Center 2689 is at  -1.627963 -2.836128 -1.700204
      ESP Fit Center 2690 is at  -1.210620 -2.852125 -1.700204
      ESP Fit Center 2691 is at  -0.795726 -2.804228 -1.700204
      ESP Fit Center 2692 is at  -0.393006 -2.693558 -1.700204
      ESP Fit Center 2693 is at  -1.108738  2.364380 -2.042802
      ESP Fit Center 2694 is at  -1.521480  2.364380 -2.042802
      ESP Fit Center 2695 is at  -1.928593  2.296445 -2.042802
      ESP Fit Center 2696 is at  -2.318972  2.162428 -2.042802
      ESP Fit Center 2697 is at  -2.681967  1.965985 -2.042802
      ESP Fit Center 2698 is at  -3.007679  1.712473 -2.042802
      ESP Fit Center 2699 is at  -1.108738 -2.616675 -2.042802
      ESP Fit Center 2700 is at  -0.701626 -2.548740 -2.042802
      ESP Fit Center 2701 is at  -0.311247 -2.414722 -2.042802
      ESP Fit Center 2702 is at  -1.209126  2.098716 -2.352590
      ESP Fit Center 2703 is at  -1.632100  2.078568 -2.352590
      ESP Fit Center 2704 is at  -2.043616  1.978735 -2.352590
      ESP Fit Center 2705 is at  -2.428803  1.802826 -2.352590
      ESP Fit Center 2706 is at  -2.773737  1.557199 -2.352590
      ESP Fit Center 2707 is at  -1.209126 -2.351011 -2.352590
      ESP Fit Center 2708 is at  -0.789983 -2.290747 -2.352590
      ESP Fit Center 2709 is at  -1.211293  1.788639 -2.624267
      ESP Fit Center 2710 is at  -1.625342  1.766190 -2.624267
      ESP Fit Center 2711 is at  -2.024886  1.655257 -2.624267
      ESP Fit Center 2712 is at  -2.391241  1.461028 -2.624267
      ESP Fit Center 2713 is at  -1.211293 -2.040933 -2.624267
      ESP Fit Center 2714 is at  -0.802097 -1.973849 -2.624267
      ESP Fit Center 2715 is at  -1.315109  1.448853 -2.853184
      ESP Fit Center 2716 is at  -1.722749  1.395186 -2.853184
      ESP Fit Center 2717 is at  -2.102609  1.237843 -2.853184
      ESP Fit Center 2718 is at  -0.907469 -1.647480 -2.853184
      ESP Fit Center 2719 is at  -1.524434  1.060992 -3.035424
      ESP Fit Center 2720 is at  -1.917836  0.917806 -3.035424
      ESP Fit Center 2721 is at  -1.105785 -1.313286 -3.035424
      ESP Fit Center 2722 is at  -1.315109  0.689133 -3.167870
      ESP Fit Center 2723 is at  -1.722749  0.579906 -3.167870
      ESP Fit Center 2724 is at  -1.520688  0.229926 -3.248255
      ESP Fit Center 2725 is at  -1.109531 -0.482220 -3.248255
      ESP Fit Center 2726 is at  -1.315109 -0.126147 -3.275204
      ESP Fit Center 2727 is at  -1.529461  1.376146  2.809330
      ESP Fit Center 2728 is at  -1.107496  1.376146  2.772413
      ESP Fit Center 2729 is at  -1.318478  1.741579  2.772413
      ESP Fit Center 2730 is at  -1.740444  1.741579  2.772413
      ESP Fit Center 2731 is at  -1.951426  1.376146  2.772413
      ESP Fit Center 2732 is at  -0.698352  1.376146  2.662783
      ESP Fit Center 2733 is at  -0.809700  1.791701  2.662783
      ESP Fit Center 2734 is at  -1.113907  2.095908  2.662783
      ESP Fit Center 2735 is at  -1.529461  2.207255  2.662783
      ESP Fit Center 2736 is at  -1.945015  2.095908  2.662783
      ESP Fit Center 2737 is at  -2.249222  1.791701  2.662783
      ESP Fit Center 2738 is at  -2.360570  1.376146  2.662783
      ESP Fit Center 2739 is at  -0.598717  2.157133  2.483772
      ESP Fit Center 2740 is at  -0.921961  2.428367  2.483772
      ESP Fit Center 2741 is at  -1.318478  2.572688  2.483772
      ESP Fit Center 2742 is at  -1.740444  2.572688  2.483772
      ESP Fit Center 2743 is at  -2.136961  2.428367  2.483772
      ESP Fit Center 2744 is at  -2.460205  2.157133  2.483772
      ESP Fit Center 2745 is at  -2.671188  1.791701  2.483772
      ESP Fit Center 2746 is at  -2.744461  1.376146  2.483772
      ESP Fit Center 2747 is at  -0.463331  2.517693  2.240818
      ESP Fit Center 2748 is at  -0.810851  2.763000  2.240818
      ESP Fit Center 2749 is at  -1.211668  2.905450  2.240818
      ESP Fit Center 2750 is at  -1.636054  2.934479  2.240818
      ESP Fit Center 2751 is at  -2.052534  2.847933  2.240818
      ESP Fit Center 2752 is at  -2.430221  2.652232  2.240818
      ESP Fit Center 2753 is at  -2.741102  2.361889  2.240818
      ESP Fit Center 2754 is at  -2.962121  1.998438  2.240818
      ESP Fit Center 2755 is at  -3.076887  1.588835  2.240818
      ESP Fit Center 2756 is at  -3.076887  1.163457  2.240818
      ESP Fit Center 2757 is at  -0.368842  2.831516  1.941304
      ESP Fit Center 2758 is at  -0.721792  3.053289  1.941304
      ESP Fit Center 2759 is at  -1.115241  3.190963  1.941304
      ESP Fit Center 2760 is at  -1.529461  3.237634  1.941304
      ESP Fit Center 2761 is at  -1.943681  3.190963  1.941304
      ESP Fit Center 2762 is at  -2.337130  3.053289  1.941304
      ESP Fit Center 2763 is at  -2.690080  2.831516  1.941304
      ESP Fit Center 2764 is at  -2.984831  2.536765  1.941304
      ESP Fit Center 2765 is at  -3.206604  2.183816  1.941304
      ESP Fit Center 2766 is at  -3.344278  1.790366  1.941304
      ESP Fit Center 2767 is at  -3.390949  1.376146  1.941304
      ESP Fit Center 2768 is at  -0.360296  3.125926  1.594330
      ESP Fit Center 2769 is at  -0.724126  3.320397  1.594330
      ESP Fit Center 2770 is at  -1.118905  3.440152  1.594330
      ESP Fit Center 2771 is at  -1.529461  3.480588  1.594330
      ESP Fit Center 2772 is at  -1.940017  3.440152  1.594330
      ESP Fit Center 2773 is at  -2.334796  3.320397  1.594330
      ESP Fit Center 2774 is at  -2.698626  3.125926  1.594330
      ESP Fit Center 2775 is at  -3.017526  2.864211  1.594330
      ESP Fit Center 2776 is at  -3.279240  2.545311  1.594330
      ESP Fit Center 2777 is at  -3.473712  2.181481  1.594330
      ESP Fit Center 2778 is at  -3.593466  1.786702  1.594330
      ESP Fit Center 2779 is at  -3.633903  1.376146  1.594330
      ESP Fit Center 2780 is at  -0.153373  3.198381  1.210439
      ESP Fit Center 2781 is at  -0.511638  3.420210  1.210439
      ESP Fit Center 2782 is at  -0.904564  3.572430  1.210439
      ESP Fit Center 2783 is at  -1.318771  3.649858  1.210439
      ESP Fit Center 2784 is at  -1.740151  3.649858  1.210439
      ESP Fit Center 2785 is at  -2.154358  3.572430  1.210439
      ESP Fit Center 2786 is at  -2.547284  3.420210  1.210439
      ESP Fit Center 2787 is at  -2.905549  3.198381  1.210439
      ESP Fit Center 2788 is at  -3.216953  2.914499  1.210439
      ESP Fit Center 2789 is at  -3.470892  2.578229  1.210439
      ESP Fit Center 2790 is at  -3.658718  2.201025  1.210439
      ESP Fit Center 2791 is at  -3.774034  1.795730  1.210439
      ESP Fit Center 2792 is at  -3.812914  1.376146  1.210439
      ESP Fit Center 2793 is at   0.008783  3.209354  0.801295
      ESP Fit Center 2794 is at  -0.332920  3.448617  0.801295
      ESP Fit Center 2795 is at  -0.710978  3.624908  0.801295
      ESP Fit Center 2796 is at  -1.113907  3.732873  0.801295
      ESP Fit Center 2797 is at  -1.529461  3.769229  0.801295
      ESP Fit Center 2798 is at  -1.945015  3.732873  0.801295
      ESP Fit Center 2799 is at  -2.347944  3.624908  0.801295
      ESP Fit Center 2800 is at  -2.726002  3.448617  0.801295
      ESP Fit Center 2801 is at  -3.067705  3.209354  0.801295
      ESP Fit Center 2802 is at  -3.362669  2.914390  0.801295
      ESP Fit Center 2803 is at  -3.601932  2.572688  0.801295
      ESP Fit Center 2804 is at  -3.778223  2.194629  0.801295
      ESP Fit Center 2805 is at  -3.886188  1.791701  0.801295
      ESP Fit Center 2806 is at   0.075979  3.200280  0.379330
      ESP Fit Center 2807 is at  -0.255394  3.445362  0.379330
      ESP Fit Center 2808 is at  -0.623420  3.630916  0.379330
      ESP Fit Center 2809 is at  -1.017510  3.751605  0.379330
      ESP Fit Center 2810 is at  -1.426329  3.803957  0.379330
      ESP Fit Center 2811 is at  -1.838114  3.786464  0.379330
      ESP Fit Center 2812 is at  -2.241020  3.699631  0.379330
      ESP Fit Center 2813 is at  -2.623456  3.545956  0.379330
      ESP Fit Center 2814 is at  -2.974420  3.329859  0.379330
      ESP Fit Center 2815 is at  -3.283814  3.057558  0.379330
      ESP Fit Center 2816 is at  -3.542739  2.736885  0.379330
      ESP Fit Center 2817 is at  -3.743746  2.377066  0.379330
      ESP Fit Center 2818 is at  -3.881052  1.988453  0.379330
      ESP Fit Center 2819 is at  -3.950707  1.582225  0.379330
      ESP Fit Center 2820 is at   0.008783  3.209354 -0.042635
      ESP Fit Center 2821 is at  -0.332920  3.448617 -0.042635
      ESP Fit Center 2822 is at  -0.710978  3.624908 -0.042635
      ESP Fit Center 2823 is at  -1.113907  3.732873 -0.042635
      ESP Fit Center 2824 is at  -1.529461  3.769229 -0.042635
      ESP Fit Center 2825 is at  -1.945015  3.732873 -0.042635
      ESP Fit Center 2826 is at  -2.347944  3.624908 -0.042635
      ESP Fit Center 2827 is at  -2.726002  3.448617 -0.042635
      ESP Fit Center 2828 is at  -3.067705  3.209354 -0.042635
      ESP Fit Center 2829 is at  -3.362669  2.914390 -0.042635
      ESP Fit Center 2830 is at  -3.601932  2.572688 -0.042635
      ESP Fit Center 2831 is at  -3.778223  2.194629 -0.042635
      ESP Fit Center 2832 is at  -3.886188  1.791701 -0.042635
      ESP Fit Center 2833 is at  -0.153373  3.198381 -0.451779
      ESP Fit Center 2834 is at  -0.511638  3.420210 -0.451779
      ESP Fit Center 2835 is at  -0.904564  3.572430 -0.451779
      ESP Fit Center 2836 is at  -1.318771  3.649858 -0.451779
      ESP Fit Center 2837 is at  -1.740151  3.649858 -0.451779
      ESP Fit Center 2838 is at  -2.154358  3.572430 -0.451779
      ESP Fit Center 2839 is at  -2.547284  3.420210 -0.451779
      ESP Fit Center 2840 is at  -2.905549  3.198381 -0.451779
      ESP Fit Center 2841 is at  -3.216953  2.914499 -0.451779
      ESP Fit Center 2842 is at  -3.470892  2.578229 -0.451779
      ESP Fit Center 2843 is at  -3.658718  2.201025 -0.451779
      ESP Fit Center 2844 is at  -0.360296  3.125926 -0.835670
      ESP Fit Center 2845 is at  -0.724126  3.320397 -0.835670
      ESP Fit Center 2846 is at  -1.118905  3.440152 -0.835670
      ESP Fit Center 2847 is at  -1.529461  3.480588 -0.835670
      ESP Fit Center 2848 is at  -1.940017  3.440152 -0.835670
      ESP Fit Center 2849 is at  -2.334796  3.320397 -0.835670
      ESP Fit Center 2850 is at  -2.698626  3.125926 -0.835670
      ESP Fit Center 2851 is at  -3.017526  2.864211 -0.835670
      ESP Fit Center 2852 is at  -3.279240  2.545311 -0.835670
      ESP Fit Center 2853 is at  -3.473712  2.181481 -0.835670
      ESP Fit Center 2854 is at  -0.368842  2.831516 -1.182644
      ESP Fit Center 2855 is at  -0.721792  3.053289 -1.182644
      ESP Fit Center 2856 is at  -1.115241  3.190963 -1.182644
      ESP Fit Center 2857 is at  -1.529461  3.237634 -1.182644
      ESP Fit Center 2858 is at  -1.943681  3.190963 -1.182644
      ESP Fit Center 2859 is at  -2.337130  3.053289 -1.182644
      ESP Fit Center 2860 is at  -2.690080  2.831516 -1.182644
      ESP Fit Center 2861 is at  -2.984831  2.536765 -1.182644
      ESP Fit Center 2862 is at  -3.206604  2.183816 -1.182644
      ESP Fit Center 2863 is at  -0.810851  2.763000 -1.482158
      ESP Fit Center 2864 is at  -1.211668  2.905450 -1.482158
      ESP Fit Center 2865 is at  -1.636054  2.934479 -1.482158
      ESP Fit Center 2866 is at  -2.052534  2.847933 -1.482158
      ESP Fit Center 2867 is at  -2.430221  2.652232 -1.482158
      ESP Fit Center 2868 is at  -2.741102  2.361889 -1.482158
      ESP Fit Center 2869 is at  -1.740444  2.572688 -1.725112
      ESP Fit Center 2870 is at  -1.253547 -0.763615  3.628630
      ESP Fit Center 2871 is at  -0.838768 -0.763615  3.594260
      ESP Fit Center 2872 is at  -1.046157 -0.404407  3.594260
      ESP Fit Center 2873 is at  -1.460936 -0.404407  3.594260
      ESP Fit Center 2874 is at  -1.668325 -0.763615  3.594260
      ESP Fit Center 2875 is at  -1.460936 -1.122824  3.594260
      ESP Fit Center 2876 is at  -1.046157 -1.122824  3.594260
      ESP Fit Center 2877 is at  -0.435304 -0.763615  3.492089
      ESP Fit Center 2878 is at  -0.544928 -0.354494  3.492089
      ESP Fit Center 2879 is at  -0.844425 -0.054996  3.492089
      ESP Fit Center 2880 is at  -1.253547  0.054627  3.492089
      ESP Fit Center 2881 is at  -1.662668 -0.054996  3.492089
      ESP Fit Center 2882 is at  -1.962165 -0.354494  3.492089
      ESP Fit Center 2883 is at  -2.071789 -0.763615  3.492089
      ESP Fit Center 2884 is at  -1.962165 -1.172737  3.492089
      ESP Fit Center 2885 is at  -1.662668 -1.472234  3.492089
      ESP Fit Center 2886 is at  -1.253547 -1.581858  3.492089
      ESP Fit Center 2887 is at  -0.844425 -1.472234  3.492089
      ESP Fit Center 2888 is at  -0.544928 -1.172737  3.492089
      ESP Fit Center 2889 is at  -0.054159 -0.763615  3.324903
      ESP Fit Center 2890 is at  -0.126491 -0.353401  3.324903
      ESP Fit Center 2891 is at  -0.334762  0.007336  3.324903
      ESP Fit Center 2892 is at  -0.653853  0.275085  3.324903
      ESP Fit Center 2893 is at  -1.045275  0.417551  3.324903
      ESP Fit Center 2894 is at  -1.461818  0.417551  3.324903
      ESP Fit Center 2895 is at  -1.853240  0.275085  3.324903
      ESP Fit Center 2896 is at  -2.172331  0.007336  3.324903
      ESP Fit Center 2897 is at  -2.380602 -0.353401  3.324903
      ESP Fit Center 2898 is at  -2.452934 -0.763615  3.324903
      ESP Fit Center 2899 is at  -2.380602 -1.173830  3.324903
      ESP Fit Center 2900 is at  -2.172331 -1.534567  3.324903
      ESP Fit Center 2901 is at  -1.853240 -1.802315  3.324903
      ESP Fit Center 2902 is at  -1.461818 -1.944781  3.324903
      ESP Fit Center 2903 is at  -1.045275 -1.944781  3.324903
      ESP Fit Center 2904 is at  -0.653853 -1.802315  3.324903
      ESP Fit Center 2905 is at  -0.334762 -1.534567  3.324903
      ESP Fit Center 2906 is at  -0.126491 -1.173830  3.324903
      ESP Fit Center 2907 is at   0.294270 -0.763615  3.097264
      ESP Fit Center 2908 is at  -0.541450  0.610668  3.097264
      ESP Fit Center 2909 is at  -0.938634  0.751827  3.097264
      ESP Fit Center 2910 is at  -1.359173  0.780592  3.097264
      ESP Fit Center 2911 is at  -1.771879  0.694831  3.097264
      ESP Fit Center 2912 is at  -2.146142  0.500904  3.097264
      ESP Fit Center 2913 is at  -2.454205  0.213193  3.097264
      ESP Fit Center 2914 is at  -2.673221 -0.146964  3.097264
      ESP Fit Center 2915 is at  -2.786946 -0.552854  3.097264
      ESP Fit Center 2916 is at  -2.786946 -0.974376  3.097264
      ESP Fit Center 2917 is at  -2.673221 -1.380267  3.097264
      ESP Fit Center 2918 is at  -2.454205 -1.740423  3.097264
      ESP Fit Center 2919 is at  -2.146142 -2.028134  3.097264
      ESP Fit Center 2920 is at  -1.771879 -2.222062  3.097264
      ESP Fit Center 2921 is at  -1.359173 -2.307823  3.097264
      ESP Fit Center 2922 is at  -0.938634 -2.279057  3.097264
      ESP Fit Center 2923 is at  -0.541450 -2.137898  3.097264
      ESP Fit Center 2924 is at  -0.197080 -1.894815  3.097264
      ESP Fit Center 2925 is at   0.068938 -1.567836  3.097264
      ESP Fit Center 2926 is at   0.236872 -1.181211  3.097264
      ESP Fit Center 2927 is at  -0.931599  1.062242  2.815379
      ESP Fit Center 2928 is at  -1.361348  1.087272  2.815379
      ESP Fit Center 2929 is at  -1.785287  1.012520  2.815379
      ESP Fit Center 2930 is at  -2.180559  0.842017  2.815379
      ESP Fit Center 2931 is at  -2.525855  0.584953  2.815379
      ESP Fit Center 2932 is at  -2.802561  0.255188  2.815379
      ESP Fit Center 2933 is at  -2.995759 -0.129502  2.815379
      ESP Fit Center 2934 is at  -3.095035 -0.548376  2.815379
      ESP Fit Center 2935 is at  -3.095035 -0.978854  2.815379
      ESP Fit Center 2936 is at  -2.995759 -1.397729  2.815379
      ESP Fit Center 2937 is at  -2.802561 -1.782418  2.815379
      ESP Fit Center 2938 is at  -2.525855 -2.112184  2.815379
      ESP Fit Center 2939 is at  -2.180559 -2.369247  2.815379
      ESP Fit Center 2940 is at  -1.785287 -2.539751  2.815379
      ESP Fit Center 2941 is at  -1.361348 -2.614503  2.815379
      ESP Fit Center 2942 is at  -0.931599 -2.589473  2.815379
      ESP Fit Center 2943 is at  -0.519205 -2.466010  2.815379
      ESP Fit Center 2944 is at  -0.146400 -2.250771  2.815379
      ESP Fit Center 2945 is at   0.166718 -1.955359  2.815379
      ESP Fit Center 2946 is at   0.403270 -1.595700  2.815379
      ESP Fit Center 2947 is at   0.550502 -1.191183  2.815379
      ESP Fit Center 2948 is at  -3.098120  0.260207  2.486939
      ESP Fit Center 2949 is at  -3.266455 -0.132061  2.486939
      ESP Fit Center 2950 is at  -3.352382 -0.550185  2.486939
      ESP Fit Center 2951 is at  -3.352382 -0.977046  2.486939
      ESP Fit Center 2952 is at  -3.266455 -1.395170  2.486939
      ESP Fit Center 2953 is at  -3.098120 -1.787437  2.486939
      ESP Fit Center 2954 is at  -2.854268 -2.137789  2.486939
      ESP Fit Center 2955 is at  -2.544882 -2.431883  2.486939
      ESP Fit Center 2956 is at  -2.182628 -2.657677  2.486939
      ESP Fit Center 2957 is at  -1.782338 -2.805928  2.486939
      ESP Fit Center 2958 is at  -1.360399 -2.870567  2.486939
      ESP Fit Center 2959 is at  -0.934085 -2.848947  2.486939
      ESP Fit Center 2960 is at  -0.520851 -2.741953  2.486939
      ESP Fit Center 2961 is at  -0.137613 -2.553966  2.486939
      ESP Fit Center 2962 is at   0.199939 -2.292681  2.486939
      ESP Fit Center 2963 is at  -3.522001 -0.339568  2.120902
      ESP Fit Center 2964 is at  -3.561295 -0.763615  2.120902
      ESP Fit Center 2965 is at  -3.522001 -1.187663  2.120902
      ESP Fit Center 2966 is at  -3.405458 -1.597270  2.120902
      ESP Fit Center 2967 is at  -3.215634 -1.978488  2.120902
      ESP Fit Center 2968 is at  -2.958993 -2.318336  2.120902
      ESP Fit Center 2969 is at  -2.644276 -2.605239  2.120902
      ESP Fit Center 2970 is at  -2.282199 -2.829427  2.120902
      ESP Fit Center 2971 is at  -1.885092 -2.983267  2.120902
      ESP Fit Center 2972 is at  -1.466479 -3.061520  2.120902
      ESP Fit Center 2973 is at  -1.040614 -3.061520  2.120902
      ESP Fit Center 2974 is at  -0.622001 -2.983267  2.120902
      ESP Fit Center 2975 is at  -0.224894 -2.829427  2.120902
      ESP Fit Center 2976 is at   0.137183 -2.605239  2.120902
      ESP Fit Center 2977 is at  -3.659322 -1.187818  1.727253
      ESP Fit Center 2978 is at  -3.549111 -1.599132  1.727253
      ESP Fit Center 2979 is at  -3.369150 -1.985060  1.727253
      ESP Fit Center 2980 is at  -3.124908 -2.333874  1.727253
      ESP Fit Center 2981 is at  -2.823805 -2.634977  1.727253
      ESP Fit Center 2982 is at  -2.474991 -2.879219  1.727253
      ESP Fit Center 2983 is at  -2.089064 -3.059180  1.727253
      ESP Fit Center 2984 is at  -1.677750 -3.169391  1.727253
      ESP Fit Center 2985 is at  -1.253547 -3.206504  1.727253
      ESP Fit Center 2986 is at  -0.829343 -3.169391  1.727253
      ESP Fit Center 2987 is at  -0.418029 -3.059180  1.727253
      ESP Fit Center 2988 is at  -0.032102 -2.879219  1.727253
      ESP Fit Center 2989 is at  -3.334260 -2.169932  1.316730
      ESP Fit Center 2990 is at  -3.066662 -2.501346  1.316730
      ESP Fit Center 2991 is at  -2.746904 -2.782768  1.316730
      ESP Fit Center 2992 is at  -2.384185 -3.006103  1.316730
      ESP Fit Center 2993 is at  -1.988940 -3.164926  1.316730
      ESP Fit Center 2994 is at  -1.572538 -3.254667  1.316730
      ESP Fit Center 2995 is at  -1.146960 -3.272745  1.316730
      ESP Fit Center 2996 is at  -0.724448 -3.218641  1.316730
      ESP Fit Center 2997 is at  -0.317157 -3.093909  1.316730
      ESP Fit Center 2998 is at  -2.746904 -2.782768  0.900530
      ESP Fit Center 2999 is at  -2.384185 -3.006103  0.900530
      ESP Fit Center 3000 is at  -1.988940 -3.164926  0.900530
      ESP Fit Center 3001 is at  -1.572538 -3.254667  0.900530
      ESP Fit Center 3002 is at  -1.146960 -3.272745  0.900530
      ESP Fit Center 3003 is at  -0.724448 -3.218641  0.900530
      ESP Fit Center 3004 is at  -0.317157 -3.093909  0.900530
      ESP Fit Center 3005 is at  -4.503473 -0.058570  0.085335
      ESP Fit Center 3006 is at  -4.542767 -0.482618  0.085335
      ESP Fit Center 3007 is at  -4.503473 -0.906665  0.085335
      ESP Fit Center 3008 is at  -4.386930 -1.316273  0.085335
      ESP Fit Center 3009 is at  -4.197106 -1.697491  0.085335
      ESP Fit Center 3010 is at  -3.940465 -2.037338  0.085335
      ESP Fit Center 3011 is at  -3.625748 -2.324241  0.085335
      ESP Fit Center 3012 is at  -4.350622  0.738827 -0.308314
      ESP Fit Center 3013 is at  -4.530583  0.352900 -0.308314
      ESP Fit Center 3014 is at  -4.640794 -0.058414 -0.308314
      ESP Fit Center 3015 is at  -4.677907 -0.482618 -0.308314
      ESP Fit Center 3016 is at  -4.640794 -0.906821 -0.308314
      ESP Fit Center 3017 is at  -4.530583 -1.318135 -0.308314
      ESP Fit Center 3018 is at  -4.350622 -1.704062 -0.308314
      ESP Fit Center 3019 is at  -4.106379 -2.052876 -0.308314
      ESP Fit Center 3020 is at  -3.805277 -2.353979 -0.308314
      ESP Fit Center 3021 is at  -3.456462 -2.598221 -0.308314
      ESP Fit Center 3022 is at  -3.070535 -2.778182 -0.308314
      ESP Fit Center 3023 is at  -4.315731  0.923699 -0.718838
      ESP Fit Center 3024 is at  -4.523471  0.551828 -0.718838
      ESP Fit Center 3025 is at  -4.665376  0.150198 -0.718838
      ESP Fit Center 3026 is at  -4.737364 -0.269637 -0.718838
      ESP Fit Center 3027 is at  -4.737364 -0.695599 -0.718838
      ESP Fit Center 3028 is at  -4.665376 -1.115434 -0.718838
      ESP Fit Center 3029 is at  -4.523471 -1.517063 -0.718838
      ESP Fit Center 3030 is at  -4.315731 -1.888934 -0.718838
      ESP Fit Center 3031 is at  -4.048134 -2.220348 -0.718838
      ESP Fit Center 3032 is at  -3.728376 -2.501770 -0.718838
      ESP Fit Center 3033 is at  -3.365657 -2.725105 -0.718838
      ESP Fit Center 3034 is at  -2.970411 -2.883928 -0.718838
      ESP Fit Center 3035 is at  -2.554010 -2.973669 -0.718838
      ESP Fit Center 3036 is at  -4.048134  1.255113 -1.135038
      ESP Fit Center 3037 is at  -4.315731  0.923699 -1.135038
      ESP Fit Center 3038 is at  -4.523471  0.551828 -1.135038
      ESP Fit Center 3039 is at  -4.665376  0.150198 -1.135038
      ESP Fit Center 3040 is at  -4.737364 -0.269637 -1.135038
      ESP Fit Center 3041 is at  -4.737364 -0.695599 -1.135038
      ESP Fit Center 3042 is at  -4.665376 -1.115434 -1.135038
      ESP Fit Center 3043 is at  -4.523471 -1.517063 -1.135038
      ESP Fit Center 3044 is at  -4.315731 -1.888934 -1.135038
      ESP Fit Center 3045 is at  -4.048134 -2.220348 -1.135038
      ESP Fit Center 3046 is at  -3.728376 -2.501770 -1.135038
      ESP Fit Center 3047 is at  -3.365657 -2.725105 -1.135038
      ESP Fit Center 3048 is at  -2.970411 -2.883928 -1.135038
      ESP Fit Center 3049 is at  -2.554010 -2.973669 -1.135038
      ESP Fit Center 3050 is at  -3.805277  1.388744 -1.545561
      ESP Fit Center 3051 is at  -4.106379  1.087641 -1.545561
      ESP Fit Center 3052 is at  -4.350622  0.738827 -1.545561
      ESP Fit Center 3053 is at  -4.530583  0.352900 -1.545561
      ESP Fit Center 3054 is at  -4.640794 -0.058414 -1.545561
      ESP Fit Center 3055 is at  -4.677907 -0.482618 -1.545561
      ESP Fit Center 3056 is at  -4.640794 -0.906821 -1.545561
      ESP Fit Center 3057 is at  -4.530583 -1.318135 -1.545561
      ESP Fit Center 3058 is at  -4.350622 -1.704062 -1.545561
      ESP Fit Center 3059 is at  -4.106379 -2.052876 -1.545561
      ESP Fit Center 3060 is at  -3.805277 -2.353979 -1.545561
      ESP Fit Center 3061 is at  -3.456462 -2.598221 -1.545561
      ESP Fit Center 3062 is at  -3.070535 -2.778182 -1.545561
      ESP Fit Center 3063 is at  -2.659221 -2.888393 -1.545561
      ESP Fit Center 3064 is at  -2.235018 -2.925506 -1.545561
      ESP Fit Center 3065 is at  -3.263670  1.583194 -1.939210
      ESP Fit Center 3066 is at  -3.625748  1.359006 -1.939210
      ESP Fit Center 3067 is at  -3.940465  1.072103 -1.939210
      ESP Fit Center 3068 is at  -4.197106  0.732256 -1.939210
      ESP Fit Center 3069 is at  -4.386930  0.351037 -1.939210
      ESP Fit Center 3070 is at  -4.503473 -0.058570 -1.939210
      ESP Fit Center 3071 is at  -4.542767 -0.482618 -1.939210
      ESP Fit Center 3072 is at  -4.503473 -0.906665 -1.939210
      ESP Fit Center 3073 is at  -4.386930 -1.316273 -1.939210
      ESP Fit Center 3074 is at  -4.197106 -1.697491 -1.939210
      ESP Fit Center 3075 is at  -3.940465 -2.037338 -1.939210
      ESP Fit Center 3076 is at  -3.625748 -2.324241 -1.939210
      ESP Fit Center 3077 is at  -3.263670 -2.548430 -1.939210
      ESP Fit Center 3078 is at  -2.866564 -2.702270 -1.939210
      ESP Fit Center 3079 is at  -2.447950 -2.780522 -1.939210
      ESP Fit Center 3080 is at  -2.022086 -2.780522 -1.939210
      ESP Fit Center 3081 is at  -1.603473 -2.702270 -1.939210
      ESP Fit Center 3082 is at  -3.164100  1.411444 -2.305247
      ESP Fit Center 3083 is at  -3.526353  1.185650 -2.305247
      ESP Fit Center 3084 is at  -3.835739  0.891557 -2.305247
      ESP Fit Center 3085 is at  -4.079592  0.541204 -2.305247
      ESP Fit Center 3086 is at  -4.247927  0.148937 -2.305247
      ESP Fit Center 3087 is at  -4.333854 -0.269187 -2.305247
      ESP Fit Center 3088 is at  -4.333854 -0.696048 -2.305247
      ESP Fit Center 3089 is at  -4.247927 -1.114172 -2.305247
      ESP Fit Center 3090 is at  -4.079592 -1.506440 -2.305247
      ESP Fit Center 3091 is at  -3.835739 -1.856792 -2.305247
      ESP Fit Center 3092 is at  -3.526353 -2.150885 -2.305247
      ESP Fit Center 3093 is at  -3.164100 -2.376680 -2.305247
      ESP Fit Center 3094 is at  -2.763810 -2.524931 -2.305247
      ESP Fit Center 3095 is at  -2.341871 -2.589569 -2.305247
      ESP Fit Center 3096 is at  -1.915557 -2.567949 -2.305247
      ESP Fit Center 3097 is at  -1.502322 -2.460955 -2.305247
      ESP Fit Center 3098 is at  -2.766758  1.293518 -2.633687
      ESP Fit Center 3099 is at  -3.162030  1.123014 -2.633687
      ESP Fit Center 3100 is at  -3.507327  0.865951 -2.633687
      ESP Fit Center 3101 is at  -3.784033  0.536185 -2.633687
      ESP Fit Center 3102 is at  -3.977231  0.151496 -2.633687
      ESP Fit Center 3103 is at  -4.076506 -0.267379 -2.633687
      ESP Fit Center 3104 is at  -4.076506 -0.697857 -2.633687
      ESP Fit Center 3105 is at  -3.977231 -1.116731 -2.633687
      ESP Fit Center 3106 is at  -3.784033 -1.501421 -2.633687
      ESP Fit Center 3107 is at  -3.507327 -1.831186 -2.633687
      ESP Fit Center 3108 is at  -3.162030 -2.088250 -2.633687
      ESP Fit Center 3109 is at  -2.766758 -2.258753 -2.633687
      ESP Fit Center 3110 is at  -2.342820 -2.333505 -2.633687
      ESP Fit Center 3111 is at  -1.913070 -2.308475 -2.633687
      ESP Fit Center 3112 is at  -1.500677 -2.185013 -2.633687
      ESP Fit Center 3113 is at  -2.340645  1.061590 -2.915572
      ESP Fit Center 3114 is at  -2.753350  0.975829 -2.915572
      ESP Fit Center 3115 is at  -3.127613  0.781901 -2.915572
      ESP Fit Center 3116 is at  -3.435677  0.494190 -2.915572
      ESP Fit Center 3117 is at  -3.654693  0.134034 -2.915572
      ESP Fit Center 3118 is at  -3.768418 -0.271857 -2.915572
      ESP Fit Center 3119 is at  -3.768418 -0.693379 -2.915572
      ESP Fit Center 3120 is at  -3.654693 -1.099269 -2.915572
      ESP Fit Center 3121 is at  -3.435677 -1.459426 -2.915572
      ESP Fit Center 3122 is at  -3.127613 -1.747137 -2.915572
      ESP Fit Center 3123 is at  -2.753350 -1.941064 -2.915572
      ESP Fit Center 3124 is at  -2.340645 -2.026825 -2.915572
      ESP Fit Center 3125 is at  -1.920106 -1.998060 -2.915572
      ESP Fit Center 3126 is at  -1.522922 -1.856901 -2.915572
      ESP Fit Center 3127 is at  -1.178551 -1.613817 -2.915572
      ESP Fit Center 3128 is at  -2.026747  0.698548 -3.143212
      ESP Fit Center 3129 is at  -2.443290  0.698548 -3.143212
      ESP Fit Center 3130 is at  -2.834712  0.556082 -3.143212
      ESP Fit Center 3131 is at  -3.153802  0.288334 -3.143212
      ESP Fit Center 3132 is at  -3.362074 -0.072403 -3.143212
      ESP Fit Center 3133 is at  -3.434406 -0.482618 -3.143212
      ESP Fit Center 3134 is at  -3.362074 -0.892832 -3.143212
      ESP Fit Center 3135 is at  -3.153802 -1.253569 -3.143212
      ESP Fit Center 3136 is at  -2.834712 -1.521318 -3.143212
      ESP Fit Center 3137 is at  -2.443290 -1.663784 -3.143212
      ESP Fit Center 3138 is at  -2.026747 -1.663784 -3.143212
      ESP Fit Center 3139 is at  -1.635324 -1.521318 -3.143212
      ESP Fit Center 3140 is at  -1.316234 -1.253569 -3.143212
      ESP Fit Center 3141 is at  -1.416775 -0.482618 -3.310397
      ESP Fit Center 3142 is at  -1.526399 -0.073496 -3.310397
      ESP Fit Center 3143 is at  -1.825897  0.226001 -3.310397
      ESP Fit Center 3144 is at  -2.235018  0.335625 -3.310397
      ESP Fit Center 3145 is at  -2.644139  0.226001 -3.310397
      ESP Fit Center 3146 is at  -2.943637 -0.073496 -3.310397
      ESP Fit Center 3147 is at  -3.053261 -0.482618 -3.310397
      ESP Fit Center 3148 is at  -2.943637 -0.891739 -3.310397
      ESP Fit Center 3149 is at  -2.644139 -1.191237 -3.310397
      ESP Fit Center 3150 is at  -2.235018 -1.300860 -3.310397
      ESP Fit Center 3151 is at  -1.825897 -1.191237 -3.310397
      ESP Fit Center 3152 is at  -1.526399 -0.891739 -3.310397
      ESP Fit Center 3153 is at  -1.820240 -0.482618 -3.412568
      ESP Fit Center 3154 is at  -2.027629 -0.123409 -3.412568
      ESP Fit Center 3155 is at  -2.442407 -0.123409 -3.412568
      ESP Fit Center 3156 is at  -2.649797 -0.482618 -3.412568
      ESP Fit Center 3157 is at  -2.442407 -0.841826 -3.412568
      ESP Fit Center 3158 is at  -2.027629 -0.841826 -3.412568
      ESP Fit Center 3159 is at  -2.235018 -0.482618 -3.446938
      ESP Fit Center 3160 is at   2.464980 -1.024276  2.974164
      ESP Fit Center 3161 is at   2.923358 -1.042795  2.755512
      ESP Fit Center 3162 is at   3.131184 -0.682829  2.755512
      ESP Fit Center 3163 is at   3.259628 -0.287520  2.755512
      ESP Fit Center 3164 is at   3.635778  0.125855  2.494856
      ESP Fit Center 3165 is at   3.307248 -1.064548  2.494856
      ESP Fit Center 3166 is at   3.487784 -0.689661  2.494856
      ESP Fit Center 3167 is at   3.598480 -0.288563  2.494856
      ESP Fit Center 3168 is at   3.934636  0.125855  2.195998
      ESP Fit Center 3169 is at   3.900711  0.546099  2.195998
      ESP Fit Center 3170 is at   3.634555 -1.091621  2.195998
      ESP Fit Center 3171 is at   3.799813 -0.703748  2.195998
      ESP Fit Center 3172 is at   3.900711 -0.294388  2.195998
      ESP Fit Center 3173 is at   4.195292  0.125855  1.863295
      ESP Fit Center 3174 is at   4.164596  0.545251  1.863295
      ESP Fit Center 3175 is at   4.073163  0.955708  1.863295
      ESP Fit Center 3176 is at   3.922941  1.348479  1.863295
      ESP Fit Center 3177 is at   3.922941 -1.096768  1.863295
      ESP Fit Center 3178 is at   4.073163 -0.703998  1.863295
      ESP Fit Center 3179 is at   4.164596 -0.293541  1.863295
      ESP Fit Center 3180 is at   4.413945  0.125855  1.501599
      ESP Fit Center 3181 is at   4.385080  0.547849  1.501599
      ESP Fit Center 3182 is at   4.299022  0.961981  1.501599
      ESP Fit Center 3183 is at   4.157375  1.360538  1.501599
      ESP Fit Center 3184 is at   3.962777  1.736096  1.501599
      ESP Fit Center 3185 is at   3.718853  2.081657  1.501599
      ESP Fit Center 3186 is at   4.157375 -1.108828  1.501599
      ESP Fit Center 3187 is at   4.299022 -0.710271  1.501599
      ESP Fit Center 3188 is at   4.385080 -0.296138  1.501599
      ESP Fit Center 3189 is at   4.587406  0.125855  1.116185
      ESP Fit Center 3190 is at   4.560538  0.544340  1.116185
      ESP Fit Center 3191 is at   4.480376  0.955954  1.116185
      ESP Fit Center 3192 is at   4.348237  1.353938  1.116185
      ESP Fit Center 3193 is at   4.166289  1.731756  1.116185
      ESP Fit Center 3194 is at   3.937520  2.083206  1.116185
      ESP Fit Center 3195 is at   3.665688  2.402516  1.116185
      ESP Fit Center 3196 is at   3.355255  2.684443  1.116185
      ESP Fit Center 3197 is at   4.166289 -1.480046  1.116185
      ESP Fit Center 3198 is at   4.348237 -1.102227  1.116185
      ESP Fit Center 3199 is at   4.480376 -0.704244  1.116185
      ESP Fit Center 3200 is at   4.560538 -0.292630  1.116185
      ESP Fit Center 3201 is at   4.713145  0.125855  0.712673
      ESP Fit Center 3202 is at   4.687388  0.543466  0.712673
      ESP Fit Center 3203 is at   4.610506  0.954746  0.712673
      ESP Fit Center 3204 is at   4.483666  1.353461  0.712673
      ESP Fit Center 3205 is at   4.308789  1.733567  0.712673
      ESP Fit Center 3206 is at   4.088528  2.089302  0.712673
      ESP Fit Center 3207 is at   3.826220  2.415273  0.712673
      ESP Fit Center 3208 is at   3.525843  2.706538  0.712673
      ESP Fit Center 3209 is at   3.191949  2.958683  0.712673
      ESP Fit Center 3210 is at   2.829600  3.167885  0.712673
      ESP Fit Center 3211 is at   2.444289  3.330973  0.712673
      ESP Fit Center 3212 is at   2.041857  3.445475  0.712673
      ESP Fit Center 3213 is at   4.308789 -1.481857  0.712673
      ESP Fit Center 3214 is at   4.483666 -1.101751  0.712673
      ESP Fit Center 3215 is at   4.610506 -0.703036  0.712673
      ESP Fit Center 3216 is at   4.687388 -0.291756  0.712673
      ESP Fit Center 3217 is at   4.789330  0.125855  0.296947
      ESP Fit Center 3218 is at   4.763997  0.544658  0.296947
      ESP Fit Center 3219 is at   4.174291  2.099585  0.296947
      ESP Fit Center 3220 is at   3.915535  2.429862  0.296947
      ESP Fit Center 3221 is at   3.618856  2.726542  0.296947
      ESP Fit Center 3222 is at   3.288579  2.985297  0.296947
      ESP Fit Center 3223 is at   2.929521  3.202355  0.296947
      ESP Fit Center 3224 is at   2.546917  3.374551  0.296947
      ESP Fit Center 3225 is at   2.146346  3.499374  0.296947
      ESP Fit Center 3226 is at   1.733651  3.575003  0.296947
      ESP Fit Center 3227 is at   1.314849  3.600336  0.296947
      ESP Fit Center 3228 is at   0.896046  3.575003  0.296947
      ESP Fit Center 3229 is at   0.483351  3.499374  0.296947
      ESP Fit Center 3230 is at   4.391349 -1.488817  0.296947
      ESP Fit Center 3231 is at   4.563545 -1.106213  0.296947
      ESP Fit Center 3232 is at   4.688368 -0.705643  0.296947
      ESP Fit Center 3233 is at   4.763997 -0.292947  0.296947
      ESP Fit Center 3234 is at   3.355277  2.969559 -0.124932
      ESP Fit Center 3235 is at   3.004621  3.190927 -0.124932
      ESP Fit Center 3236 is at   2.630245  3.369269 -0.124932
      ESP Fit Center 3237 is at   2.237404  3.502080 -0.124932
      ESP Fit Center 3238 is at   1.831612  3.587496 -0.124932
      ESP Fit Center 3239 is at   1.418565  3.624318 -0.124932
      ESP Fit Center 3240 is at   1.004063  3.612030 -0.124932
      ESP Fit Center 3241 is at   0.593924  3.550803 -0.124932
      ESP Fit Center 3242 is at   0.193904  3.441497 -0.124932
      ESP Fit Center 3243 is at   4.217769 -1.829409 -0.124932
      ESP Fit Center 3244 is at   4.428649 -1.472347 -0.124932
      ESP Fit Center 3245 is at   4.595818 -1.092851 -0.124932
      ESP Fit Center 3246 is at   4.716929 -0.696246 -0.124932
      ESP Fit Center 3247 is at   2.929521  3.202355 -0.546810
      ESP Fit Center 3248 is at   2.546917  3.374551 -0.546810
      ESP Fit Center 3249 is at   2.146346  3.499374 -0.546810
      ESP Fit Center 3250 is at   1.733651  3.575003 -0.546810
      ESP Fit Center 3251 is at   1.314849  3.600336 -0.546810
      ESP Fit Center 3252 is at   0.896046  3.575003 -0.546810
      ESP Fit Center 3253 is at   0.483351  3.499374 -0.546810
      ESP Fit Center 3254 is at   0.082781  3.374551 -0.546810
      ESP Fit Center 3255 is at   4.174291 -1.847875 -0.546810
      ESP Fit Center 3256 is at   4.391349 -1.488817 -0.546810
      ESP Fit Center 3257 is at   4.563545 -1.106213 -0.546810
      ESP Fit Center 3258 is at   2.444289  3.330973 -0.962536
      ESP Fit Center 3259 is at   2.041857  3.445475 -0.962536
      ESP Fit Center 3260 is at   1.628404  3.509655 -0.962536
      ESP Fit Center 3261 is at   1.210198  3.522540 -0.962536
      ESP Fit Center 3262 is at   0.793578  3.483934 -0.962536
      ESP Fit Center 3263 is at   0.384861  3.394424 -0.962536
      ESP Fit Center 3264 is at  -0.009759  3.255365 -0.962536
      ESP Fit Center 3265 is at   3.826220 -2.163562 -0.962536
      ESP Fit Center 3266 is at   4.088528 -1.837592 -0.962536
      ESP Fit Center 3267 is at   4.308789 -1.481857 -0.962536
      ESP Fit Center 3268 is at   2.245981  3.263150 -1.366049
      ESP Fit Center 3269 is at   1.837148  3.356464 -1.366049
      ESP Fit Center 3270 is at   1.419739  3.396731 -1.366049
      ESP Fit Center 3271 is at   1.000608  3.383290 -1.366049
      ESP Fit Center 3272 is at   0.586636  3.316362 -1.366049
      ESP Fit Center 3273 is at   0.184622  3.197046 -1.366049
      ESP Fit Center 3274 is at  -0.198834  3.027302 -1.366049
      ESP Fit Center 3275 is at   3.355255 -2.432733 -1.366049
      ESP Fit Center 3276 is at   3.665688 -2.150806 -1.366049
      ESP Fit Center 3277 is at   3.937520 -1.831496 -1.366049
      ESP Fit Center 3278 is at   1.945378  3.160131 -1.751463
      ESP Fit Center 3279 is at   1.526339  3.217727 -1.751463
      ESP Fit Center 3280 is at   1.103359  3.217727 -1.751463
      ESP Fit Center 3281 is at   0.684319  3.160131 -1.751463
      ESP Fit Center 3282 is at   0.277025  3.046012 -1.751463
      ESP Fit Center 3283 is at  -0.110937  2.877497 -1.751463
      ESP Fit Center 3284 is at   0.684319 -2.908421 -1.751463
      ESP Fit Center 3285 is at   2.740634 -2.625786 -1.751463
      ESP Fit Center 3286 is at   3.102036 -2.406013 -1.751463
      ESP Fit Center 3287 is at   3.430147 -2.139076 -1.751463
      ESP Fit Center 3288 is at   3.718853 -1.829947 -1.751463
      ESP Fit Center 3289 is at   1.629886  2.989019 -2.113158
      ESP Fit Center 3290 is at   1.209649  3.004377 -2.113158
      ESP Fit Center 3291 is at   0.791654  2.958384 -2.113158
      ESP Fit Center 3292 is at   0.384810  2.852021 -2.113158
      ESP Fit Center 3293 is at   0.791654 -2.706674 -2.113158
      ESP Fit Center 3294 is at   1.209649 -2.752667 -2.113158
      ESP Fit Center 3295 is at   1.629886 -2.737309 -2.113158
      ESP Fit Center 3296 is at   2.043409 -2.660927 -2.113158
      ESP Fit Center 3297 is at   2.441404 -2.525150 -2.113158
      ESP Fit Center 3298 is at   2.815388 -2.332872 -2.113158
      ESP Fit Center 3299 is at   3.157391 -2.088190 -2.113158
      ESP Fit Center 3300 is at   3.460123 -1.796319 -2.113158
      ESP Fit Center 3301 is at   1.209361  2.743518 -2.445861
      ESP Fit Center 3302 is at   0.790824  2.692699 -2.445861
      ESP Fit Center 3303 is at   0.385859  2.575399 -2.445861
      ESP Fit Center 3304 is at   0.790824 -2.440988 -2.445861
      ESP Fit Center 3305 is at   1.209361 -2.491808 -2.445861
      ESP Fit Center 3306 is at   1.630629 -2.474831 -2.445861
      ESP Fit Center 3307 is at   2.043719 -2.390498 -2.445861
      ESP Fit Center 3308 is at   2.437932 -2.240993 -2.445861
      ESP Fit Center 3309 is at   2.803058 -2.030188 -2.445861
      ESP Fit Center 3310 is at   3.129639 -1.763542 -2.445861
      ESP Fit Center 3311 is at   1.210721  2.444447 -2.744719
      ESP Fit Center 3312 is at   0.798393  2.388594 -2.744719
      ESP Fit Center 3313 is at   1.210721 -2.192737 -2.744719
      ESP Fit Center 3314 is at   1.626395 -2.174069 -2.744719
      ESP Fit Center 3315 is at   2.032055 -2.081480 -2.744719
      ESP Fit Center 3316 is at   2.414664 -1.917945 -2.744719
      ESP Fit Center 3317 is at   2.761924 -1.688720 -2.744719
      ESP Fit Center 3318 is at   1.107022  2.103190 -3.005375
      ESP Fit Center 3319 is at   0.700453  2.016771 -3.005375
      ESP Fit Center 3320 is at   1.107022 -1.851480 -3.005375
      ESP Fit Center 3321 is at   1.522675 -1.851480 -3.005375
      ESP Fit Center 3322 is at   1.929245 -1.765061 -3.005375
      ESP Fit Center 3323 is at   2.308962 -1.596000 -3.005375
      ESP Fit Center 3324 is at   2.645232 -1.351685 -3.005375
      ESP Fit Center 3325 is at   0.893872  1.696964 -3.224028
      ESP Fit Center 3326 is at   1.314849 -1.500676 -3.224028
      ESP Fit Center 3327 is at   1.735826 -1.445253 -3.224028
      ESP Fit Center 3328 is at   2.128114 -1.282762 -3.224028
      ESP Fit Center 3329 is at   1.099331  1.348117 -3.397488
      ESP Fit Center 3330 is at   1.099331 -1.096407 -3.397488
      ESP Fit Center 3331 is at   1.530366 -1.096407 -3.397488
      ESP Fit Center 3332 is at   1.935407 -0.948984 -3.397488
      ESP Fit Center 3333 is at   1.314849 -0.711750 -3.523228
      ESP Fit Center 3334 is at   1.733651 -0.599532 -3.523228
      ESP Fit Center 3335 is at   1.103910  0.491213 -3.599413
      ESP Fit Center 3336 is at   1.103910 -0.239502 -3.599413
      ESP Fit Center 3337 is at   1.525788 -0.239502 -3.599413
      ESP Fit Center 3338 is at   1.314849  0.125855 -3.624932
      ESP Fit Center 3339 is at   1.529315 -1.375389  3.080689
      ESP Fit Center 3340 is at   1.951688 -1.375389  3.047448
      ESP Fit Center 3341 is at   1.106942 -1.375389  3.047448
      ESP Fit Center 3342 is at   1.318129 -1.741174  3.047448
      ESP Fit Center 3343 is at   1.740502 -1.741174  3.047448
      ESP Fit Center 3344 is at   2.363661 -1.375389  2.948542
      ESP Fit Center 3345 is at   0.806750 -1.792562  2.948542
      ESP Fit Center 3346 is at   1.112142 -2.097953  2.948542
      ESP Fit Center 3347 is at   1.529315 -2.209734  2.948542
      ESP Fit Center 3348 is at   1.946488 -2.097953  2.948542
      ESP Fit Center 3349 is at   2.251880 -1.792562  2.948542
      ESP Fit Center 3350 is at   2.755089 -1.375389  2.786407
      ESP Fit Center 3351 is at   0.590317 -2.163301  2.786407
      ESP Fit Center 3352 is at   0.916428 -2.436940  2.786407
      ESP Fit Center 3353 is at   1.316462 -2.582541  2.786407
      ESP Fit Center 3354 is at   1.742169 -2.582541  2.786407
      ESP Fit Center 3355 is at   2.142202 -2.436940  2.786407
      ESP Fit Center 3356 is at   2.468313 -2.163301  2.786407
      ESP Fit Center 3357 is at   2.681166 -1.794628  2.786407
      ESP Fit Center 3358 is at   3.116335 -1.375389  2.565035
      ESP Fit Center 3359 is at   0.407122 -2.497581  2.565035
      ESP Fit Center 3360 is at   0.735805 -2.749788  2.565035
      ESP Fit Center 3361 is at   1.118564 -2.908332  2.565035
      ESP Fit Center 3362 is at   1.529315 -2.962409  2.565035
      ESP Fit Center 3363 is at   1.940066 -2.908332  2.565035
      ESP Fit Center 3364 is at   2.322825 -2.749788  2.565035
      ESP Fit Center 3365 is at   2.651508 -2.497581  2.565035
      ESP Fit Center 3366 is at   2.903715 -2.168899  2.565035
      ESP Fit Center 3367 is at   3.062259 -1.786140  2.565035
      ESP Fit Center 3368 is at   3.438503 -1.375389  2.289878
      ESP Fit Center 3369 is at   0.338956 -2.868052  2.289878
      ESP Fit Center 3370 is at   0.700949 -3.095508  2.289878
      ESP Fit Center 3371 is at   1.104481 -3.236710  2.289878
      ESP Fit Center 3372 is at   1.529315 -3.284577  2.289878
      ESP Fit Center 3373 is at   1.954149 -3.236710  2.289878
      ESP Fit Center 3374 is at   2.357681 -3.095508  2.289878
      ESP Fit Center 3375 is at   2.719674 -2.868052  2.289878
      ESP Fit Center 3376 is at   3.021979 -2.565748  2.289878
      ESP Fit Center 3377 is at   3.249434 -2.203754  2.289878
      ESP Fit Center 3378 is at   3.390636 -1.800223  2.289878
      ESP Fit Center 3379 is at   3.713661 -1.375389  1.967709
      ESP Fit Center 3380 is at   0.437142 -3.267088  1.967709
      ESP Fit Center 3381 is at   0.814885 -3.439597  1.967709
      ESP Fit Center 3382 is at   1.218450 -3.537501  1.967709
      ESP Fit Center 3383 is at   1.633250 -3.557260  1.967709
      ESP Fit Center 3384 is at   2.044294 -3.498161  1.967709
      ESP Fit Center 3385 is at   2.436725 -3.362339  1.967709
      ESP Fit Center 3386 is at   2.796360 -3.154704  1.967709
      ESP Fit Center 3387 is at   3.110201 -2.882760  1.967709
      ESP Fit Center 3388 is at   3.366904 -2.556335  1.967709
      ESP Fit Center 3389 is at   3.557192 -2.187228  1.967709
      ESP Fit Center 3390 is at   3.674187 -1.788779  1.967709
      ESP Fit Center 3391 is at   0.326456 -3.458801  1.606464
      ESP Fit Center 3392 is at   0.706511 -3.636024  1.606464
      ESP Fit Center 3393 is at   1.111567 -3.744558  1.606464
      ESP Fit Center 3394 is at   1.529315 -3.781106  1.606464
      ESP Fit Center 3395 is at   1.947064 -3.744558  1.606464
      ESP Fit Center 3396 is at   2.352119 -3.636024  1.606464
      ESP Fit Center 3397 is at   2.732174 -3.458801  1.606464
      ESP Fit Center 3398 is at   3.075681 -3.218275  1.606464
      ESP Fit Center 3399 is at   3.372202 -2.921754  1.606464
      ESP Fit Center 3400 is at   3.612728 -2.578247  1.606464
      ESP Fit Center 3401 is at   3.789950 -2.198192  1.606464
      ESP Fit Center 3402 is at   3.898484 -1.793137  1.606464
      ESP Fit Center 3403 is at   0.124833 -3.525109  1.215035
      ESP Fit Center 3404 is at   0.497820 -3.726960  1.215035
      ESP Fit Center 3405 is at   0.898944 -3.864666  1.215035
      ESP Fit Center 3406 is at   1.317263 -3.934471  1.215035
      ESP Fit Center 3407 is at   1.741367 -3.934471  1.215035
      ESP Fit Center 3408 is at   2.159686 -3.864666  1.215035
      ESP Fit Center 3409 is at   2.560810 -3.726960  1.215035
      ESP Fit Center 3410 is at   2.933797 -3.525109  1.215035
      ESP Fit Center 3411 is at   3.268474 -3.264619  1.215035
      ESP Fit Center 3412 is at   3.555712 -2.952596  1.215035
      ESP Fit Center 3413 is at   3.787674 -2.597551  1.215035
      ESP Fit Center 3414 is at   3.958034 -2.209169  1.215035
      ESP Fit Center 3415 is at   4.062145 -1.798043  1.215035
      ESP Fit Center 3416 is at  -0.038166 -3.532842  0.803062
      ESP Fit Center 3417 is at   0.318632 -3.751488  0.803062
      ESP Fit Center 3418 is at   0.705241 -3.911627  0.803062
      ESP Fit Center 3419 is at   1.112142 -4.009315  0.803062
      ESP Fit Center 3420 is at   1.529315 -4.042147  0.803062
      ESP Fit Center 3421 is at   1.946488 -4.009315  0.803062
      ESP Fit Center 3422 is at   2.353389 -3.911627  0.803062
      ESP Fit Center 3423 is at   2.739998 -3.751488  0.803062
      ESP Fit Center 3424 is at   3.096796 -3.532842  0.803062
      ESP Fit Center 3425 is at   3.414998 -3.261072  0.803062
      ESP Fit Center 3426 is at   3.686768 -2.942870  0.803062
      ESP Fit Center 3427 is at   3.905414 -2.586072  0.803062
      ESP Fit Center 3428 is at   4.065553 -2.199462  0.803062
      ESP Fit Center 3429 is at   4.163241 -1.792562  0.803062
      ESP Fit Center 3430 is at   0.061683 -3.641675  0.380689
      ESP Fit Center 3431 is at   0.424830 -3.839148  0.380689
      ESP Fit Center 3432 is at   0.813865 -3.978873  0.380689
      ESP Fit Center 3433 is at   1.219670 -4.057574  0.380689
      ESP Fit Center 3434 is at   1.632732 -4.073407  0.380689
      ESP Fit Center 3435 is at   2.043371 -4.026001  0.380689
      ESP Fit Center 3436 is at   2.441961 -3.916467  0.380689
      ESP Fit Center 3437 is at   2.819159 -3.747372  0.380689
      ESP Fit Center 3438 is at   3.166124 -3.522679  0.380689
      ESP Fit Center 3439 is at   3.474723 -3.247656  0.380689
      ESP Fit Center 3440 is at   3.737724 -2.928749  0.380689
      ESP Fit Center 3441 is at   3.948962 -2.573432  0.380689
      ESP Fit Center 3442 is at   4.103485 -2.190034  0.380689
      ESP Fit Center 3443 is at  -0.038166 -3.532842 -0.041684
      ESP Fit Center 3444 is at   0.318632 -3.751488 -0.041684
      ESP Fit Center 3445 is at   0.705241 -3.911627 -0.041684
      ESP Fit Center 3446 is at   1.112142 -4.009315 -0.041684
      ESP Fit Center 3447 is at   1.529315 -4.042147 -0.041684
      ESP Fit Center 3448 is at   1.946488 -4.009315 -0.041684
      ESP Fit Center 3449 is at   2.353389 -3.911627 -0.041684
      ESP Fit Center 3450 is at   2.739998 -3.751488 -0.041684
      ESP Fit Center 3451 is at   3.096796 -3.532842 -0.041684
      ESP Fit Center 3452 is at   3.414998 -3.261072 -0.041684
      ESP Fit Center 3453 is at   3.686768 -2.942870 -0.041684
      ESP Fit Center 3454 is at   3.905414 -2.586072 -0.041684
      ESP Fit Center 3455 is at   4.065553 -2.199462 -0.041684
      ESP Fit Center 3456 is at   0.124833 -3.525109 -0.453657
      ESP Fit Center 3457 is at   0.497820 -3.726960 -0.453657
      ESP Fit Center 3458 is at   0.898944 -3.864666 -0.453657
      ESP Fit Center 3459 is at   1.317263 -3.934471 -0.453657
      ESP Fit Center 3460 is at   1.741367 -3.934471 -0.453657
      ESP Fit Center 3461 is at   2.159686 -3.864666 -0.453657
      ESP Fit Center 3462 is at   2.560810 -3.726960 -0.453657
      ESP Fit Center 3463 is at   2.933797 -3.525109 -0.453657
      ESP Fit Center 3464 is at   3.268474 -3.264619 -0.453657
      ESP Fit Center 3465 is at   3.555712 -2.952596 -0.453657
      ESP Fit Center 3466 is at   3.787674 -2.597551 -0.453657
      ESP Fit Center 3467 is at   3.958034 -2.209169 -0.453657
      ESP Fit Center 3468 is at   0.326456 -3.458801 -0.845085
      ESP Fit Center 3469 is at   0.706511 -3.636024 -0.845085
      ESP Fit Center 3470 is at   1.111567 -3.744558 -0.845085
      ESP Fit Center 3471 is at   1.529315 -3.781106 -0.845085
      ESP Fit Center 3472 is at   1.947064 -3.744558 -0.845085
      ESP Fit Center 3473 is at   2.352119 -3.636024 -0.845085
      ESP Fit Center 3474 is at   2.732174 -3.458801 -0.845085
      ESP Fit Center 3475 is at   3.075681 -3.218275 -0.845085
      ESP Fit Center 3476 is at   3.372202 -2.921754 -0.845085
      ESP Fit Center 3477 is at   3.612728 -2.578247 -0.845085
      ESP Fit Center 3478 is at   0.437142 -3.267088 -1.206331
      ESP Fit Center 3479 is at   0.814885 -3.439597 -1.206331
      ESP Fit Center 3480 is at   1.218450 -3.537501 -1.206331
      ESP Fit Center 3481 is at   1.633250 -3.557260 -1.206331
      ESP Fit Center 3482 is at   2.044294 -3.498161 -1.206331
      ESP Fit Center 3483 is at   2.436725 -3.362339 -1.206331
      ESP Fit Center 3484 is at   2.796360 -3.154704 -1.206331
      ESP Fit Center 3485 is at   3.110201 -2.882760 -1.206331
      ESP Fit Center 3486 is at   3.366904 -2.556335 -1.206331
      ESP Fit Center 3487 is at   0.700949 -3.095508 -1.528499
      ESP Fit Center 3488 is at   1.104481 -3.236710 -1.528499
      ESP Fit Center 3489 is at   1.529315 -3.284577 -1.528499
      ESP Fit Center 3490 is at   1.954149 -3.236710 -1.528499
      ESP Fit Center 3491 is at   2.357681 -3.095508 -1.528499
      ESP Fit Center 3492 is at   2.719674 -2.868052 -1.528499
      ESP Fit Center 3493 is at   1.529315 -2.962409 -1.803657
      ESP Fit Center 3494 is at   1.940066 -2.908332 -1.803657
      ESP Fit Center 3495 is at   1.253964  0.764900  3.907706
      ESP Fit Center 3496 is at   1.671282  0.764900  3.876432
      ESP Fit Center 3497 is at   1.462623  1.126309  3.876432
      ESP Fit Center 3498 is at   1.045305  1.126309  3.876432
      ESP Fit Center 3499 is at   0.836646  0.764900  3.876432
      ESP Fit Center 3500 is at   1.045305  0.403492  3.876432
      ESP Fit Center 3501 is at   1.462623  0.403492  3.876432
      ESP Fit Center 3502 is at   2.079279  0.764900  3.783310
      ESP Fit Center 3503 is at   1.968707  1.177558  3.783310
      ESP Fit Center 3504 is at   1.666621  1.479644  3.783310
      ESP Fit Center 3505 is at   1.253964  1.590215  3.783310
      ESP Fit Center 3506 is at   0.841307  1.479644  3.783310
      ESP Fit Center 3507 is at   0.539221  1.177558  3.783310
      ESP Fit Center 3508 is at   0.428650  0.764900  3.783310
      ESP Fit Center 3509 is at   0.539221  0.352243  3.783310
      ESP Fit Center 3510 is at   0.841307  0.050157  3.783310
      ESP Fit Center 3511 is at   1.253964 -0.060414  3.783310
      ESP Fit Center 3512 is at   1.666621  0.050157  3.783310
      ESP Fit Center 3513 is at   1.968707  0.352243  3.783310
      ESP Fit Center 3514 is at   2.468839  0.764900  3.630419
      ESP Fit Center 3515 is at   2.395573  1.180412  3.630419
      ESP Fit Center 3516 is at   2.184612  1.545807  3.630419
      ESP Fit Center 3517 is at   1.861401  1.817012  3.630419
      ESP Fit Center 3518 is at   1.464925  1.961318  3.630419
      ESP Fit Center 3519 is at   1.043003  1.961318  3.630419
      ESP Fit Center 3520 is at   0.646527  1.817012  3.630419
      ESP Fit Center 3521 is at   0.323316  1.545807  3.630419
      ESP Fit Center 3522 is at   0.112355  1.180412  3.630419
      ESP Fit Center 3523 is at   0.039090  0.764900  3.630419
      ESP Fit Center 3524 is at   0.112355  0.349389  3.630419
      ESP Fit Center 3525 is at   0.323316 -0.016006  3.630419
      ESP Fit Center 3526 is at   0.646527 -0.287212  3.630419
      ESP Fit Center 3527 is at   1.043003 -0.431517  3.630419
      ESP Fit Center 3528 is at   1.464925 -0.431517  3.630419
      ESP Fit Center 3529 is at   1.861401 -0.287212  3.630419
      ESP Fit Center 3530 is at   2.184612 -0.016006  3.630419
      ESP Fit Center 3531 is at   2.395573  0.349389  3.630419
      ESP Fit Center 3532 is at   2.831260  0.764900  3.421175
      ESP Fit Center 3533 is at   2.777515  1.173135  3.421175
      ESP Fit Center 3534 is at   2.619943  1.553548  3.421175
      ESP Fit Center 3535 is at   2.369281  1.880217  3.421175
      ESP Fit Center 3536 is at   2.042612  2.130879  3.421175
      ESP Fit Center 3537 is at   1.662198  2.288451  3.421175
      ESP Fit Center 3538 is at   1.253964  2.342196  3.421175
      ESP Fit Center 3539 is at   0.845730  2.288451  3.421175
      ESP Fit Center 3540 is at   0.465316  2.130879  3.421175
      ESP Fit Center 3541 is at   0.138647  1.880217  3.421175
      ESP Fit Center 3542 is at  -0.112015  1.553548  3.421175
      ESP Fit Center 3543 is at  -0.269587  1.173135  3.421175
      ESP Fit Center 3544 is at  -0.323332  0.764900  3.421175
      ESP Fit Center 3545 is at   0.465316 -0.601078  3.421175
      ESP Fit Center 3546 is at   0.845730 -0.758651  3.421175
      ESP Fit Center 3547 is at   1.253964 -0.812396  3.421175
      ESP Fit Center 3548 is at   1.662198 -0.758651  3.421175
      ESP Fit Center 3549 is at   2.042612 -0.601078  3.421175
      ESP Fit Center 3550 is at   2.369281 -0.350416  3.421175
      ESP Fit Center 3551 is at   2.619943 -0.023748  3.421175
      ESP Fit Center 3552 is at   2.777515  0.356666  3.421175
      ESP Fit Center 3553 is at   3.158448  0.764900  3.160251
      ESP Fit Center 3554 is at   3.113922  1.174308  3.160251
      ESP Fit Center 3555 is at   2.982427  1.564572  3.160251
      ESP Fit Center 3556 is at   2.770110  1.917445  3.160251
      ESP Fit Center 3557 is at   2.486901  2.216425  3.160251
      ESP Fit Center 3558 is at   2.146040  2.447535  3.160251
      ESP Fit Center 3559 is at   1.763467  2.599966  3.160251
      ESP Fit Center 3560 is at   1.357071  2.666591  3.160251
      ESP Fit Center 3561 is at   0.945853  2.644295  3.160251
      ESP Fit Center 3562 is at   0.549042  2.534121  3.160251
      ESP Fit Center 3563 is at   0.185192  2.341220  3.160251
      ESP Fit Center 3564 is at  -0.128683  2.074613  3.160251
      ESP Fit Center 3565 is at  -0.377906  1.746764  3.160251
      ESP Fit Center 3566 is at  -0.550826  1.373005  3.160251
      ESP Fit Center 3567 is at   0.945853 -1.114495  3.160251
      ESP Fit Center 3568 is at   1.357071 -1.136790  3.160251
      ESP Fit Center 3569 is at   1.763467 -1.070165  3.160251
      ESP Fit Center 3570 is at   2.146040 -0.917734  3.160251
      ESP Fit Center 3571 is at   2.486901 -0.686625  3.160251
      ESP Fit Center 3572 is at   2.770110 -0.387644  3.160251
      ESP Fit Center 3573 is at   2.982427 -0.034772  3.160251
      ESP Fit Center 3574 is at   3.113922  0.355493  3.160251
      ESP Fit Center 3575 is at   3.443092  0.764900  2.853477
      ESP Fit Center 3576 is at   3.403532  1.179196  2.853477
      ESP Fit Center 3577 is at   3.286280  1.578517  2.853477
      ESP Fit Center 3578 is at   3.095576  1.948432  2.853477
      ESP Fit Center 3579 is at   2.838311  2.275572  2.853477
      ESP Fit Center 3580 is at   2.523783  2.548111  2.853477
      ESP Fit Center 3581 is at   2.163361  2.756201  2.853477
      ESP Fit Center 3582 is at   1.770071  2.892320  2.853477
      ESP Fit Center 3583 is at   1.358127  2.951549  2.853477
      ESP Fit Center 3584 is at   0.942419  2.931746  2.853477
      ESP Fit Center 3585 is at   0.537970  2.833628  2.853477
      ESP Fit Center 3586 is at   0.159400  2.660741  2.853477
      ESP Fit Center 3587 is at  -0.179610  2.419333  2.853477
      ESP Fit Center 3588 is at  -0.466807  2.118130  2.853477
      ESP Fit Center 3589 is at   3.095576 -0.418632  2.853477
      ESP Fit Center 3590 is at   3.286280 -0.048716  2.853477
      ESP Fit Center 3591 is at   3.403532  0.350605  2.853477
      ESP Fit Center 3592 is at   3.678835  0.764900  2.507706
      ESP Fit Center 3593 is at   3.643956  1.174706  2.507706
      ESP Fit Center 3594 is at   3.540320  1.572721  2.507706
      ESP Fit Center 3595 is at   3.370911  1.947498  2.507706
      ESP Fit Center 3596 is at   3.140600  2.288253  2.507706
      ESP Fit Center 3597 is at   2.856015  2.585184  2.507706
      ESP Fit Center 3598 is at   2.525342  2.829749  2.507706
      ESP Fit Center 3599 is at   2.158093  3.014912  2.507706
      ESP Fit Center 3600 is at   1.764834  3.135346  2.507706
      ESP Fit Center 3601 is at   1.356878  3.187587  2.507706
      ESP Fit Center 3602 is at   0.945962  3.170131  2.507706
      ESP Fit Center 3603 is at   0.543907  3.083481  2.507706
      ESP Fit Center 3604 is at   0.162278  2.930130  2.507706
      ESP Fit Center 3605 is at  -0.187945  2.714490  2.507706
      ESP Fit Center 3606 is at   3.643956  0.355095  2.507706
      ESP Fit Center 3607 is at   3.828321  1.172638  2.130661
      ESP Fit Center 3608 is at   3.732842  1.570337  2.130661
      ESP Fit Center 3609 is at   3.576325  1.948202  2.130661
      ESP Fit Center 3610 is at   3.362624  2.296931  2.130661
      ESP Fit Center 3611 is at   3.097000  2.607936  2.130661
      ESP Fit Center 3612 is at   2.785995  2.873560  2.130661
      ESP Fit Center 3613 is at   2.437266  3.087261  2.130661
      ESP Fit Center 3614 is at   2.059400  3.243778  2.130661
      ESP Fit Center 3615 is at   1.661702  3.339257  2.130661
      ESP Fit Center 3616 is at   1.253964  3.371347  2.130661
      ESP Fit Center 3617 is at   0.846226  3.339257  2.130661
      ESP Fit Center 3618 is at   0.448528  3.243778  2.130661
      ESP Fit Center 3619 is at   0.070662  3.087261  2.130661
      ESP Fit Center 3620 is at   3.700315  1.976166  1.730765
      ESP Fit Center 3621 is at   3.486746  2.335404  1.730765
      ESP Fit Center 3622 is at   3.220843  2.657831  1.730765
      ESP Fit Center 3623 is at   2.908837  2.935889  1.730765
      ESP Fit Center 3624 is at   2.558043  3.163061  1.730765
      ESP Fit Center 3625 is at   2.176682  3.334023  1.730765
      ESP Fit Center 3626 is at   1.773693  3.444766  1.730765
      ESP Fit Center 3627 is at   1.358523  3.492695  1.730765
      ESP Fit Center 3628 is at   0.940901  3.476688  1.730765
      ESP Fit Center 3629 is at   0.530618  3.397118  1.730765
      ESP Fit Center 3630 is at   0.137289  3.255851  1.730765
      ESP Fit Center 3631 is at   3.300770  2.664059  1.316950
      ESP Fit Center 3632 is at   2.994854  2.947907  1.316950
      ESP Fit Center 3633 is at   2.650049  3.182991  1.316950
      ESP Fit Center 3634 is at   2.274059  3.364059  1.316950
      ESP Fit Center 3635 is at   1.875280  3.487065  1.316950
      ESP Fit Center 3636 is at   1.462623  3.549263  1.316950
      ESP Fit Center 3637 is at   1.045305  3.549263  1.316950
      ESP Fit Center 3638 is at   0.632648  3.487065  1.316950
      ESP Fit Center 3639 is at   0.233870  3.364059  1.316950
      ESP Fit Center 3640 is at   2.274059  3.364059  0.898462
      ESP Fit Center 3641 is at   1.875280  3.487065  0.898462
      ESP Fit Center 3642 is at   1.462623  3.549263  0.898462
      ESP Fit Center 3643 is at   1.045305  3.549263  0.898462
      ESP Fit Center 3644 is at   0.632648  3.487065  0.898462
      ESP Fit Center 3645 is at   0.233870  3.364059  0.898462
      ESP Fit Center 3646 is at   4.841475  0.481598  0.095059
      ESP Fit Center 3647 is at   4.809385  0.889336  0.095059
      ESP Fit Center 3648 is at   4.713906  1.287034  0.095059
      ESP Fit Center 3649 is at   4.557389  1.664900  0.095059
      ESP Fit Center 3650 is at   4.343688  2.013629  0.095059
      ESP Fit Center 3651 is at   4.078064  2.324634  0.095059
      ESP Fit Center 3652 is at   4.809385  0.073860  0.095059
      ESP Fit Center 3653 is at   4.964826  0.481598 -0.304837
      ESP Fit Center 3654 is at   4.932834  0.898300 -0.304837
      ESP Fit Center 3655 is at   4.837608  1.305234 -0.304837
      ESP Fit Center 3656 is at   4.681379  1.692864 -0.304837
      ESP Fit Center 3657 is at   4.467810  2.052102 -0.304837
      ESP Fit Center 3658 is at   4.201907  2.374529 -0.304837
      ESP Fit Center 3659 is at   3.889901  2.652587 -0.304837
      ESP Fit Center 3660 is at   3.539107  2.879759 -0.304837
      ESP Fit Center 3661 is at   4.837608 -0.342038 -0.304837
      ESP Fit Center 3662 is at   4.932834  0.064896 -0.304837
      ESP Fit Center 3663 is at   5.027199  0.481598 -0.718652
      ESP Fit Center 3664 is at   4.996013  0.897750 -0.718652
      ESP Fit Center 3665 is at   4.903150  1.304605 -0.718652
      ESP Fit Center 3666 is at   4.750687  1.693076 -0.718652
      ESP Fit Center 3667 is at   4.542028  2.054484 -0.718652
      ESP Fit Center 3668 is at   4.281834  2.380756 -0.718652
      ESP Fit Center 3669 is at   3.975918  2.664605 -0.718652
      ESP Fit Center 3670 is at   3.631113  2.899689 -0.718652
      ESP Fit Center 3671 is at   3.255123  3.080756 -0.718652
      ESP Fit Center 3672 is at   4.750687 -0.729879 -0.718652
      ESP Fit Center 3673 is at   4.903150 -0.341409 -0.718652
      ESP Fit Center 3674 is at   4.996013  0.065447 -0.718652
      ESP Fit Center 3675 is at   5.027199  0.481598 -1.137140
      ESP Fit Center 3676 is at   4.996013  0.897750 -1.137140
      ESP Fit Center 3677 is at   4.903150  1.304605 -1.137140
      ESP Fit Center 3678 is at   4.750687  1.693076 -1.137140
      ESP Fit Center 3679 is at   4.542028  2.054484 -1.137140
      ESP Fit Center 3680 is at   4.281834  2.380756 -1.137140
      ESP Fit Center 3681 is at   3.975918  2.664605 -1.137140
      ESP Fit Center 3682 is at   3.631113  2.899689 -1.137140
      ESP Fit Center 3683 is at   3.255123  3.080756 -1.137140
      ESP Fit Center 3684 is at   2.856345  3.203763 -1.137140
      ESP Fit Center 3685 is at   4.542028 -1.091288 -1.137140
      ESP Fit Center 3686 is at   4.750687 -0.729879 -1.137140
      ESP Fit Center 3687 is at   4.903150 -0.341409 -1.137140
      ESP Fit Center 3688 is at   4.996013  0.065447 -1.137140
      ESP Fit Center 3689 is at   4.964826  0.481598 -1.550955
      ESP Fit Center 3690 is at   4.932834  0.898300 -1.550955
      ESP Fit Center 3691 is at   4.837608  1.305234 -1.550955
      ESP Fit Center 3692 is at   4.681379  1.692864 -1.550955
      ESP Fit Center 3693 is at   4.467810  2.052102 -1.550955
      ESP Fit Center 3694 is at   4.201907  2.374529 -1.550955
      ESP Fit Center 3695 is at   3.889901  2.652587 -1.550955
      ESP Fit Center 3696 is at   3.539107  2.879759 -1.550955
      ESP Fit Center 3697 is at   3.157746  3.050721 -1.550955
      ESP Fit Center 3698 is at   2.754757  3.161464 -1.550955
      ESP Fit Center 3699 is at   2.339587  3.209393 -1.550955
      ESP Fit Center 3700 is at   4.201907 -1.411333 -1.550955
      ESP Fit Center 3701 is at   4.467810 -1.088906 -1.550955
      ESP Fit Center 3702 is at   4.681379 -0.729667 -1.550955
      ESP Fit Center 3703 is at   4.837608 -0.342038 -1.550955
      ESP Fit Center 3704 is at   4.932834  0.064896 -1.550955
      ESP Fit Center 3705 is at   4.841475  0.481598 -1.950851
      ESP Fit Center 3706 is at   4.809385  0.889336 -1.950851
      ESP Fit Center 3707 is at   4.713906  1.287034 -1.950851
      ESP Fit Center 3708 is at   4.557389  1.664900 -1.950851
      ESP Fit Center 3709 is at   4.343688  2.013629 -1.950851
      ESP Fit Center 3710 is at   4.078064  2.324634 -1.950851
      ESP Fit Center 3711 is at   3.767059  2.590258 -1.950851
      ESP Fit Center 3712 is at   3.418330  2.803959 -1.950851
      ESP Fit Center 3713 is at   3.040464  2.960476 -1.950851
      ESP Fit Center 3714 is at   2.642766  3.055955 -1.950851
      ESP Fit Center 3715 is at   2.235028  3.088045 -1.950851
      ESP Fit Center 3716 is at   3.767059 -1.627061 -1.950851
      ESP Fit Center 3717 is at   4.078064 -1.361438 -1.950851
      ESP Fit Center 3718 is at   4.343688 -1.050433 -1.950851
      ESP Fit Center 3719 is at   4.557389 -0.701704 -1.950851
      ESP Fit Center 3720 is at   4.713906 -0.323838 -1.950851
      ESP Fit Center 3721 is at   4.809385  0.073860 -1.950851
      ESP Fit Center 3722 is at   4.659899  0.481598 -2.327896
      ESP Fit Center 3723 is at   4.625020  0.891403 -2.327896
      ESP Fit Center 3724 is at   4.521384  1.289419 -2.327896
      ESP Fit Center 3725 is at   4.351975  1.664196 -2.327896
      ESP Fit Center 3726 is at   4.121665  2.004951 -2.327896
      ESP Fit Center 3727 is at   3.837079  2.301882 -2.327896
      ESP Fit Center 3728 is at   3.506406  2.546447 -2.327896
      ESP Fit Center 3729 is at   3.139157  2.731609 -2.327896
      ESP Fit Center 3730 is at   2.745898  2.852044 -2.327896
      ESP Fit Center 3731 is at   2.337943  2.904284 -2.327896
      ESP Fit Center 3732 is at   1.927026  2.886829 -2.327896
      ESP Fit Center 3733 is at   3.506406 -1.583250 -2.327896
      ESP Fit Center 3734 is at   3.837079 -1.338685 -2.327896
      ESP Fit Center 3735 is at   4.121665 -1.041754 -2.327896
      ESP Fit Center 3736 is at   4.351975 -0.700999 -2.327896
      ESP Fit Center 3737 is at   4.521384 -0.326223 -2.327896
      ESP Fit Center 3738 is at   4.625020  0.071793 -2.327896
      ESP Fit Center 3739 is at   4.424156  0.481598 -2.673667
      ESP Fit Center 3740 is at   4.384596  0.895893 -2.673667
      ESP Fit Center 3741 is at   4.267345  1.295215 -2.673667
      ESP Fit Center 3742 is at   4.076640  1.665130 -2.673667
      ESP Fit Center 3743 is at   3.819375  1.992270 -2.673667
      ESP Fit Center 3744 is at   3.504847  2.264809 -2.673667
      ESP Fit Center 3745 is at   3.144425  2.472899 -2.673667
      ESP Fit Center 3746 is at   2.751135  2.609018 -2.673667
      ESP Fit Center 3747 is at   2.339191  2.668247 -2.673667
      ESP Fit Center 3748 is at   1.923483  2.648444 -2.673667
      ESP Fit Center 3749 is at   1.519034  2.550326 -2.673667
      ESP Fit Center 3750 is at   3.144425 -1.509703 -2.673667
      ESP Fit Center 3751 is at   3.504847 -1.301613 -2.673667
      ESP Fit Center 3752 is at   3.819375 -1.029073 -2.673667
      ESP Fit Center 3753 is at   4.076640 -0.701934 -2.673667
      ESP Fit Center 3754 is at   4.267345 -0.332019 -2.673667
      ESP Fit Center 3755 is at   4.384596  0.067303 -2.673667
      ESP Fit Center 3756 is at   4.139512  0.481598 -2.980441
      ESP Fit Center 3757 is at   4.094986  0.891006 -2.980441
      ESP Fit Center 3758 is at   3.963491  1.281270 -2.980441
      ESP Fit Center 3759 is at   3.751174  1.634143 -2.980441
      ESP Fit Center 3760 is at   3.467965  1.933123 -2.980441
      ESP Fit Center 3761 is at   3.127104  2.164232 -2.980441
      ESP Fit Center 3762 is at   2.744532  2.316663 -2.980441
      ESP Fit Center 3763 is at   2.338135  2.383289 -2.980441
      ESP Fit Center 3764 is at   1.926917  2.360993 -2.980441
      ESP Fit Center 3765 is at   1.530106  2.250819 -2.980441
      ESP Fit Center 3766 is at   2.744532 -1.353467 -2.980441
      ESP Fit Center 3767 is at   3.127104 -1.201036 -2.980441
      ESP Fit Center 3768 is at   3.467965 -0.969927 -2.980441
      ESP Fit Center 3769 is at   3.751174 -0.670946 -2.980441
      ESP Fit Center 3770 is at   3.963491 -0.318074 -2.980441
      ESP Fit Center 3771 is at   4.094986  0.072190 -2.980441
      ESP Fit Center 3772 is at   3.812324  0.481598 -3.241365
      ESP Fit Center 3773 is at   3.758579  0.889832 -3.241365
      ESP Fit Center 3774 is at   3.601007  1.270246 -3.241365
      ESP Fit Center 3775 is at   3.350345  1.596915 -3.241365
      ESP Fit Center 3776 is at   3.023676  1.847577 -3.241365
      ESP Fit Center 3777 is at   2.643262  2.005149 -3.241365
      ESP Fit Center 3778 is at   2.235028  2.058894 -3.241365
      ESP Fit Center 3779 is at   1.826794  2.005149 -3.241365
      ESP Fit Center 3780 is at   1.446380  1.847577 -3.241365
      ESP Fit Center 3781 is at   2.643262 -1.041953 -3.241365
      ESP Fit Center 3782 is at   3.023676 -0.884380 -3.241365
      ESP Fit Center 3783 is at   3.350345 -0.633719 -3.241365
      ESP Fit Center 3784 is at   3.601007 -0.307050 -3.241365
      ESP Fit Center 3785 is at   3.758579  0.073364 -3.241365
      ESP Fit Center 3786 is at   3.449903  0.481598 -3.450609
      ESP Fit Center 3787 is at   3.376637  0.897110 -3.450609
      ESP Fit Center 3788 is at   3.165676  1.262504 -3.450609
      ESP Fit Center 3789 is at   2.842465  1.533710 -3.450609
      ESP Fit Center 3790 is at   2.445989  1.678016 -3.450609
      ESP Fit Center 3791 is at   2.024067  1.678016 -3.450609
      ESP Fit Center 3792 is at   1.627591  1.533710 -3.450609
      ESP Fit Center 3793 is at   1.304380  1.262504 -3.450609
      ESP Fit Center 3794 is at   2.024067 -0.714820 -3.450609
      ESP Fit Center 3795 is at   2.445989 -0.714820 -3.450609
      ESP Fit Center 3796 is at   2.842465 -0.570514 -3.450609
      ESP Fit Center 3797 is at   3.165676 -0.299308 -3.450609
      ESP Fit Center 3798 is at   3.376637  0.066087 -3.450609
      ESP Fit Center 3799 is at   3.060343  0.481598 -3.603500
      ESP Fit Center 3800 is at   2.949771  0.894255 -3.603500
      ESP Fit Center 3801 is at   2.647685  1.196341 -3.603500
      ESP Fit Center 3802 is at   2.235028  1.306913 -3.603500
      ESP Fit Center 3803 is at   1.822371  1.196341 -3.603500
      ESP Fit Center 3804 is at   1.520285  0.894255 -3.603500
      ESP Fit Center 3805 is at   1.822371 -0.233145 -3.603500
      ESP Fit Center 3806 is at   2.235028 -0.343716 -3.603500
      ESP Fit Center 3807 is at   2.647685 -0.233145 -3.603500
      ESP Fit Center 3808 is at   2.949771  0.068941 -3.603500
      ESP Fit Center 3809 is at   2.652347  0.481598 -3.696622
      ESP Fit Center 3810 is at   2.443687  0.843006 -3.696622
      ESP Fit Center 3811 is at   2.026369  0.843006 -3.696622
      ESP Fit Center 3812 is at   1.817710  0.481598 -3.696622
      ESP Fit Center 3813 is at   2.026369  0.120190 -3.696622
      ESP Fit Center 3814 is at   2.443687  0.120190 -3.696622
      ESP Fit Center 3815 is at   2.235028  0.481598 -3.727896
      ESP Fit Center 3816 is at   0.309463 -2.810435 -1.823213
      ESP Fit Center 3817 is at   0.000295  2.663046 -2.198770
      ESP Fit Center 3818 is at  -0.416393  2.630252 -2.198770
      ESP Fit Center 3819 is at   0.000295 -2.664266 -2.198770
      ESP Fit Center 3820 is at   0.416982 -2.631472 -2.198770
      ESP Fit Center 3821 is at   0.104314  2.448091 -2.548616
      ESP Fit Center 3822 is at  -0.311014  2.430448 -2.548616
      ESP Fit Center 3823 is at  -0.717387  2.342868 -2.548616
      ESP Fit Center 3824 is at   0.104314 -2.449311 -2.548616
      ESP Fit Center 3825 is at   0.516651 -2.396510 -2.548616
      ESP Fit Center 3826 is at   0.104619  2.189415 -2.866234
      ESP Fit Center 3827 is at  -0.311732  2.169581 -2.866234
      ESP Fit Center 3828 is at  -0.716804  2.071312 -2.866234
      ESP Fit Center 3829 is at  -0.311732 -2.170801 -2.866234
      ESP Fit Center 3830 is at   0.104619 -2.190634 -2.866234
      ESP Fit Center 3831 is at   0.517198 -2.131314 -2.866234
      ESP Fit Center 3832 is at   0.506797  1.823644 -3.145708
      ESP Fit Center 3833 is at   0.102794  1.889877 -3.145708
      ESP Fit Center 3834 is at  -0.306001  1.867713 -3.145708
      ESP Fit Center 3835 is at  -0.700474  1.758188 -3.145708
      ESP Fit Center 3836 is at  -0.306001 -1.868933 -3.145708
      ESP Fit Center 3837 is at   0.102794 -1.891097 -3.145708
      ESP Fit Center 3838 is at   0.506797 -1.824864 -3.145708
      ESP Fit Center 3839 is at   0.887116 -1.673331 -3.145708
      ESP Fit Center 3840 is at   0.717422  1.383383 -3.381833
      ESP Fit Center 3841 is at   0.317432  1.525539 -3.381833
      ESP Fit Center 3842 is at  -0.106078  1.554508 -3.381833
      ESP Fit Center 3843 is at  -0.521699  1.468141 -3.381833
      ESP Fit Center 3844 is at  -0.898607  1.272843 -3.381833
      ESP Fit Center 3845 is at  -0.521699 -1.469361 -3.381833
      ESP Fit Center 3846 is at  -0.106078 -1.555728 -3.381833
      ESP Fit Center 3847 is at   0.317432 -1.526759 -3.381833
      ESP Fit Center 3848 is at   0.717422 -1.384603 -3.381833
      ESP Fit Center 3849 is at   1.064226 -1.139802 -3.381833
      ESP Fit Center 3850 is at   0.915874  0.767652 -3.570208
      ESP Fit Center 3851 is at   0.597896  1.034466 -3.570208
      ESP Fit Center 3852 is at   0.207840  1.176436 -3.570208
      ESP Fit Center 3853 is at  -0.207250  1.176436 -3.570208
      ESP Fit Center 3854 is at  -0.597307  1.034466 -3.570208
      ESP Fit Center 3855 is at  -0.915284  0.767652 -3.570208
      ESP Fit Center 3856 is at  -0.915284 -0.768872 -3.570208
      ESP Fit Center 3857 is at  -0.597307 -1.035686 -3.570208
      ESP Fit Center 3858 is at  -0.207250 -1.177655 -3.570208
      ESP Fit Center 3859 is at   0.207840 -1.177655 -3.570208
      ESP Fit Center 3860 is at   0.597896 -1.035686 -3.570208
      ESP Fit Center 3861 is at   0.915874 -0.768872 -3.570208
      ESP Fit Center 3862 is at   0.809685 -0.000610 -3.707326
      ESP Fit Center 3863 is at   0.701247  0.404085 -3.707326
      ESP Fit Center 3864 is at   0.404990  0.700343 -3.707326
      ESP Fit Center 3865 is at   0.000295  0.808780 -3.707326
      ESP Fit Center 3866 is at  -0.404400  0.700343 -3.707326
      ESP Fit Center 3867 is at  -0.700658  0.404085 -3.707326
      ESP Fit Center 3868 is at  -0.809096 -0.000610 -3.707326
      ESP Fit Center 3869 is at  -0.700658 -0.405305 -3.707326
      ESP Fit Center 3870 is at  -0.404400 -0.701562 -3.707326
      ESP Fit Center 3871 is at   0.000295 -0.810000 -3.707326
      ESP Fit Center 3872 is at   0.404990 -0.701562 -3.707326
      ESP Fit Center 3873 is at   0.701247 -0.405305 -3.707326
      ESP Fit Center 3874 is at   0.408795 -0.000610 -3.790632
      ESP Fit Center 3875 is at   0.204545  0.353161 -3.790632
      ESP Fit Center 3876 is at  -0.203955  0.353161 -3.790632
      ESP Fit Center 3877 is at  -0.408205 -0.000610 -3.790632
      ESP Fit Center 3878 is at  -0.203955 -0.354381 -3.790632
      ESP Fit Center 3879 is at   0.204545 -0.354381 -3.790632
      ESP Fit Center 3880 is at   0.000295 -0.000610 -3.818575
      ESP Fit Center 3881 is at  -2.465241  1.023984  2.973892
      ESP Fit Center 3882 is at  -2.923619  1.042503  2.755240
      ESP Fit Center 3883 is at  -3.131445  0.682537  2.755240
      ESP Fit Center 3884 is at  -3.259888  0.287228  2.755240
      ESP Fit Center 3885 is at  -3.406194  0.880866  2.494584
      ESP Fit Center 3886 is at  -3.552399  0.491306  2.494584
      ESP Fit Center 3887 is at  -3.626695  0.081899  2.494584
      ESP Fit Center 3888 is at  -3.529328  1.274040  2.195726
      ESP Fit Center 3889 is at  -3.725260  0.900722  2.195726
      ESP Fit Center 3890 is at  -3.858771  0.500809  2.195726
      ESP Fit Center 3891 is at  -3.926402  0.084658  2.195726
      ESP Fit Center 3892 is at  -3.926402 -0.336953  2.195726
      ESP Fit Center 3893 is at  -3.858771 -0.753103  2.195726
      ESP Fit Center 3894 is at  -3.826998  1.283593  1.863023
      ESP Fit Center 3895 is at  -4.005490  0.902836  1.863023
      ESP Fit Center 3896 is at  -4.126641  0.500148  1.863023
      ESP Fit Center 3897 is at  -4.187869  0.084112  1.863023
      ESP Fit Center 3898 is at  -4.187869 -0.336406  1.863023
      ESP Fit Center 3899 is at  -4.126641 -0.752443  1.863023
      ESP Fit Center 3900 is at  -4.005490 -1.155131  1.863023
      ESP Fit Center 3901 is at  -4.157635  1.108536  1.501327
      ESP Fit Center 3902 is at  -4.299283  0.709979  1.501327
      ESP Fit Center 3903 is at  -4.385340  0.295846  1.501327
      ESP Fit Center 3904 is at  -4.414205 -0.126147  1.501327
      ESP Fit Center 3905 is at  -4.385340 -0.548141  1.501327
      ESP Fit Center 3906 is at  -4.299283 -0.962273  1.501327
      ESP Fit Center 3907 is at  -4.157635 -1.360830  1.501327
      ESP Fit Center 3908 is at  -3.963037 -1.736388  1.501327
      ESP Fit Center 3909 is at  -3.719113 -2.081949  1.501327
      ESP Fit Center 3910 is at  -4.263581  1.293762  1.115913
      ESP Fit Center 3911 is at  -4.420948  0.905062  1.115913
      ESP Fit Center 3912 is at  -4.527318  0.499430  1.115913
      ESP Fit Center 3913 is at  -4.580942  0.083526  1.115913
      ESP Fit Center 3914 is at  -4.580942 -0.335821  1.115913
      ESP Fit Center 3915 is at  -4.527318 -0.751725  1.115913
      ESP Fit Center 3916 is at  -4.420948 -1.157357  1.115913
      ESP Fit Center 3917 is at  -4.263581 -1.546056  1.115913
      ESP Fit Center 3918 is at  -4.057800 -1.911441  1.115913
      ESP Fit Center 3919 is at  -3.806985 -2.247511  1.115913
      ESP Fit Center 3920 is at  -3.515252 -2.548749  1.115913
      ESP Fit Center 3921 is at  -3.187394 -2.810208  1.115913
      ESP Fit Center 3922 is at  -4.204399  1.662825  0.712401
      ESP Fit Center 3923 is at  -4.402344  1.294206  0.712401
      ESP Fit Center 3924 is at  -4.553489  0.904055  0.712401
      ESP Fit Center 3925 is at  -4.655543  0.498288  0.712401
      ESP Fit Center 3926 is at  -4.706960  0.083055  0.712401
      ESP Fit Center 3927 is at  -4.706960 -0.335349  0.712401
      ESP Fit Center 3928 is at  -4.655543 -0.750583  0.712401
      ESP Fit Center 3929 is at  -4.553489 -1.156350  0.712401
      ESP Fit Center 3930 is at  -4.402344 -1.546500  0.712401
      ESP Fit Center 3931 is at  -4.204399 -1.915120  0.712401
      ESP Fit Center 3932 is at  -3.962656 -2.256620  0.712401
      ESP Fit Center 3933 is at  -3.680779 -2.565825  0.712401
      ESP Fit Center 3934 is at  -3.363040 -2.838046  0.712401
      ESP Fit Center 3935 is at  -3.014258 -3.069158  0.712401
      ESP Fit Center 3936 is at  -2.639717 -3.255657  0.712401
      ESP Fit Center 3937 is at  -2.245097 -3.394716  0.712401
      ESP Fit Center 3938 is at  -1.836380 -3.484226  0.712401
      ESP Fit Center 3939 is at  -4.391610  1.488525  0.296675
      ESP Fit Center 3940 is at  -4.563806  1.105921  0.296675
      ESP Fit Center 3941 is at  -4.688628  0.705351  0.296675
      ESP Fit Center 3942 is at  -4.764258  0.292655  0.296675
      ESP Fit Center 3943 is at  -4.789590 -0.126147  0.296675
      ESP Fit Center 3944 is at  -4.764258 -0.544950  0.296675
      ESP Fit Center 3945 is at  -4.174551 -2.099877  0.296675
      ESP Fit Center 3946 is at  -3.915796 -2.430154  0.296675
      ESP Fit Center 3947 is at  -3.619117 -2.726834  0.296675
      ESP Fit Center 3948 is at  -3.288840 -2.985589  0.296675
      ESP Fit Center 3949 is at  -2.929781 -3.202647  0.296675
      ESP Fit Center 3950 is at  -2.547177 -3.374843  0.296675
      ESP Fit Center 3951 is at  -2.146607 -3.499666  0.296675
      ESP Fit Center 3952 is at  -1.733912 -3.575295  0.296675
      ESP Fit Center 3953 is at  -1.315109 -3.600628  0.296675
      ESP Fit Center 3954 is at  -0.896307 -3.575295  0.296675
      ESP Fit Center 3955 is at  -0.483612 -3.499666  0.296675
      ESP Fit Center 3956 is at  -4.328762  1.653712 -0.125204
      ESP Fit Center 3957 is at  -4.518119  1.284785 -0.125204
      ESP Fit Center 3958 is at  -4.662513  0.896051 -0.125204
      ESP Fit Center 3959 is at  -4.759916  0.492969 -0.125204
      ESP Fit Center 3960 is at  -3.520417 -2.843981 -0.125204
      ESP Fit Center 3961 is at  -3.183491 -3.085733 -0.125204
      ESP Fit Center 3962 is at  -2.820338 -3.285940 -0.125204
      ESP Fit Center 3963 is at  -2.436054 -3.441789 -0.125204
      ESP Fit Center 3964 is at  -2.036035 -3.551095 -0.125204
      ESP Fit Center 3965 is at  -1.625895 -3.612322 -0.125204
      ESP Fit Center 3966 is at  -1.211393 -3.624610 -0.125204
      ESP Fit Center 3967 is at  -0.798346 -3.587788 -0.125204
      ESP Fit Center 3968 is at  -0.392554 -3.502372 -0.125204
      ESP Fit Center 3969 is at  -4.174551  1.847583 -0.547082
      ESP Fit Center 3970 is at  -4.391610  1.488525 -0.547082
      ESP Fit Center 3971 is at  -4.563806  1.105921 -0.547082
      ESP Fit Center 3972 is at  -2.929781 -3.202647 -0.547082
      ESP Fit Center 3973 is at  -2.547177 -3.374843 -0.547082
      ESP Fit Center 3974 is at  -2.146607 -3.499666 -0.547082
      ESP Fit Center 3975 is at  -1.733912 -3.575295 -0.547082
      ESP Fit Center 3976 is at  -1.315109 -3.600628 -0.547082
      ESP Fit Center 3977 is at  -0.896307 -3.575295 -0.547082
      ESP Fit Center 3978 is at  -0.483612 -3.499666 -0.547082
      ESP Fit Center 3979 is at  -0.083041 -3.374843 -0.547082
      ESP Fit Center 3980 is at  -3.680779  2.313530 -0.962808
      ESP Fit Center 3981 is at  -3.962656  2.004326 -0.962808
      ESP Fit Center 3982 is at  -4.204399  1.662825 -0.962808
      ESP Fit Center 3983 is at  -4.402344  1.294206 -0.962808
      ESP Fit Center 3984 is at  -2.639717 -3.255657 -0.962808
      ESP Fit Center 3985 is at  -2.245097 -3.394716 -0.962808
      ESP Fit Center 3986 is at  -1.836380 -3.484226 -0.962808
      ESP Fit Center 3987 is at  -1.419760 -3.522832 -0.962808
      ESP Fit Center 3988 is at  -1.001554 -3.509947 -0.962808
      ESP Fit Center 3989 is at  -0.588101 -3.445767 -0.962808
      ESP Fit Center 3990 is at  -0.185669 -3.331265 -0.962808
      ESP Fit Center 3991 is at  -3.515252  2.296455 -1.366321
      ESP Fit Center 3992 is at  -3.806985  1.995217 -1.366321
      ESP Fit Center 3993 is at  -4.057800  1.659147 -1.366321
      ESP Fit Center 3994 is at  -2.043322 -3.316654 -1.366321
      ESP Fit Center 3995 is at  -1.629350 -3.383582 -1.366321
      ESP Fit Center 3996 is at  -1.210219 -3.397023 -1.366321
      ESP Fit Center 3997 is at  -0.792810 -3.356756 -1.366321
      ESP Fit Center 3998 is at  -0.383977 -3.263442 -1.366321
      ESP Fit Center 3999 is at   0.009567 -3.118614 -1.366321
      ESP Fit Center 4000 is at  -0.684580  2.908128 -1.751735
      ESP Fit Center 4001 is at  -2.740895  2.625494 -1.751735
      ESP Fit Center 4002 is at  -3.102297  2.405721 -1.751735
      ESP Fit Center 4003 is at  -3.430407  2.138784 -1.751735
      ESP Fit Center 4004 is at  -3.719113  1.829655 -1.751735
      ESP Fit Center 4005 is at  -1.945639 -3.160423 -1.751735
      ESP Fit Center 4006 is at  -1.526599 -3.218019 -1.751735
      ESP Fit Center 4007 is at  -1.103620 -3.218019 -1.751735
      ESP Fit Center 4008 is at  -0.684580 -3.160423 -1.751735
      ESP Fit Center 4009 is at  -0.277285 -3.046304 -1.751735
      ESP Fit Center 4010 is at   0.110676 -2.877789 -1.751735
      ESP Fit Center 4011 is at  -0.586549  2.660635 -2.113430
      ESP Fit Center 4012 is at  -1.000072  2.737016 -2.113430
      ESP Fit Center 4013 is at  -1.420309  2.752375 -2.113430
      ESP Fit Center 4014 is at  -1.838304  2.706382 -2.113430
      ESP Fit Center 4015 is at  -2.245148  2.600019 -2.113430
      ESP Fit Center 4016 is at  -2.632170  2.435553 -2.113430
      ESP Fit Center 4017 is at  -2.991121  2.216488 -2.113430
      ESP Fit Center 4018 is at  -3.314351  1.947494 -2.113430
      ESP Fit Center 4019 is at  -1.420309 -3.004669 -2.113430
      ESP Fit Center 4020 is at  -1.000072 -2.989311 -2.113430
      ESP Fit Center 4021 is at  -0.586549 -2.912929 -2.113430
      ESP Fit Center 4022 is at  -0.188554 -2.777152 -2.113430
      ESP Fit Center 4023 is at  -0.999329  2.474539 -2.446133
      ESP Fit Center 4024 is at  -1.420598  2.491516 -2.446133
      ESP Fit Center 4025 is at  -1.839134  2.440696 -2.446133
      ESP Fit Center 4026 is at  -2.244099  2.323397 -2.446133
      ESP Fit Center 4027 is at  -2.625003  2.142655 -2.446133
      ESP Fit Center 4028 is at  -2.971982  1.903153 -2.446133
      ESP Fit Center 4029 is at  -1.420598 -2.743810 -2.446133
      ESP Fit Center 4030 is at  -0.999329 -2.726834 -2.446133
      ESP Fit Center 4031 is at  -0.586239 -2.642501 -2.446133
      ESP Fit Center 4032 is at  -1.003563  2.173777 -2.744991
      ESP Fit Center 4033 is at  -1.419237  2.192445 -2.744991
      ESP Fit Center 4034 is at  -1.831565  2.136592 -2.744991
      ESP Fit Center 4035 is at  -2.227293  2.008012 -2.744991
      ESP Fit Center 4036 is at  -2.593702  1.810838 -2.744991
      ESP Fit Center 4037 is at  -2.919017  1.551409 -2.744991
      ESP Fit Center 4038 is at  -1.003563 -2.426072 -2.744991
      ESP Fit Center 4039 is at  -0.597903 -2.333482 -2.744991
      ESP Fit Center 4040 is at  -1.107283  1.851188 -3.005647
      ESP Fit Center 4041 is at  -1.522936  1.851188 -3.005647
      ESP Fit Center 4042 is at  -1.929505  1.764769 -3.005647
      ESP Fit Center 4043 is at  -2.309223  1.595708 -3.005647
      ESP Fit Center 4044 is at  -2.645493  1.351393 -3.005647
      ESP Fit Center 4045 is at  -1.107283 -2.103482 -3.005647
      ESP Fit Center 4046 is at  -0.700714 -2.017063 -3.005647
      ESP Fit Center 4047 is at  -1.315109  1.500384 -3.224300
      ESP Fit Center 4048 is at  -1.736087  1.444961 -3.224300
      ESP Fit Center 4049 is at  -2.128375  1.282470 -3.224300
      ESP Fit Center 4050 is at  -0.894132 -1.697256 -3.224300
      ESP Fit Center 4051 is at  -1.099592  1.096115 -3.397760
      ESP Fit Center 4052 is at  -1.530627  1.096115 -3.397760
      ESP Fit Center 4053 is at  -1.935668  0.948692 -3.397760
      ESP Fit Center 4054 is at  -1.099592 -1.348409 -3.397760
      ESP Fit Center 4055 is at  -1.315109  0.711458 -3.523500
      ESP Fit Center 4056 is at  -1.733912  0.599240 -3.523500
      ESP Fit Center 4057 is at  -1.104170  0.239210 -3.599685
      ESP Fit Center 4058 is at  -1.526049  0.239210 -3.599685
      ESP Fit Center 4059 is at  -1.104170 -0.491505 -3.599685
      ESP Fit Center 4060 is at  -1.315109 -0.126147 -3.625204
      ESP Fit Center 4061 is at  -1.529461  1.376146  3.079330
      ESP Fit Center 4062 is at  -1.107088  1.376146  3.046088
      ESP Fit Center 4063 is at  -1.318274  1.741932  3.046088
      ESP Fit Center 4064 is at  -1.740648  1.741932  3.046088
      ESP Fit Center 4065 is at  -1.951834  1.376146  3.046088
      ESP Fit Center 4066 is at  -0.806896  1.793319  2.947182
      ESP Fit Center 4067 is at  -1.112288  2.098711  2.947182
      ESP Fit Center 4068 is at  -1.529461  2.210492  2.947182
      ESP Fit Center 4069 is at  -1.946634  2.098711  2.947182
      ESP Fit Center 4070 is at  -2.252026  1.793319  2.947182
      ESP Fit Center 4071 is at  -2.363807  1.376146  2.947182
      ESP Fit Center 4072 is at  -0.590463  2.164059  2.785047
      ESP Fit Center 4073 is at  -0.916574  2.437698  2.785047
      ESP Fit Center 4074 is at  -1.316607  2.583298  2.785047
      ESP Fit Center 4075 is at  -1.742314  2.583298  2.785047
      ESP Fit Center 4076 is at  -2.142348  2.437698  2.785047
      ESP Fit Center 4077 is at  -2.468459  2.164059  2.785047
      ESP Fit Center 4078 is at  -2.681312  1.795386  2.785047
      ESP Fit Center 4079 is at  -2.755235  1.376146  2.785047
      ESP Fit Center 4080 is at  -0.407268  2.498339  2.563676
      ESP Fit Center 4081 is at  -0.735951  2.750546  2.563676
      ESP Fit Center 4082 is at  -1.118710  2.909090  2.563676
      ESP Fit Center 4083 is at  -1.529461  2.963166  2.563676
      ESP Fit Center 4084 is at  -1.940212  2.909090  2.563676
      ESP Fit Center 4085 is at  -2.322971  2.750546  2.563676
      ESP Fit Center 4086 is at  -2.651654  2.498339  2.563676
      ESP Fit Center 4087 is at  -2.903861  2.169656  2.563676
      ESP Fit Center 4088 is at  -3.062405  1.786897  2.563676
      ESP Fit Center 4089 is at  -3.116481  1.376146  2.563676
      ESP Fit Center 4090 is at  -0.339102  2.868810  2.288518
      ESP Fit Center 4091 is at  -0.701095  3.096265  2.288518
      ESP Fit Center 4092 is at  -1.104627  3.237467  2.288518
      ESP Fit Center 4093 is at  -1.529461  3.285334  2.288518
      ESP Fit Center 4094 is at  -1.954295  3.237467  2.288518
      ESP Fit Center 4095 is at  -2.357827  3.096265  2.288518
      ESP Fit Center 4096 is at  -2.719820  2.868810  2.288518
      ESP Fit Center 4097 is at  -3.022125  2.566506  2.288518
      ESP Fit Center 4098 is at  -3.249580  2.204512  2.288518
      ESP Fit Center 4099 is at  -3.390782  1.800981  2.288518
      ESP Fit Center 4100 is at  -3.438649  1.376146  2.288518
      ESP Fit Center 4101 is at  -0.262416  3.155462  1.966350
      ESP Fit Center 4102 is at  -0.622051  3.363097  1.966350
      ESP Fit Center 4103 is at  -1.014482  3.498919  1.966350
      ESP Fit Center 4104 is at  -1.425526  3.558018  1.966350
      ESP Fit Center 4105 is at  -1.840326  3.538259  1.966350
      ESP Fit Center 4106 is at  -2.243891  3.440355  1.966350
      ESP Fit Center 4107 is at  -2.621634  3.267845  1.966350
      ESP Fit Center 4108 is at  -2.959903  3.026965  1.966350
      ESP Fit Center 4109 is at  -3.246473  2.726419  1.966350
      ESP Fit Center 4110 is at  -3.470985  2.377071  1.966350
      ESP Fit Center 4111 is at  -3.625326  1.991548  1.966350
      ESP Fit Center 4112 is at  -3.703916  1.583781  1.966350
      ESP Fit Center 4113 is at  -0.326602  3.459559  1.605104
      ESP Fit Center 4114 is at  -0.706657  3.636781  1.605104
      ESP Fit Center 4115 is at  -1.111712  3.745316  1.605104
      ESP Fit Center 4116 is at  -1.529461  3.781864  1.605104
      ESP Fit Center 4117 is at  -1.947209  3.745316  1.605104
      ESP Fit Center 4118 is at  -2.352265  3.636781  1.605104
      ESP Fit Center 4119 is at  -2.732320  3.459559  1.605104
      ESP Fit Center 4120 is at  -3.075826  3.219033  1.605104
      ESP Fit Center 4121 is at  -3.372348  2.922512  1.605104
      ESP Fit Center 4122 is at  -3.612874  2.579005  1.605104
      ESP Fit Center 4123 is at  -3.790096  2.198950  1.605104
      ESP Fit Center 4124 is at  -3.898630  1.793895  1.605104
      ESP Fit Center 4125 is at  -0.124979  3.525866  1.213676
      ESP Fit Center 4126 is at  -0.497966  3.727717  1.213676
      ESP Fit Center 4127 is at  -0.899090  3.865423  1.213676
      ESP Fit Center 4128 is at  -1.317409  3.935228  1.213676
      ESP Fit Center 4129 is at  -1.741513  3.935228  1.213676
      ESP Fit Center 4130 is at  -2.159832  3.865423  1.213676
      ESP Fit Center 4131 is at  -2.560956  3.727717  1.213676
      ESP Fit Center 4132 is at  -2.933943  3.525866  1.213676
      ESP Fit Center 4133 is at  -3.268620  3.265377  1.213676
      ESP Fit Center 4134 is at  -3.555857  2.953354  1.213676
      ESP Fit Center 4135 is at  -3.787820  2.598309  1.213676
      ESP Fit Center 4136 is at  -3.958180  2.209927  1.213676
      ESP Fit Center 4137 is at  -4.062291  1.798801  1.213676
      ESP Fit Center 4138 is at   0.038020  3.533599  0.801703
      ESP Fit Center 4139 is at  -0.318778  3.752245  0.801703
      ESP Fit Center 4140 is at  -0.705387  3.912384  0.801703
      ESP Fit Center 4141 is at  -1.112288  4.010072  0.801703
      ESP Fit Center 4142 is at  -1.529461  4.042905  0.801703
      ESP Fit Center 4143 is at  -1.946634  4.010072  0.801703
      ESP Fit Center 4144 is at  -2.353535  3.912384  0.801703
      ESP Fit Center 4145 is at  -2.740144  3.752245  0.801703
      ESP Fit Center 4146 is at  -3.096942  3.533599  0.801703
      ESP Fit Center 4147 is at  -3.415144  3.261829  0.801703
      ESP Fit Center 4148 is at  -3.686914  2.943627  0.801703
      ESP Fit Center 4149 is at  -3.905560  2.586829  0.801703
      ESP Fit Center 4150 is at  -4.065699  2.200220  0.801703
      ESP Fit Center 4151 is at  -4.163387  1.793319  0.801703
      ESP Fit Center 4152 is at   0.107348  3.523437  0.379330
      ESP Fit Center 4153 is at  -0.239617  3.748129  0.379330
      ESP Fit Center 4154 is at  -0.616815  3.917224  0.379330
      ESP Fit Center 4155 is at  -1.015405  4.026759  0.379330
      ESP Fit Center 4156 is at  -1.426044  4.074165  0.379330
      ESP Fit Center 4157 is at  -1.839106  4.058332  0.379330
      ESP Fit Center 4158 is at  -2.244911  3.979631  0.379330
      ESP Fit Center 4159 is at  -2.633946  3.839906  0.379330
      ESP Fit Center 4160 is at  -2.997093  3.642433  0.379330
      ESP Fit Center 4161 is at  -3.325840  3.391840  0.379330
      ESP Fit Center 4162 is at  -3.612482  3.094001  0.379330
      ESP Fit Center 4163 is at  -3.850299  2.755897  0.379330
      ESP Fit Center 4164 is at  -4.033718  2.385452  0.379330
      ESP Fit Center 4165 is at  -4.158439  1.991351  0.379330
      ESP Fit Center 4166 is at   0.038020  3.533599 -0.043043
      ESP Fit Center 4167 is at  -0.318778  3.752245 -0.043043
      ESP Fit Center 4168 is at  -0.705387  3.912384 -0.043043
      ESP Fit Center 4169 is at  -1.112288  4.010072 -0.043043
      ESP Fit Center 4170 is at  -1.529461  4.042905 -0.043043
      ESP Fit Center 4171 is at  -1.946634  4.010072 -0.043043
      ESP Fit Center 4172 is at  -2.353535  3.912384 -0.043043
      ESP Fit Center 4173 is at  -2.740144  3.752245 -0.043043
      ESP Fit Center 4174 is at  -3.096942  3.533599 -0.043043
      ESP Fit Center 4175 is at  -3.415144  3.261829 -0.043043
      ESP Fit Center 4176 is at  -3.686914  2.943627 -0.043043
      ESP Fit Center 4177 is at  -3.905560  2.586829 -0.043043
      ESP Fit Center 4178 is at  -4.065699  2.200220 -0.043043
      ESP Fit Center 4179 is at  -0.124979  3.525866 -0.455016
      ESP Fit Center 4180 is at  -0.497966  3.727717 -0.455016
      ESP Fit Center 4181 is at  -0.899090  3.865423 -0.455016
      ESP Fit Center 4182 is at  -1.317409  3.935228 -0.455016
      ESP Fit Center 4183 is at  -1.741513  3.935228 -0.455016
      ESP Fit Center 4184 is at  -2.159832  3.865423 -0.455016
      ESP Fit Center 4185 is at  -2.560956  3.727717 -0.455016
      ESP Fit Center 4186 is at  -2.933943  3.525866 -0.455016
      ESP Fit Center 4187 is at  -3.268620  3.265377 -0.455016
      ESP Fit Center 4188 is at  -3.555857  2.953354 -0.455016
      ESP Fit Center 4189 is at  -3.787820  2.598309 -0.455016
      ESP Fit Center 4190 is at  -3.958180  2.209927 -0.455016
      ESP Fit Center 4191 is at  -0.326602  3.459559 -0.846444
      ESP Fit Center 4192 is at  -0.706657  3.636781 -0.846444
      ESP Fit Center 4193 is at  -1.111712  3.745316 -0.846444
      ESP Fit Center 4194 is at  -1.529461  3.781864 -0.846444
      ESP Fit Center 4195 is at  -1.947209  3.745316 -0.846444
      ESP Fit Center 4196 is at  -2.352265  3.636781 -0.846444
      ESP Fit Center 4197 is at  -2.732320  3.459559 -0.846444
      ESP Fit Center 4198 is at  -3.075826  3.219033 -0.846444
      ESP Fit Center 4199 is at  -3.372348  2.922512 -0.846444
      ESP Fit Center 4200 is at  -3.612874  2.579005 -0.846444
      ESP Fit Center 4201 is at  -0.262416  3.155462 -1.207690
      ESP Fit Center 4202 is at  -0.622051  3.363097 -1.207690
      ESP Fit Center 4203 is at  -1.014482  3.498919 -1.207690
      ESP Fit Center 4204 is at  -1.425526  3.558018 -1.207690
      ESP Fit Center 4205 is at  -1.840326  3.538259 -1.207690
      ESP Fit Center 4206 is at  -2.243891  3.440355 -1.207690
      ESP Fit Center 4207 is at  -2.621634  3.267845 -1.207690
      ESP Fit Center 4208 is at  -2.959903  3.026965 -1.207690
      ESP Fit Center 4209 is at  -3.246473  2.726419 -1.207690
      ESP Fit Center 4210 is at  -0.701095  3.096265 -1.529858
      ESP Fit Center 4211 is at  -1.104627  3.237467 -1.529858
      ESP Fit Center 4212 is at  -1.529461  3.285334 -1.529858
      ESP Fit Center 4213 is at  -1.954295  3.237467 -1.529858
      ESP Fit Center 4214 is at  -2.357827  3.096265 -1.529858
      ESP Fit Center 4215 is at  -2.719820  2.868810 -1.529858
      ESP Fit Center 4216 is at  -1.529461  2.963166 -1.805016
      ESP Fit Center 4217 is at  -1.940212  2.909090 -1.805016
      ESP Fit Center 4218 is at  -1.253547 -0.763615  3.908630
      ESP Fit Center 4219 is at  -0.836228 -0.763615  3.877356
      ESP Fit Center 4220 is at  -1.044887 -0.402207  3.877356
      ESP Fit Center 4221 is at  -1.462206 -0.402207  3.877356
      ESP Fit Center 4222 is at  -1.670865 -0.763615  3.877356
      ESP Fit Center 4223 is at  -1.462206 -1.125024  3.877356
      ESP Fit Center 4224 is at  -1.044887 -1.125024  3.877356
      ESP Fit Center 4225 is at  -0.428232 -0.763615  3.784233
      ESP Fit Center 4226 is at  -0.538803 -0.350958  3.784233
      ESP Fit Center 4227 is at  -0.840889 -0.048872  3.784233
      ESP Fit Center 4228 is at  -1.253547  0.061699  3.784233
      ESP Fit Center 4229 is at  -1.666204 -0.048872  3.784233
      ESP Fit Center 4230 is at  -1.968290 -0.350958  3.784233
      ESP Fit Center 4231 is at  -2.078861 -0.763615  3.784233
      ESP Fit Center 4232 is at  -1.968290 -1.176273  3.784233
      ESP Fit Center 4233 is at  -1.666204 -1.478359  3.784233
      ESP Fit Center 4234 is at  -1.253547 -1.588930  3.784233
      ESP Fit Center 4235 is at  -0.840889 -1.478359  3.784233
      ESP Fit Center 4236 is at  -0.538803 -1.176273  3.784233
      ESP Fit Center 4237 is at  -0.038672 -0.763615  3.631342
      ESP Fit Center 4238 is at  -0.111938 -0.348104  3.631342
      ESP Fit Center 4239 is at  -0.322899  0.017291  3.631342
      ESP Fit Center 4240 is at  -0.646109  0.288497  3.631342
      ESP Fit Center 4241 is at  -1.042586  0.432802  3.631342
      ESP Fit Center 4242 is at  -1.464507  0.432802  3.631342
      ESP Fit Center 4243 is at  -1.860984  0.288497  3.631342
      ESP Fit Center 4244 is at  -2.184194  0.017291  3.631342
      ESP Fit Center 4245 is at  -2.395155 -0.348104  3.631342
      ESP Fit Center 4246 is at  -2.468421 -0.763615  3.631342
      ESP Fit Center 4247 is at  -2.395155 -1.179127  3.631342
      ESP Fit Center 4248 is at  -2.184194 -1.544522  3.631342
      ESP Fit Center 4249 is at  -1.860984 -1.815727  3.631342
      ESP Fit Center 4250 is at  -1.464507 -1.960033  3.631342
      ESP Fit Center 4251 is at  -1.042586 -1.960033  3.631342
      ESP Fit Center 4252 is at  -0.646109 -1.815727  3.631342
      ESP Fit Center 4253 is at  -0.322899 -1.544522  3.631342
      ESP Fit Center 4254 is at  -0.111938 -1.179127  3.631342
      ESP Fit Center 4255 is at   0.323750 -0.763615  3.422098
      ESP Fit Center 4256 is at  -0.464898  0.602363  3.422098
      ESP Fit Center 4257 is at  -0.845312  0.759936  3.422098
      ESP Fit Center 4258 is at  -1.253547  0.813681  3.422098
      ESP Fit Center 4259 is at  -1.661781  0.759936  3.422098
      ESP Fit Center 4260 is at  -2.042195  0.602363  3.422098
      ESP Fit Center 4261 is at  -2.368863  0.351702  3.422098
      ESP Fit Center 4262 is at  -2.619525  0.025033  3.422098
      ESP Fit Center 4263 is at  -2.777098 -0.355381  3.422098
      ESP Fit Center 4264 is at  -2.830843 -0.763615  3.422098
      ESP Fit Center 4265 is at  -2.777098 -1.171850  3.422098
      ESP Fit Center 4266 is at  -2.619525 -1.552263  3.422098
      ESP Fit Center 4267 is at  -2.368863 -1.878932  3.422098
      ESP Fit Center 4268 is at  -2.042195 -2.129594  3.422098
      ESP Fit Center 4269 is at  -1.661781 -2.287166  3.422098
      ESP Fit Center 4270 is at  -1.253547 -2.340911  3.422098
      ESP Fit Center 4271 is at  -0.845312 -2.287166  3.422098
      ESP Fit Center 4272 is at  -0.464898 -2.129594  3.422098
      ESP Fit Center 4273 is at  -0.138230 -1.878932  3.422098
      ESP Fit Center 4274 is at   0.112432 -1.552263  3.422098
      ESP Fit Center 4275 is at   0.270005 -1.171850  3.422098
      ESP Fit Center 4276 is at  -0.744043  1.071450  3.161175
      ESP Fit Center 4277 is at  -1.150440  1.138075  3.161175
      ESP Fit Center 4278 is at  -1.561658  1.115780  3.161175
      ESP Fit Center 4279 is at  -1.958469  1.005606  3.161175
      ESP Fit Center 4280 is at  -2.322318  0.812705  3.161175
      ESP Fit Center 4281 is at  -2.636193  0.546097  3.161175
      ESP Fit Center 4282 is at  -2.885417  0.218249  3.161175
      ESP Fit Center 4283 is at  -3.058336 -0.155511  3.161175
      ESP Fit Center 4284 is at  -3.146866 -0.557704  3.161175
      ESP Fit Center 4285 is at  -3.146866 -0.969526  3.161175
      ESP Fit Center 4286 is at  -3.058336 -1.371720  3.161175
      ESP Fit Center 4287 is at  -2.885417 -1.745479  3.161175
      ESP Fit Center 4288 is at  -2.636193 -2.073328  3.161175
      ESP Fit Center 4289 is at  -2.322318 -2.339935  3.161175
      ESP Fit Center 4290 is at  -1.958469 -2.532836  3.161175
      ESP Fit Center 4291 is at  -1.561658 -2.643010  3.161175
      ESP Fit Center 4292 is at  -1.150440 -2.665306  3.161175
      ESP Fit Center 4293 is at  -0.744043 -2.598681  3.161175
      ESP Fit Center 4294 is at  -0.361470 -2.446250  3.161175
      ESP Fit Center 4295 is at  -0.020610 -2.215140  3.161175
      ESP Fit Center 4296 is at   0.262600 -1.916160  3.161175
      ESP Fit Center 4297 is at   0.474916 -1.563287  3.161175
      ESP Fit Center 4298 is at   0.606411 -1.173023  3.161175
      ESP Fit Center 4299 is at  -3.199321  0.239501  2.854401
      ESP Fit Center 4300 is at  -3.354000 -0.146867  2.854401
      ESP Fit Center 4301 is at  -3.432762 -0.555525  2.854401
      ESP Fit Center 4302 is at  -3.432762 -0.971705  2.854401
      ESP Fit Center 4303 is at  -3.354000 -1.380364  2.854401
      ESP Fit Center 4304 is at  -3.199321 -1.766732  2.854401
      ESP Fit Center 4305 is at  -2.974317 -2.116845  2.854401
      ESP Fit Center 4306 is at  -2.687121 -2.418048  2.854401
      ESP Fit Center 4307 is at  -2.348111 -2.659456  2.854401
      ESP Fit Center 4308 is at  -1.969540 -2.832343  2.854401
      ESP Fit Center 4309 is at  -1.565092 -2.930461  2.854401
      ESP Fit Center 4310 is at  -1.149384 -2.950264  2.854401
      ESP Fit Center 4311 is at  -0.737440 -2.891035  2.854401
      ESP Fit Center 4312 is at  -0.344150 -2.754916  2.854401
      ESP Fit Center 4313 is at   0.016272 -2.546826  2.854401
      ESP Fit Center 4314 is at   0.330800 -2.274287  2.854401
      ESP Fit Center 4315 is at   0.588065 -1.947147  2.854401
      ESP Fit Center 4316 is at  -3.669682 -0.557972  2.508630
      ESP Fit Center 4317 is at  -3.669682 -0.969259  2.508630
      ESP Fit Center 4318 is at  -3.600174 -1.374630  2.508630
      ESP Fit Center 4319 is at  -3.463158 -1.762423  2.508630
      ESP Fit Center 4320 is at  -3.262576 -2.121482  2.508630
      ESP Fit Center 4321 is at  -3.004197 -2.441478  2.508630
      ESP Fit Center 4322 is at  -2.695455 -2.713205  2.508630
      ESP Fit Center 4323 is at  -2.345233 -2.928845  2.508630
      ESP Fit Center 4324 is at  -1.963604 -3.082196  2.508630
      ESP Fit Center 4325 is at  -1.561548 -3.168846  2.508630
      ESP Fit Center 4326 is at  -1.150632 -3.186302  2.508630
      ESP Fit Center 4327 is at  -0.742676 -3.134061  2.508630
      ESP Fit Center 4328 is at  -0.349418 -3.013627  2.508630
      ESP Fit Center 4329 is at   0.017831 -2.828464  2.508630
      ESP Fit Center 4330 is at   0.348505 -2.583899  2.508630
      ESP Fit Center 4331 is at  -3.827903 -1.171353  2.131584
      ESP Fit Center 4332 is at  -3.732424 -1.569052  2.131584
      ESP Fit Center 4333 is at  -3.575907 -1.946917  2.131584
      ESP Fit Center 4334 is at  -3.362206 -2.295646  2.131584
      ESP Fit Center 4335 is at  -3.096582 -2.606651  2.131584
      ESP Fit Center 4336 is at  -2.785577 -2.872275  2.131584
      ESP Fit Center 4337 is at  -2.436848 -3.085976  2.131584
      ESP Fit Center 4338 is at  -2.058983 -3.242493  2.131584
      ESP Fit Center 4339 is at  -1.661285 -3.337972  2.131584
      ESP Fit Center 4340 is at  -1.253547 -3.370062  2.131584
      ESP Fit Center 4341 is at  -0.845808 -3.337972  2.131584
      ESP Fit Center 4342 is at  -0.448110 -3.242493  2.131584
      ESP Fit Center 4343 is at  -0.070245 -3.085976  2.131584
      ESP Fit Center 4344 is at  -3.785441 -1.784060  1.731688
      ESP Fit Center 4345 is at  -3.599998 -2.158593  1.731688
      ESP Fit Center 4346 is at  -3.359556 -2.500429  1.731688
      ESP Fit Center 4347 is at  -3.069751 -2.801555  1.731688
      ESP Fit Center 4348 is at  -2.737376 -3.054913  1.731688
      ESP Fit Center 4349 is at  -2.370221 -3.254566  1.731688
      ESP Fit Center 4350 is at  -1.976893 -3.395833  1.731688
      ESP Fit Center 4351 is at  -1.566609 -3.475402  1.731688
      ESP Fit Center 4352 is at  -1.148988 -3.491410  1.731688
      ESP Fit Center 4353 is at  -0.733817 -3.443481  1.731688
      ESP Fit Center 4354 is at  -0.330829 -3.332738  1.731688
      ESP Fit Center 4355 is at  -3.300352 -2.662774  1.317874
      ESP Fit Center 4356 is at  -2.994436 -2.946622  1.317874
      ESP Fit Center 4357 is at  -2.649632 -3.181706  1.317874
      ESP Fit Center 4358 is at  -2.273641 -3.362774  1.317874
      ESP Fit Center 4359 is at  -1.874863 -3.485780  1.317874
      ESP Fit Center 4360 is at  -1.462206 -3.547978  1.317874
      ESP Fit Center 4361 is at  -1.044887 -3.547978  1.317874
      ESP Fit Center 4362 is at  -0.632230 -3.485780  1.317874
      ESP Fit Center 4363 is at  -0.233452 -3.362774  1.317874
      ESP Fit Center 4364 is at  -2.273641 -3.362774  0.899385
      ESP Fit Center 4365 is at  -1.874863 -3.485780  0.899385
      ESP Fit Center 4366 is at  -1.462206 -3.547978  0.899385
      ESP Fit Center 4367 is at  -1.044887 -3.547978  0.899385
      ESP Fit Center 4368 is at  -0.632230 -3.485780  0.899385
      ESP Fit Center 4369 is at  -0.233452 -3.362774  0.899385
      ESP Fit Center 4370 is at  -4.809375 -0.074880  0.096017
      ESP Fit Center 4371 is at  -4.841465 -0.482618  0.096017
      ESP Fit Center 4372 is at  -4.809375 -0.890356  0.096017
      ESP Fit Center 4373 is at  -4.713896 -1.288054  0.096017
      ESP Fit Center 4374 is at  -4.557379 -1.665920  0.096017
      ESP Fit Center 4375 is at  -4.343678 -2.014648  0.096017
      ESP Fit Center 4376 is at  -4.078054 -2.325654  0.096017
      ESP Fit Center 4377 is at  -4.766913  0.537828 -0.303879
      ESP Fit Center 4378 is at  -4.893010  0.139376 -0.303879
      ESP Fit Center 4379 is at  -4.956807 -0.273654 -0.303879
      ESP Fit Center 4380 is at  -4.956807 -0.691582 -0.303879
      ESP Fit Center 4381 is at  -4.893010 -1.104612 -0.303879
      ESP Fit Center 4382 is at  -4.766913 -1.503063 -0.303879
      ESP Fit Center 4383 is at  -4.581470 -1.877595 -0.303879
      ESP Fit Center 4384 is at  -4.341028 -2.219431 -0.303879
      ESP Fit Center 4385 is at  -4.051223 -2.520557 -0.303879
      ESP Fit Center 4386 is at  -3.718848 -2.773916 -0.303879
      ESP Fit Center 4387 is at  -3.351693 -2.973568 -0.303879
      ESP Fit Center 4388 is at  -4.750677  0.728860 -0.717694
      ESP Fit Center 4389 is at  -4.903140  0.340389 -0.717694
      ESP Fit Center 4390 is at  -4.996003 -0.066466 -0.717694
      ESP Fit Center 4391 is at  -5.027189 -0.482618 -0.717694
      ESP Fit Center 4392 is at  -4.996003 -0.898769 -0.717694
      ESP Fit Center 4393 is at  -4.903140 -1.305624 -0.717694
      ESP Fit Center 4394 is at  -4.750677 -1.694095 -0.717694
      ESP Fit Center 4395 is at  -4.542018 -2.055503 -0.717694
      ESP Fit Center 4396 is at  -4.281824 -2.381776 -0.717694
      ESP Fit Center 4397 is at  -3.975908 -2.665625 -0.717694
      ESP Fit Center 4398 is at  -3.631103 -2.900708 -0.717694
      ESP Fit Center 4399 is at  -3.255113 -3.081776 -0.717694
      ESP Fit Center 4400 is at  -4.542018  1.090268 -1.136182
      ESP Fit Center 4401 is at  -4.750677  0.728860 -1.136182
      ESP Fit Center 4402 is at  -4.903140  0.340389 -1.136182
      ESP Fit Center 4403 is at  -4.996003 -0.066466 -1.136182
      ESP Fit Center 4404 is at  -5.027189 -0.482618 -1.136182
      ESP Fit Center 4405 is at  -4.996003 -0.898769 -1.136182
      ESP Fit Center 4406 is at  -4.903140 -1.305624 -1.136182
      ESP Fit Center 4407 is at  -4.750677 -1.694095 -1.136182
      ESP Fit Center 4408 is at  -4.542018 -2.055503 -1.136182
      ESP Fit Center 4409 is at  -4.281824 -2.381776 -1.136182
      ESP Fit Center 4410 is at  -3.975908 -2.665625 -1.136182
      ESP Fit Center 4411 is at  -3.631103 -2.900708 -1.136182
      ESP Fit Center 4412 is at  -3.255113 -3.081776 -1.136182
      ESP Fit Center 4413 is at  -2.856335 -3.204783 -1.136182
      ESP Fit Center 4414 is at  -4.051223  1.555322 -1.549996
      ESP Fit Center 4415 is at  -4.341028  1.254196 -1.549996
      ESP Fit Center 4416 is at  -4.581470  0.912360 -1.549996
      ESP Fit Center 4417 is at  -4.766913  0.537828 -1.549996
      ESP Fit Center 4418 is at  -4.893010  0.139376 -1.549996
      ESP Fit Center 4419 is at  -4.956807 -0.273654 -1.549996
      ESP Fit Center 4420 is at  -4.956807 -0.691582 -1.549996
      ESP Fit Center 4421 is at  -4.893010 -1.104612 -1.549996
      ESP Fit Center 4422 is at  -4.766913 -1.503063 -1.549996
      ESP Fit Center 4423 is at  -4.581470 -1.877595 -1.549996
      ESP Fit Center 4424 is at  -4.341028 -2.219431 -1.549996
      ESP Fit Center 4425 is at  -4.051223 -2.520557 -1.549996
      ESP Fit Center 4426 is at  -3.718848 -2.773916 -1.549996
      ESP Fit Center 4427 is at  -3.351693 -2.973568 -1.549996
      ESP Fit Center 4428 is at  -2.958364 -3.114835 -1.549996
      ESP Fit Center 4429 is at  -2.548081 -3.194405 -1.549996
      ESP Fit Center 4430 is at  -3.767049  1.626042 -1.949893
      ESP Fit Center 4431 is at  -4.078054  1.360418 -1.949893
      ESP Fit Center 4432 is at  -4.343678  1.049413 -1.949893
      ESP Fit Center 4433 is at  -4.557379  0.700684 -1.949893
      ESP Fit Center 4434 is at  -4.713896  0.322819 -1.949893
      ESP Fit Center 4435 is at  -4.809375 -0.074880 -1.949893
      ESP Fit Center 4436 is at  -4.841465 -0.482618 -1.949893
      ESP Fit Center 4437 is at  -4.809375 -0.890356 -1.949893
      ESP Fit Center 4438 is at  -4.713896 -1.288054 -1.949893
      ESP Fit Center 4439 is at  -4.557379 -1.665920 -1.949893
      ESP Fit Center 4440 is at  -4.343678 -2.014648 -1.949893
      ESP Fit Center 4441 is at  -4.078054 -2.325654 -1.949893
      ESP Fit Center 4442 is at  -3.767049 -2.591277 -1.949893
      ESP Fit Center 4443 is at  -3.418320 -2.804978 -1.949893
      ESP Fit Center 4444 is at  -3.040454 -2.961496 -1.949893
      ESP Fit Center 4445 is at  -2.642756 -3.056974 -1.949893
      ESP Fit Center 4446 is at  -2.235018 -3.089064 -1.949893
      ESP Fit Center 4447 is at  -3.676927  1.466972 -2.326938
      ESP Fit Center 4448 is at  -3.985669  1.195245 -2.326938
      ESP Fit Center 4449 is at  -4.244047  0.875249 -2.326938
      ESP Fit Center 4450 is at  -4.444630  0.516190 -2.326938
      ESP Fit Center 4451 is at  -4.581646  0.128397 -2.326938
      ESP Fit Center 4452 is at  -4.651154 -0.276974 -2.326938
      ESP Fit Center 4453 is at  -4.651154 -0.688261 -2.326938
      ESP Fit Center 4454 is at  -4.581646 -1.093632 -2.326938
      ESP Fit Center 4455 is at  -4.444630 -1.481425 -2.326938
      ESP Fit Center 4456 is at  -4.244047 -1.840484 -2.326938
      ESP Fit Center 4457 is at  -3.985669 -2.160480 -2.326938
      ESP Fit Center 4458 is at  -3.676927 -2.432207 -2.326938
      ESP Fit Center 4459 is at  -3.326704 -2.647848 -2.326938
      ESP Fit Center 4460 is at  -2.945076 -2.801199 -2.326938
      ESP Fit Center 4461 is at  -2.543020 -2.887848 -2.326938
      ESP Fit Center 4462 is at  -2.132104 -2.905304 -2.326938
      ESP Fit Center 4463 is at  -1.724148 -2.853063 -2.326938
      ESP Fit Center 4464 is at  -3.329582  1.413223 -2.672709
      ESP Fit Center 4465 is at  -3.668592  1.171815 -2.672709
      ESP Fit Center 4466 is at  -3.955789  0.870612 -2.672709
      ESP Fit Center 4467 is at  -4.180793  0.520499 -2.672709
      ESP Fit Center 4468 is at  -4.335471  0.134131 -2.672709
      ESP Fit Center 4469 is at  -4.414234 -0.274528 -2.672709
      ESP Fit Center 4470 is at  -4.414234 -0.690707 -2.672709
      ESP Fit Center 4471 is at  -4.335471 -1.099366 -2.672709
      ESP Fit Center 4472 is at  -4.180793 -1.485734 -2.672709
      ESP Fit Center 4473 is at  -3.955789 -1.835847 -2.672709
      ESP Fit Center 4474 is at  -3.668592 -2.137050 -2.672709
      ESP Fit Center 4475 is at  -3.329582 -2.378458 -2.672709
      ESP Fit Center 4476 is at  -2.951012 -2.551346 -2.672709
      ESP Fit Center 4477 is at  -2.546564 -2.649464 -2.672709
      ESP Fit Center 4478 is at  -2.130855 -2.669266 -2.672709
      ESP Fit Center 4479 is at  -1.718912 -2.610038 -2.672709
      ESP Fit Center 4480 is at  -2.939940  1.286603 -2.979483
      ESP Fit Center 4481 is at  -3.303790  1.093703 -2.979483
      ESP Fit Center 4482 is at  -3.617665  0.827095 -2.979483
      ESP Fit Center 4483 is at  -3.866889  0.499246 -2.979483
      ESP Fit Center 4484 is at  -4.039808  0.125487 -2.979483
      ESP Fit Center 4485 is at  -4.128338 -0.276707 -2.979483
      ESP Fit Center 4486 is at  -4.128338 -0.688529 -2.979483
      ESP Fit Center 4487 is at  -4.039808 -1.090722 -2.979483
      ESP Fit Center 4488 is at  -3.866889 -1.464482 -2.979483
      ESP Fit Center 4489 is at  -3.617665 -1.792330 -2.979483
      ESP Fit Center 4490 is at  -3.303790 -2.058938 -2.979483
      ESP Fit Center 4491 is at  -2.939940 -2.251839 -2.979483
      ESP Fit Center 4492 is at  -2.543129 -2.362013 -2.979483
      ESP Fit Center 4493 is at  -2.131911 -2.384308 -2.979483
      ESP Fit Center 4494 is at  -1.725515 -2.317683 -2.979483
      ESP Fit Center 4495 is at  -1.342942 -2.165252 -2.979483
      ESP Fit Center 4496 is at  -2.643252  1.040933 -3.240406
      ESP Fit Center 4497 is at  -3.023666  0.883361 -3.240406
      ESP Fit Center 4498 is at  -3.350335  0.632699 -3.240406
      ESP Fit Center 4499 is at  -3.600997  0.306030 -3.240406
      ESP Fit Center 4500 is at  -3.758569 -0.074383 -3.240406
      ESP Fit Center 4501 is at  -3.812314 -0.482618 -3.240406
      ESP Fit Center 4502 is at  -3.758569 -0.890852 -3.240406
      ESP Fit Center 4503 is at  -3.600997 -1.271266 -3.240406
      ESP Fit Center 4504 is at  -3.350335 -1.597934 -3.240406
      ESP Fit Center 4505 is at  -3.023666 -1.848596 -3.240406
      ESP Fit Center 4506 is at  -2.643252 -2.006169 -3.240406
      ESP Fit Center 4507 is at  -2.235018 -2.059914 -3.240406
      ESP Fit Center 4508 is at  -1.826784 -2.006169 -3.240406
      ESP Fit Center 4509 is at  -1.446370 -1.848596 -3.240406
      ESP Fit Center 4510 is at  -2.024057  0.713800 -3.449651
      ESP Fit Center 4511 is at  -2.445979  0.713800 -3.449651
      ESP Fit Center 4512 is at  -2.842455  0.569495 -3.449651
      ESP Fit Center 4513 is at  -3.165666  0.298289 -3.449651
      ESP Fit Center 4514 is at  -3.376627 -0.067106 -3.449651
      ESP Fit Center 4515 is at  -3.449893 -0.482618 -3.449651
      ESP Fit Center 4516 is at  -3.376627 -0.898129 -3.449651
      ESP Fit Center 4517 is at  -3.165666 -1.263524 -3.449651
      ESP Fit Center 4518 is at  -2.842455 -1.534730 -3.449651
      ESP Fit Center 4519 is at  -2.445979 -1.679035 -3.449651
      ESP Fit Center 4520 is at  -2.024057 -1.679035 -3.449651
      ESP Fit Center 4521 is at  -1.627581 -1.534730 -3.449651
      ESP Fit Center 4522 is at  -1.304370 -1.263524 -3.449651
      ESP Fit Center 4523 is at  -1.822361  0.232126 -3.602542
      ESP Fit Center 4524 is at  -2.235018  0.342697 -3.602542
      ESP Fit Center 4525 is at  -2.647675  0.232126 -3.602542
      ESP Fit Center 4526 is at  -2.949761 -0.069960 -3.602542
      ESP Fit Center 4527 is at  -3.060333 -0.482618 -3.602542
      ESP Fit Center 4528 is at  -2.949761 -0.895275 -3.602542
      ESP Fit Center 4529 is at  -2.647675 -1.197361 -3.602542
      ESP Fit Center 4530 is at  -2.235018 -1.307932 -3.602542
      ESP Fit Center 4531 is at  -1.822361 -1.197361 -3.602542
      ESP Fit Center 4532 is at  -1.520275 -0.895275 -3.602542
      ESP Fit Center 4533 is at  -1.817700 -0.482618 -3.695664
      ESP Fit Center 4534 is at  -2.026359 -0.121209 -3.695664
      ESP Fit Center 4535 is at  -2.443677 -0.121209 -3.695664
      ESP Fit Center 4536 is at  -2.652336 -0.482618 -3.695664
      ESP Fit Center 4537 is at  -2.443677 -0.844026 -3.695664
      ESP Fit Center 4538 is at  -2.026359 -0.844026 -3.695664
      ESP Fit Center 4539 is at  -2.235018 -0.482618 -3.726938
 Entering OneElI...
 OneElI was handed   104777708 working-precision words.
 Calculate electrostatic properties
    NBasis =   143  MinDer = 0  MaxDer = 0
    NGrid  =  4539  NMatD  =   1
 Requested accuracy = 0.1000D-05
 ShPair: Thresh= 1.00D-06 NBox=     0 BxSize= 0.00D+00 RnKept= 8.64D+00
         NSMCal=                  741 NSMKep=                 527
 PrmmSu-InSpLW:  IPartL=    0 NPrtUS=    1 NPrtUL=    1 DoSpLW=F IThBeg=    0 IThEnd=    0 NThAct=    1.
 PrSmSu:  IncTry=   512 NBBP=        2392053 NTPThr=   100 NPartT=    1 Incr=         512 LDynOK=F GPUOK=F.
 PrsmSu:  NPrtUS=   1 ThrOK=F IAlg=2 LenDen=           0 ISkipM=0 DoSpLW=F IThBeg=    0 IThEnd=    0.
 Prism:   IPart=     0 DynPar=F LinDyn=F Incr=         512.
 PRISM was handed   104505964 working-precision words and   527 shell-pairs
 IPart=  0 NShTot=     2392053 NBatch=        6856 AvBLen=       348.9
 PrsmSu-ThDecC:  IPartSL=    0    0 NPrtUSL=    1    1 IThBeg=    0 IThEnd=    0 CPU=   -1 GPU=   -1 NThAct=    1.
 PrSmSu:  NxtVal=            513.
    4530 points will be used for fitting atomic charges
 Fitting point charges to electrostatic potential
 Charges from ESP fit, RMS=   0.00166 RRMS=   0.01212:
 ESP charges:
               1
     1  S    1.463795
     2  F   -0.303419
     3  O   -0.664006
     4  O   -0.580103
     5  N   -0.833487
     6  S    1.466247
     7  F   -0.304115
     8  O   -0.664875
     9  O   -0.580038
 Sum of ESP charges =  -1.00000
 ESP charges with hydrogens summed into heavy atoms:
               1
     1  S    1.463795
     2  F   -0.303419
     3  O   -0.664006
     4  O   -0.580103
     5  N   -0.833487
     6  S    1.466247
     7  F   -0.304115
     8  O   -0.664875
     9  O   -0.580038
 Charge=  -1.00000 Dipole=    -0.0100    -0.0050    -1.4973 Tot=     1.4974
 -----------------------------------------------------------------

              Electrostatic Properties (Atomic Units)

 -----------------------------------------------------------------
    Center     Electric         -------- Electric Field --------
               Potential          X             Y             Z
 -----------------------------------------------------------------
    1 Atom    -59.057797
    2 Atom    -26.694139
    3 Atom    -22.498611
    4 Atom    -22.457063
    5 Atom    -18.515347
    6 Atom    -59.057719
    7 Atom    -26.694238
    8 Atom    -22.498614
    9 Atom    -22.456724
   10 Fit      -0.157443
   11 Fit      -0.157273
   12 Fit      -0.149174
   13 Fit      -0.144958
   14 Fit      -0.143976
   15 Fit      -0.139293
   16 Fit      -0.146450
   17 Fit      -0.155402
   18 Fit      -0.136070
   19 Fit      -0.135256
   20 Fit      -0.136281
   21 Fit      -0.142442
   22 Fit      -0.149036
   23 Fit      -0.155286
   24 Fit      -0.161041
   25 Fit      -0.131759
   26 Fit      -0.132047
   27 Fit      -0.140193
   28 Fit      -0.157304
   29 Fit      -0.157585
   30 Fit      -0.157982
   31 Fit      -0.158645
   32 Fit      -0.163414
   33 Fit      -0.134255
   34 Fit      -0.131943
   35 Fit      -0.134671
   36 Fit      -0.149685
   37 Fit      -0.146750
   38 Fit      -0.145186
   39 Fit      -0.145266
   40 Fit      -0.147392
   41 Fit      -0.152206
   42 Fit      -0.134716
   43 Fit      -0.136497
   44 Fit      -0.141002
   45 Fit      -0.137618
   46 Fit      -0.137247
   47 Fit      -0.140254
   48 Fit      -0.146651
   49 Fit      -0.137873
   50 Fit      -0.138604
   51 Fit      -0.135169
   52 Fit      -0.136368
   53 Fit      -0.142312
   54 Fit      -0.137086
   55 Fit      -0.139648
   56 Fit      -0.138009
   57 Fit      -0.142583
   58 Fit      -0.145186
   59 Fit      -0.134006
   60 Fit      -0.137419
   61 Fit      -0.144306
   62 Fit      -0.145814
   63 Fit      -0.136487
   64 Fit      -0.132209
   65 Fit      -0.132132
   66 Fit      -0.136612
   67 Fit      -0.153944
   68 Fit      -0.140970
   69 Fit      -0.134722
   70 Fit      -0.135956
   71 Fit      -0.149790
   72 Fit      -0.141334
   73 Fit      -0.151105
   74 Fit      -0.165760
   75 Fit      -0.170102
   76 Fit      -0.162564
   77 Fit      -0.175250
   78 Fit      -0.184110
   79 Fit      -0.178598
   80 Fit      -0.166475
   81 Fit      -0.159341
   82 Fit      -0.155611
   83 Fit      -0.165245
   84 Fit      -0.197125
   85 Fit      -0.189169
   86 Fit      -0.176471
   87 Fit      -0.163670
   88 Fit      -0.154855
   89 Fit      -0.150879
   90 Fit      -0.151251
   91 Fit      -0.149272
   92 Fit      -0.155264
   93 Fit      -0.189524
   94 Fit      -0.173833
   95 Fit      -0.161115
   96 Fit      -0.152185
   97 Fit      -0.146736
   98 Fit      -0.144258
   99 Fit      -0.144159
  100 Fit      -0.145886
  101 Fit      -0.143773
  102 Fit      -0.146937
  103 Fit      -0.182848
  104 Fit      -0.166613
  105 Fit      -0.155049
  106 Fit      -0.147146
  107 Fit      -0.142195
  108 Fit      -0.139677
  109 Fit      -0.139087
  110 Fit      -0.139881
  111 Fit      -0.141542
  112 Fit      -0.139412
  113 Fit      -0.140017
  114 Fit      -0.172025
  115 Fit      -0.158991
  116 Fit      -0.149713
  117 Fit      -0.143200
  118 Fit      -0.138939
  119 Fit      -0.136577
  120 Fit      -0.135764
  121 Fit      -0.136095
  122 Fit      -0.137115
  123 Fit      -0.138360
  124 Fit      -0.136488
  125 Fit      -0.135450
  126 Fit      -0.170649
  127 Fit      -0.158716
  128 Fit      -0.149811
  129 Fit      -0.143203
  130 Fit      -0.138540
  131 Fit      -0.135594
  132 Fit      -0.134134
  133 Fit      -0.133865
  134 Fit      -0.134417
  135 Fit      -0.135363
  136 Fit      -0.136229
  137 Fit      -0.135213
  138 Fit      -0.167968
  139 Fit      -0.159682
  140 Fit      -0.151943
  141 Fit      -0.145438
  142 Fit      -0.140337
  143 Fit      -0.136671
  144 Fit      -0.134379
  145 Fit      -0.133308
  146 Fit      -0.133209
  147 Fit      -0.133756
  148 Fit      -0.134567
  149 Fit      -0.135217
  150 Fit      -0.135560
  151 Fit      -0.155464
  152 Fit      -0.150825
  153 Fit      -0.145579
  154 Fit      -0.140933
  155 Fit      -0.137345
  156 Fit      -0.134952
  157 Fit      -0.133701
  158 Fit      -0.133404
  159 Fit      -0.133773
  160 Fit      -0.134471
  161 Fit      -0.135162
  162 Fit      -0.137010
  163 Fit      -0.150690
  164 Fit      -0.150572
  165 Fit      -0.147138
  166 Fit      -0.143025
  167 Fit      -0.139366
  168 Fit      -0.136633
  169 Fit      -0.134954
  170 Fit      -0.134244
  171 Fit      -0.134287
  172 Fit      -0.134825
  173 Fit      -0.135690
  174 Fit      -0.150973
  175 Fit      -0.147560
  176 Fit      -0.143635
  177 Fit      -0.140062
  178 Fit      -0.137365
  179 Fit      -0.135725
  180 Fit      -0.135063
  181 Fit      -0.135193
  182 Fit      -0.136083
  183 Fit      -0.149082
  184 Fit      -0.144200
  185 Fit      -0.140451
  186 Fit      -0.137718
  187 Fit      -0.136051
  188 Fit      -0.135376
  189 Fit      -0.135715
  190 Fit      -0.142182
  191 Fit      -0.138236
  192 Fit      -0.135680
  193 Fit      -0.177905
  194 Fit      -0.174522
  195 Fit      -0.173874
  196 Fit      -0.177345
  197 Fit      -0.182587
  198 Fit      -0.183159
  199 Fit      -0.178544
  200 Fit      -0.172119
  201 Fit      -0.170908
  202 Fit      -0.171073
  203 Fit      -0.173056
  204 Fit      -0.177168
  205 Fit      -0.182937
  206 Fit      -0.188739
  207 Fit      -0.191654
  208 Fit      -0.189576
  209 Fit      -0.184335
  210 Fit      -0.178876
  211 Fit      -0.174695
  212 Fit      -0.170255
  213 Fit      -0.169405
  214 Fit      -0.169099
  215 Fit      -0.169546
  216 Fit      -0.171189
  217 Fit      -0.174424
  218 Fit      -0.179358
  219 Fit      -0.185692
  220 Fit      -0.192789
  221 Fit      -0.199331
  222 Fit      -0.202194
  223 Fit      -0.199098
  224 Fit      -0.192394
  225 Fit      -0.185405
  226 Fit      -0.179393
  227 Fit      -0.174808
  228 Fit      -0.171873
  229 Fit      -0.168406
  230 Fit      -0.168276
  231 Fit      -0.168233
  232 Fit      -0.168336
  233 Fit      -0.168883
  234 Fit      -0.170258
  235 Fit      -0.172815
  236 Fit      -0.176780
  237 Fit      -0.182158
  238 Fit      -0.188677
  239 Fit      -0.196054
  240 Fit      -0.204502
  241 Fit      -0.213023
  242 Fit      -0.216525
  243 Fit      -0.211592
  244 Fit      -0.202061
  245 Fit      -0.192985
  246 Fit      -0.185556
  247 Fit      -0.179151
  248 Fit      -0.173944
  249 Fit      -0.170561
  250 Fit      -0.168941
  251 Fit      -0.166033
  252 Fit      -0.166929
  253 Fit      -0.167537
  254 Fit      -0.167895
  255 Fit      -0.168292
  256 Fit      -0.169117
  257 Fit      -0.170767
  258 Fit      -0.173589
  259 Fit      -0.177837
  260 Fit      -0.183573
  261 Fit      -0.190462
  262 Fit      -0.197703
  263 Fit      -0.205531
  264 Fit      -0.208287
  265 Fit      -0.174032
  266 Fit      -0.168285
  267 Fit      -0.165582
  268 Fit      -0.165261
  269 Fit      -0.162697
  270 Fit      -0.164958
  271 Fit      -0.166476
  272 Fit      -0.167336
  273 Fit      -0.167856
  274 Fit      -0.168429
  275 Fit      -0.169447
  276 Fit      -0.171276
  277 Fit      -0.174249
  278 Fit      -0.178668
  279 Fit      -0.184735
  280 Fit      -0.192203
  281 Fit      -0.158373
  282 Fit      -0.160101
  283 Fit      -0.158310
  284 Fit      -0.162451
  285 Fit      -0.165039
  286 Fit      -0.166419
  287 Fit      -0.167115
  288 Fit      -0.167641
  289 Fit      -0.168452
  290 Fit      -0.169947
  291 Fit      -0.172508
  292 Fit      -0.176542
  293 Fit      -0.182526
  294 Fit      -0.163619
  295 Fit      -0.165125
  296 Fit      -0.165647
  297 Fit      -0.165911
  298 Fit      -0.166444
  299 Fit      -0.167665
  300 Fit      -0.169971
  301 Fit      -0.173843
  302 Fit      -0.179972
  303 Fit      -0.162523
  304 Fit      -0.162450
  305 Fit      -0.163275
  306 Fit      -0.165352
  307 Fit      -0.169154
  308 Fit      -0.143930
  309 Fit      -0.148374
  310 Fit      -0.152577
  311 Fit      -0.144127
  312 Fit      -0.146800
  313 Fit      -0.149246
  314 Fit      -0.151545
  315 Fit      -0.153693
  316 Fit      -0.137877
  317 Fit      -0.141136
  318 Fit      -0.143970
  319 Fit      -0.145530
  320 Fit      -0.146985
  321 Fit      -0.148349
  322 Fit      -0.149557
  323 Fit      -0.150422
  324 Fit      -0.150595
  325 Fit      -0.138533
  326 Fit      -0.140379
  327 Fit      -0.142255
  328 Fit      -0.143393
  329 Fit      -0.144293
  330 Fit      -0.145200
  331 Fit      -0.146120
  332 Fit      -0.146975
  333 Fit      -0.147585
  334 Fit      -0.147639
  335 Fit      -0.146671
  336 Fit      -0.139217
  337 Fit      -0.140249
  338 Fit      -0.141391
  339 Fit      -0.142444
  340 Fit      -0.142614
  341 Fit      -0.143069
  342 Fit      -0.143634
  343 Fit      -0.144317
  344 Fit      -0.145044
  345 Fit      -0.145646
  346 Fit      -0.145855
  347 Fit      -0.145322
  348 Fit      -0.143659
  349 Fit      -0.139213
  350 Fit      -0.140284
  351 Fit      -0.141108
  352 Fit      -0.141728
  353 Fit      -0.142200
  354 Fit      -0.141937
  355 Fit      -0.142095
  356 Fit      -0.142458
  357 Fit      -0.143039
  358 Fit      -0.143764
  359 Fit      -0.144472
  360 Fit      -0.144935
  361 Fit      -0.144910
  362 Fit      -0.144268
  363 Fit      -0.143285
  364 Fit      -0.139890
  365 Fit      -0.141061
  366 Fit      -0.141633
  367 Fit      -0.141852
  368 Fit      -0.141901
  369 Fit      -0.141644
  370 Fit      -0.141626
  371 Fit      -0.141933
  372 Fit      -0.142574
  373 Fit      -0.143453
  374 Fit      -0.144388
  375 Fit      -0.145188
  376 Fit      -0.145806
  377 Fit      -0.146673
  378 Fit      -0.138639
  379 Fit      -0.140675
  380 Fit      -0.141813
  381 Fit      -0.142210
  382 Fit      -0.142144
  383 Fit      -0.141878
  384 Fit      -0.141934
  385 Fit      -0.141835
  386 Fit      -0.142179
  387 Fit      -0.142969
  388 Fit      -0.144098
  389 Fit      -0.145417
  390 Fit      -0.146902
  391 Fit      -0.148935
  392 Fit      -0.152688
  393 Fit      -0.142815
  394 Fit      -0.142788
  395 Fit      -0.143170
  396 Fit      -0.143203
  397 Fit      -0.142858
  398 Fit      -0.142348
  399 Fit      -0.142903
  400 Fit      -0.142842
  401 Fit      -0.143465
  402 Fit      -0.144746
  403 Fit      -0.146565
  404 Fit      -0.148985
  405 Fit      -0.152590
  406 Fit      -0.158218
  407 Fit      -0.164726
  408 Fit      -0.153481
  409 Fit      -0.148092
  410 Fit      -0.145908
  411 Fit      -0.145015
  412 Fit      -0.144265
  413 Fit      -0.143478
  414 Fit      -0.144547
  415 Fit      -0.144684
  416 Fit      -0.145904
  417 Fit      -0.148140
  418 Fit      -0.151381
  419 Fit      -0.155490
  420 Fit      -0.158363
  421 Fit      -0.156660
  422 Fit      -0.152046
  423 Fit      -0.148533
  424 Fit      -0.146577
  425 Fit      -0.145290
  426 Fit      -0.146802
  427 Fit      -0.147722
  428 Fit      -0.150772
  429 Fit      -0.153248
  430 Fit      -0.151258
  431 Fit      -0.148195
  432 Fit      -0.149642
  433 Fit      -0.148064
  434 Fit      -0.148016
  435 Fit      -0.149863
  436 Fit      -0.150701
  437 Fit      -0.148014
  438 Fit      -0.150766
  439 Fit      -0.151607
  440 Fit      -0.152030
  441 Fit      -0.148776
  442 Fit      -0.150403
  443 Fit      -0.152179
  444 Fit      -0.150938
  445 Fit      -0.155092
  446 Fit      -0.155502
  447 Fit      -0.155161
  448 Fit      -0.152287
  449 Fit      -0.146830
  450 Fit      -0.154989
  451 Fit      -0.155452
  452 Fit      -0.155154
  453 Fit      -0.152324
  454 Fit      -0.146927
  455 Fit      -0.160045
  456 Fit      -0.159366
  457 Fit      -0.158314
  458 Fit      -0.155582
  459 Fit      -0.152042
  460 Fit      -0.159938
  461 Fit      -0.159316
  462 Fit      -0.158313
  463 Fit      -0.155632
  464 Fit      -0.152155
  465 Fit      -0.165457
  466 Fit      -0.164403
  467 Fit      -0.162966
  468 Fit      -0.162124
  469 Fit      -0.160650
  470 Fit      -0.158481
  471 Fit      -0.157867
  472 Fit      -0.160818
  473 Fit      -0.165006
  474 Fit      -0.163459
  475 Fit      -0.162479
  476 Fit      -0.161518
  477 Fit      -0.159605
  478 Fit      -0.157895
  479 Fit      -0.159100
  480 Fit      -0.163607
  481 Fit      -0.164691
  482 Fit      -0.164575
  483 Fit      -0.163921
  484 Fit      -0.162720
  485 Fit      -0.162211
  486 Fit      -0.163487
  487 Fit      -0.164581
  488 Fit      -0.164507
  489 Fit      -0.163906
  490 Fit      -0.162760
  491 Fit      -0.162301
  492 Fit      -0.164965
  493 Fit      -0.165333
  494 Fit      -0.164849
  495 Fit      -0.164909
  496 Fit      -0.165299
  497 Fit      -0.164869
  498 Fit      -0.165562
  499 Fit      -0.156376
  500 Fit      -0.144942
  501 Fit      -0.143952
  502 Fit      -0.149136
  503 Fit      -0.136021
  504 Fit      -0.135195
  505 Fit      -0.139218
  506 Fit      -0.146357
  507 Fit      -0.155286
  508 Fit      -0.131680
  509 Fit      -0.131952
  510 Fit      -0.136172
  511 Fit      -0.142320
  512 Fit      -0.148900
  513 Fit      -0.155130
  514 Fit      -0.160861
  515 Fit      -0.134169
  516 Fit      -0.131829
  517 Fit      -0.134536
  518 Fit      -0.140045
  519 Fit      -0.157110
  520 Fit      -0.157375
  521 Fit      -0.157760
  522 Fit      -0.158418
  523 Fit      -0.163237
  524 Fit      -0.134827
  525 Fit      -0.151362
  526 Fit      -0.147863
  527 Fit      -0.145581
  528 Fit      -0.144812
  529 Fit      -0.145868
  530 Fit      -0.149270
  531 Fit      -0.137707
  532 Fit      -0.140821
  533 Fit      -0.137451
  534 Fit      -0.137100
  535 Fit      -0.140133
  536 Fit      -0.146560
  537 Fit      -0.136937
  538 Fit      -0.138440
  539 Fit      -0.135028
  540 Fit      -0.136258
  541 Fit      -0.142243
  542 Fit      -0.145160
  543 Fit      -0.133881
  544 Fit      -0.137227
  545 Fit      -0.139497
  546 Fit      -0.137893
  547 Fit      -0.142511
  548 Fit      -0.145720
  549 Fit      -0.136396
  550 Fit      -0.132099
  551 Fit      -0.131979
  552 Fit      -0.136398
  553 Fit      -0.144190
  554 Fit      -0.136697
  555 Fit      -0.134256
  556 Fit      -0.138950
  557 Fit      -0.151388
  558 Fit      -0.149604
  559 Fit      -0.141119
  560 Fit      -0.142987
  561 Fit      -0.150874
  562 Fit      -0.165542
  563 Fit      -0.170178
  564 Fit      -0.178677
  565 Fit      -0.166542
  566 Fit      -0.159403
  567 Fit      -0.162630
  568 Fit      -0.175340
  569 Fit      -0.184212
  570 Fit      -0.189239
  571 Fit      -0.176536
  572 Fit      -0.163731
  573 Fit      -0.154912
  574 Fit      -0.150931
  575 Fit      -0.151299
  576 Fit      -0.155659
  577 Fit      -0.165307
  578 Fit      -0.197221
  579 Fit      -0.189580
  580 Fit      -0.173892
  581 Fit      -0.161173
  582 Fit      -0.152239
  583 Fit      -0.146786
  584 Fit      -0.144303
  585 Fit      -0.144198
  586 Fit      -0.145919
  587 Fit      -0.149301
  588 Fit      -0.155293
  589 Fit      -0.182903
  590 Fit      -0.166671
  591 Fit      -0.155104
  592 Fit      -0.147197
  593 Fit      -0.142240
  594 Fit      -0.139716
  595 Fit      -0.139120
  596 Fit      -0.139907
  597 Fit      -0.141560
  598 Fit      -0.143782
  599 Fit      -0.146935
  600 Fit      -0.172083
  601 Fit      -0.159047
  602 Fit      -0.149764
  603 Fit      -0.143246
  604 Fit      -0.138979
  605 Fit      -0.136611
  606 Fit      -0.135792
  607 Fit      -0.136115
  608 Fit      -0.137127
  609 Fit      -0.138362
  610 Fit      -0.139402
  611 Fit      -0.139990
  612 Fit      -0.170711
  613 Fit      -0.158774
  614 Fit      -0.149862
  615 Fit      -0.143247
  616 Fit      -0.138577
  617 Fit      -0.135625
  618 Fit      -0.134159
  619 Fit      -0.133882
  620 Fit      -0.134426
  621 Fit      -0.135361
  622 Fit      -0.136215
  623 Fit      -0.136458
  624 Fit      -0.135398
  625 Fit      -0.163924
  626 Fit      -0.155738
  627 Fit      -0.148570
  628 Fit      -0.142748
  629 Fit      -0.138359
  630 Fit      -0.135387
  631 Fit      -0.133723
  632 Fit      -0.133166
  633 Fit      -0.133426
  634 Fit      -0.134145
  635 Fit      -0.134917
  636 Fit      -0.135292
  637 Fit      -0.134687
  638 Fit      -0.155532
  639 Fit      -0.150879
  640 Fit      -0.145622
  641 Fit      -0.140966
  642 Fit      -0.137369
  643 Fit      -0.134968
  644 Fit      -0.133709
  645 Fit      -0.133402
  646 Fit      -0.133759
  647 Fit      -0.134440
  648 Fit      -0.135111
  649 Fit      -0.135480
  650 Fit      -0.150758
  651 Fit      -0.150624
  652 Fit      -0.147178
  653 Fit      -0.143055
  654 Fit      -0.139387
  655 Fit      -0.136644
  656 Fit      -0.134955
  657 Fit      -0.134234
  658 Fit      -0.134263
  659 Fit      -0.134781
  660 Fit      -0.135617
  661 Fit      -0.136895
  662 Fit      -0.150997
  663 Fit      -0.147585
  664 Fit      -0.143654
  665 Fit      -0.140072
  666 Fit      -0.137365
  667 Fit      -0.135712
  668 Fit      -0.135034
  669 Fit      -0.135139
  670 Fit      -0.135992
  671 Fit      -0.149070
  672 Fit      -0.144199
  673 Fit      -0.140446
  674 Fit      -0.137703
  675 Fit      -0.136019
  676 Fit      -0.135317
  677 Fit      -0.135612
  678 Fit      -0.142154
  679 Fit      -0.138206
  680 Fit      -0.135629
  681 Fit      -0.177892
  682 Fit      -0.182568
  683 Fit      -0.183148
  684 Fit      -0.178540
  685 Fit      -0.174516
  686 Fit      -0.173863
  687 Fit      -0.177328
  688 Fit      -0.188710
  689 Fit      -0.191631
  690 Fit      -0.189568
  691 Fit      -0.184338
  692 Fit      -0.178883
  693 Fit      -0.174699
  694 Fit      -0.172117
  695 Fit      -0.170902
  696 Fit      -0.171063
  697 Fit      -0.173042
  698 Fit      -0.177149
  699 Fit      -0.182912
  700 Fit      -0.196239
  701 Fit      -0.201421
  702 Fit      -0.201318
  703 Fit      -0.195945
  704 Fit      -0.188831
  705 Fit      -0.182268
  706 Fit      -0.176916
  707 Fit      -0.173154
  708 Fit      -0.170940
  709 Fit      -0.169757
  710 Fit      -0.169174
  711 Fit      -0.169194
  712 Fit      -0.170179
  713 Fit      -0.172579
  714 Fit      -0.176669
  715 Fit      -0.182358
  716 Fit      -0.189164
  717 Fit      -0.204448
  718 Fit      -0.212963
  719 Fit      -0.216478
  720 Fit      -0.211575
  721 Fit      -0.202077
  722 Fit      -0.193018
  723 Fit      -0.185594
  724 Fit      -0.179188
  725 Fit      -0.173975
  726 Fit      -0.170580
  727 Fit      -0.168949
  728 Fit      -0.168404
  729 Fit      -0.168269
  730 Fit      -0.168224
  731 Fit      -0.168326
  732 Fit      -0.168873
  733 Fit      -0.170247
  734 Fit      -0.172802
  735 Fit      -0.176763
  736 Fit      -0.182134
  737 Fit      -0.188645
  738 Fit      -0.196012
  739 Fit      -0.210594
  740 Fit      -0.201966
  741 Fit      -0.170846
  742 Fit      -0.166592
  743 Fit      -0.165214
  744 Fit      -0.165578
  745 Fit      -0.166489
  746 Fit      -0.167256
  747 Fit      -0.167715
  748 Fit      -0.168048
  749 Fit      -0.168610
  750 Fit      -0.169801
  751 Fit      -0.171997
  752 Fit      -0.175507
  753 Fit      -0.180506
  754 Fit      -0.186890
  755 Fit      -0.194049
  756 Fit      -0.201345
  757 Fit      -0.158382
  758 Fit      -0.160085
  759 Fit      -0.162667
  760 Fit      -0.164922
  761 Fit      -0.166440
  762 Fit      -0.167303
  763 Fit      -0.167826
  764 Fit      -0.168403
  765 Fit      -0.169424
  766 Fit      -0.171253
  767 Fit      -0.174227
  768 Fit      -0.178645
  769 Fit      -0.184708
  770 Fit      -0.192171
  771 Fit      -0.160512
  772 Fit      -0.163858
  773 Fit      -0.165787
  774 Fit      -0.166764
  775 Fit      -0.167320
  776 Fit      -0.167941
  777 Fit      -0.169051
  778 Fit      -0.171034
  779 Fit      -0.174279
  780 Fit      -0.179226
  781 Fit      -0.186352
  782 Fit      -0.164450
  783 Fit      -0.165368
  784 Fit      -0.165695
  785 Fit      -0.166045
  786 Fit      -0.166880
  787 Fit      -0.168598
  788 Fit      -0.171622
  789 Fit      -0.176522
  790 Fit      -0.162408
  791 Fit      -0.162345
  792 Fit      -0.163180
  793 Fit      -0.165267
  794 Fit      -0.169078
  795 Fit      -0.143773
  796 Fit      -0.148208
  797 Fit      -0.152400
  798 Fit      -0.139355
  799 Fit      -0.142500
  800 Fit      -0.145318
  801 Fit      -0.147859
  802 Fit      -0.150219
  803 Fit      -0.152443
  804 Fit      -0.154465
  805 Fit      -0.138358
  806 Fit      -0.140199
  807 Fit      -0.142071
  808 Fit      -0.143784
  809 Fit      -0.145341
  810 Fit      -0.146791
  811 Fit      -0.148151
  812 Fit      -0.149353
  813 Fit      -0.150214
  814 Fit      -0.150384
  815 Fit      -0.139517
  816 Fit      -0.140640
  817 Fit      -0.141746
  818 Fit      -0.142741
  819 Fit      -0.143656
  820 Fit      -0.144552
  821 Fit      -0.145465
  822 Fit      -0.146364
  823 Fit      -0.147123
  824 Fit      -0.147500
  825 Fit      -0.147112
  826 Fit      -0.145399
  827 Fit      -0.139605
  828 Fit      -0.140537
  829 Fit      -0.141254
  830 Fit      -0.141791
  831 Fit      -0.142222
  832 Fit      -0.142644
  833 Fit      -0.143147
  834 Fit      -0.143771
  835 Fit      -0.144488
  836 Fit      -0.145176
  837 Fit      -0.145618
  838 Fit      -0.145503
  839 Fit      -0.144454
  840 Fit      -0.142110
  841 Fit      -0.139699
  842 Fit      -0.140871
  843 Fit      -0.141445
  844 Fit      -0.141667
  845 Fit      -0.141717
  846 Fit      -0.141754
  847 Fit      -0.141912
  848 Fit      -0.142273
  849 Fit      -0.142851
  850 Fit      -0.143572
  851 Fit      -0.144277
  852 Fit      -0.144738
  853 Fit      -0.144714
  854 Fit      -0.144075
  855 Fit      -0.143101
  856 Fit      -0.139551
  857 Fit      -0.141152
  858 Fit      -0.141893
  859 Fit      -0.142030
  860 Fit      -0.141838
  861 Fit      -0.141564
  862 Fit      -0.141420
  863 Fit      -0.141556
  864 Fit      -0.142033
  865 Fit      -0.142808
  866 Fit      -0.143738
  867 Fit      -0.144623
  868 Fit      -0.145319
  869 Fit      -0.145961
  870 Fit      -0.147426
  871 Fit      -0.142581
  872 Fit      -0.142571
  873 Fit      -0.142967
  874 Fit      -0.143010
  875 Fit      -0.142672
  876 Fit      -0.142168
  877 Fit      -0.141757
  878 Fit      -0.141659
  879 Fit      -0.142002
  880 Fit      -0.142789
  881 Fit      -0.143915
  882 Fit      -0.145232
  883 Fit      -0.146716
  884 Fit      -0.148752
  885 Fit      -0.152511
  886 Fit      -0.150068
  887 Fit      -0.146501
  888 Fit      -0.145195
  889 Fit      -0.144455
  890 Fit      -0.143681
  891 Fit      -0.142965
  892 Fit      -0.142618
  893 Fit      -0.142890
  894 Fit      -0.143853
  895 Fit      -0.145412
  896 Fit      -0.147496
  897 Fit      -0.150398
  898 Fit      -0.154954
  899 Fit      -0.161430
  900 Fit      -0.158172
  901 Fit      -0.156457
  902 Fit      -0.151836
  903 Fit      -0.148329
  904 Fit      -0.146383
  905 Fit      -0.145106
  906 Fit      -0.144368
  907 Fit      -0.144508
  908 Fit      -0.145726
  909 Fit      -0.147960
  910 Fit      -0.151198
  911 Fit      -0.155306
  912 Fit      -0.153058
  913 Fit      -0.151062
  914 Fit      -0.148005
  915 Fit      -0.146621
  916 Fit      -0.147542
  917 Fit      -0.150589
  918 Fit      -0.149455
  919 Fit      -0.153812
  920 Fit      -0.144270
  921 Fit      -0.144717
  922 Fit      -0.139482
  923 Fit      -0.144824
  924 Fit      -0.136425
  925 Fit      -0.136457
  926 Fit      -0.133286
  927 Fit      -0.137490
  928 Fit      -0.142766
  929 Fit      -0.148658
  930 Fit      -0.130646
  931 Fit      -0.130768
  932 Fit      -0.130486
  933 Fit      -0.134121
  934 Fit      -0.138265
  935 Fit      -0.142498
  936 Fit      -0.146610
  937 Fit      -0.150544
  938 Fit      -0.129395
  939 Fit      -0.127367
  940 Fit      -0.127983
  941 Fit      -0.131138
  942 Fit      -0.134787
  943 Fit      -0.138372
  944 Fit      -0.141445
  945 Fit      -0.143854
  946 Fit      -0.145692
  947 Fit      -0.147175
  948 Fit      -0.148517
  949 Fit      -0.149869
  950 Fit      -0.127592
  951 Fit      -0.126663
  952 Fit      -0.128139
  953 Fit      -0.144384
  954 Fit      -0.143453
  955 Fit      -0.142684
  956 Fit      -0.142339
  957 Fit      -0.142615
  958 Fit      -0.143736
  959 Fit      -0.146062
  960 Fit      -0.150256
  961 Fit      -0.127606
  962 Fit      -0.128328
  963 Fit      -0.139260
  964 Fit      -0.137211
  965 Fit      -0.136199
  966 Fit      -0.136505
  967 Fit      -0.138454
  968 Fit      -0.142507
  969 Fit      -0.129287
  970 Fit      -0.129331
  971 Fit      -0.134701
  972 Fit      -0.132846
  973 Fit      -0.132841
  974 Fit      -0.134979
  975 Fit      -0.139495
  976 Fit      -0.129973
  977 Fit      -0.134393
  978 Fit      -0.132097
  979 Fit      -0.132101
  980 Fit      -0.134637
  981 Fit      -0.139654
  982 Fit      -0.129671
  983 Fit      -0.131348
  984 Fit      -0.134386
  985 Fit      -0.133390
  986 Fit      -0.135470
  987 Fit      -0.140625
  988 Fit      -0.137578
  989 Fit      -0.129312
  990 Fit      -0.128406
  991 Fit      -0.129232
  992 Fit      -0.136717
  993 Fit      -0.139446
  994 Fit      -0.136843
  995 Fit      -0.131643
  996 Fit      -0.128658
  997 Fit      -0.127663
  998 Fit      -0.128845
  999 Fit      -0.141088
 1000 Fit      -0.144720
 1001 Fit      -0.138649
 1002 Fit      -0.132272
 1003 Fit      -0.129317
 1004 Fit      -0.129488
 1005 Fit      -0.146468
 1006 Fit      -0.136362
 1007 Fit      -0.132700
 1008 Fit      -0.133369
 1009 Fit      -0.138011
 1010 Fit      -0.137879
 1011 Fit      -0.144462
 1012 Fit      -0.153328
 1013 Fit      -0.161736
 1014 Fit      -0.154692
 1015 Fit      -0.167092
 1016 Fit      -0.175503
 1017 Fit      -0.169926
 1018 Fit      -0.158117
 1019 Fit      -0.151337
 1020 Fit      -0.148357
 1021 Fit      -0.158553
 1022 Fit      -0.180326
 1023 Fit      -0.167684
 1024 Fit      -0.155519
 1025 Fit      -0.147154
 1026 Fit      -0.143275
 1027 Fit      -0.143649
 1028 Fit      -0.142637
 1029 Fit      -0.150153
 1030 Fit      -0.165458
 1031 Fit      -0.153373
 1032 Fit      -0.144855
 1033 Fit      -0.139547
 1034 Fit      -0.136965
 1035 Fit      -0.136699
 1036 Fit      -0.138520
 1037 Fit      -0.137616
 1038 Fit      -0.142982
 1039 Fit      -0.168444
 1040 Fit      -0.154871
 1041 Fit      -0.145246
 1042 Fit      -0.138668
 1043 Fit      -0.134498
 1044 Fit      -0.132287
 1045 Fit      -0.131686
 1046 Fit      -0.132420
 1047 Fit      -0.134348
 1048 Fit      -0.133469
 1049 Fit      -0.137017
 1050 Fit      -0.160755
 1051 Fit      -0.148974
 1052 Fit      -0.140717
 1053 Fit      -0.134985
 1054 Fit      -0.131212
 1055 Fit      -0.129029
 1056 Fit      -0.128150
 1057 Fit      -0.128321
 1058 Fit      -0.129328
 1059 Fit      -0.131034
 1060 Fit      -0.130409
 1061 Fit      -0.157153
 1062 Fit      -0.146403
 1063 Fit      -0.138747
 1064 Fit      -0.133272
 1065 Fit      -0.129499
 1066 Fit      -0.127125
 1067 Fit      -0.125915
 1068 Fit      -0.125655
 1069 Fit      -0.126140
 1070 Fit      -0.127180
 1071 Fit      -0.128627
 1072 Fit      -0.128646
 1073 Fit      -0.156511
 1074 Fit      -0.146409
 1075 Fit      -0.138952
 1076 Fit      -0.133400
 1077 Fit      -0.129367
 1078 Fit      -0.126616
 1079 Fit      -0.124963
 1080 Fit      -0.124238
 1081 Fit      -0.124266
 1082 Fit      -0.124874
 1083 Fit      -0.125895
 1084 Fit      -0.127189
 1085 Fit      -0.128336
 1086 Fit      -0.156975
 1087 Fit      -0.148220
 1088 Fit      -0.141063
 1089 Fit      -0.135343
 1090 Fit      -0.130906
 1091 Fit      -0.127627
 1092 Fit      -0.125393
 1093 Fit      -0.124085
 1094 Fit      -0.123574
 1095 Fit      -0.123716
 1096 Fit      -0.124372
 1097 Fit      -0.125412
 1098 Fit      -0.126747
 1099 Fit      -0.146345
 1100 Fit      -0.140693
 1101 Fit      -0.135558
 1102 Fit      -0.131308
 1103 Fit      -0.128036
 1104 Fit      -0.125728
 1105 Fit      -0.124318
 1106 Fit      -0.123708
 1107 Fit      -0.123780
 1108 Fit      -0.124421
 1109 Fit      -0.125553
 1110 Fit      -0.127187
 1111 Fit      -0.141930
 1112 Fit      -0.137466
 1113 Fit      -0.133243
 1114 Fit      -0.129742
 1115 Fit      -0.127118
 1116 Fit      -0.125390
 1117 Fit      -0.124505
 1118 Fit      -0.124382
 1119 Fit      -0.124948
 1120 Fit      -0.126198
 1121 Fit      -0.128311
 1122 Fit      -0.141195
 1123 Fit      -0.136905
 1124 Fit      -0.132940
 1125 Fit      -0.129715
 1126 Fit      -0.127386
 1127 Fit      -0.125978
 1128 Fit      -0.125459
 1129 Fit      -0.125802
 1130 Fit      -0.127088
 1131 Fit      -0.129699
 1132 Fit      -0.138726
 1133 Fit      -0.134227
 1134 Fit      -0.130779
 1135 Fit      -0.128405
 1136 Fit      -0.127114
 1137 Fit      -0.126920
 1138 Fit      -0.127963
 1139 Fit      -0.137652
 1140 Fit      -0.132982
 1141 Fit      -0.130019
 1142 Fit      -0.128585
 1143 Fit      -0.128771
 1144 Fit      -0.162111
 1145 Fit      -0.158876
 1146 Fit      -0.158548
 1147 Fit      -0.161833
 1148 Fit      -0.166361
 1149 Fit      -0.166689
 1150 Fit      -0.162477
 1151 Fit      -0.156428
 1152 Fit      -0.155454
 1153 Fit      -0.155901
 1154 Fit      -0.157971
 1155 Fit      -0.161780
 1156 Fit      -0.166873
 1157 Fit      -0.171841
 1158 Fit      -0.174243
 1159 Fit      -0.172419
 1160 Fit      -0.167783
 1161 Fit      -0.162789
 1162 Fit      -0.158851
 1163 Fit      -0.154521
 1164 Fit      -0.153657
 1165 Fit      -0.153539
 1166 Fit      -0.154253
 1167 Fit      -0.156051
 1168 Fit      -0.159179
 1169 Fit      -0.163705
 1170 Fit      -0.169408
 1171 Fit      -0.175711
 1172 Fit      -0.181303
 1173 Fit      -0.183661
 1174 Fit      -0.181186
 1175 Fit      -0.175557
 1176 Fit      -0.169333
 1177 Fit      -0.163764
 1178 Fit      -0.159346
 1179 Fit      -0.156310
 1180 Fit      -0.152901
 1181 Fit      -0.152378
 1182 Fit      -0.152239
 1183 Fit      -0.152475
 1184 Fit      -0.153249
 1185 Fit      -0.154801
 1186 Fit      -0.157374
 1187 Fit      -0.161141
 1188 Fit      -0.166139
 1189 Fit      -0.172243
 1190 Fit      -0.179280
 1191 Fit      -0.187084
 1192 Fit      -0.194237
 1193 Fit      -0.193215
 1194 Fit      -0.185572
 1195 Fit      -0.177628
 1196 Fit      -0.170695
 1197 Fit      -0.164717
 1198 Fit      -0.159786
 1199 Fit      -0.156223
 1200 Fit      -0.154045
 1201 Fit      -0.151333
 1202 Fit      -0.151286
 1203 Fit      -0.151386
 1204 Fit      -0.151581
 1205 Fit      -0.151967
 1206 Fit      -0.152726
 1207 Fit      -0.154070
 1208 Fit      -0.156215
 1209 Fit      -0.159351
 1210 Fit      -0.163614
 1211 Fit      -0.169030
 1212 Fit      -0.175449
 1213 Fit      -0.182695
 1214 Fit      -0.191243
 1215 Fit      -0.187998
 1216 Fit      -0.166107
 1217 Fit      -0.160298
 1218 Fit      -0.155858
 1219 Fit      -0.153113
 1220 Fit      -0.151785
 1221 Fit      -0.149651
 1222 Fit      -0.150215
 1223 Fit      -0.150713
 1224 Fit      -0.151093
 1225 Fit      -0.151456
 1226 Fit      -0.151983
 1227 Fit      -0.152889
 1228 Fit      -0.154396
 1229 Fit      -0.156727
 1230 Fit      -0.160103
 1231 Fit      -0.164723
 1232 Fit      -0.170703
 1233 Fit      -0.149848
 1234 Fit      -0.149322
 1235 Fit      -0.147857
 1236 Fit      -0.149202
 1237 Fit      -0.150186
 1238 Fit      -0.150803
 1239 Fit      -0.151208
 1240 Fit      -0.151619
 1241 Fit      -0.152270
 1242 Fit      -0.153399
 1243 Fit      -0.155241
 1244 Fit      -0.158052
 1245 Fit      -0.162124
 1246 Fit      -0.167794
 1247 Fit      -0.150057
 1248 Fit      -0.150805
 1249 Fit      -0.151143
 1250 Fit      -0.151376
 1251 Fit      -0.151785
 1252 Fit      -0.152626
 1253 Fit      -0.154151
 1254 Fit      -0.156637
 1255 Fit      -0.160441
 1256 Fit      -0.166072
 1257 Fit      -0.151379
 1258 Fit      -0.151148
 1259 Fit      -0.151149
 1260 Fit      -0.151655
 1261 Fit      -0.152926
 1262 Fit      -0.155260
 1263 Fit      -0.159083
 1264 Fit      -0.165109
 1265 Fit      -0.150058
 1266 Fit      -0.150065
 1267 Fit      -0.151089
 1268 Fit      -0.153442
 1269 Fit      -0.157644
 1270 Fit      -0.137654
 1271 Fit      -0.140458
 1272 Fit      -0.133294
 1273 Fit      -0.134866
 1274 Fit      -0.136610
 1275 Fit      -0.138541
 1276 Fit      -0.140689
 1277 Fit      -0.143076
 1278 Fit      -0.131928
 1279 Fit      -0.131944
 1280 Fit      -0.132943
 1281 Fit      -0.134078
 1282 Fit      -0.135343
 1283 Fit      -0.136726
 1284 Fit      -0.138189
 1285 Fit      -0.139664
 1286 Fit      -0.141030
 1287 Fit      -0.130383
 1288 Fit      -0.130508
 1289 Fit      -0.131104
 1290 Fit      -0.130838
 1291 Fit      -0.131456
 1292 Fit      -0.132212
 1293 Fit      -0.133099
 1294 Fit      -0.134095
 1295 Fit      -0.135148
 1296 Fit      -0.136177
 1297 Fit      -0.137060
 1298 Fit      -0.137634
 1299 Fit      -0.130592
 1300 Fit      -0.130069
 1301 Fit      -0.130074
 1302 Fit      -0.130365
 1303 Fit      -0.129926
 1304 Fit      -0.130281
 1305 Fit      -0.130793
 1306 Fit      -0.131460
 1307 Fit      -0.132258
 1308 Fit      -0.133135
 1309 Fit      -0.134010
 1310 Fit      -0.134777
 1311 Fit      -0.135323
 1312 Fit      -0.135557
 1313 Fit      -0.131053
 1314 Fit      -0.130208
 1315 Fit      -0.129803
 1316 Fit      -0.129670
 1317 Fit      -0.129722
 1318 Fit      -0.129261
 1319 Fit      -0.129432
 1320 Fit      -0.129793
 1321 Fit      -0.130343
 1322 Fit      -0.131061
 1323 Fit      -0.131895
 1324 Fit      -0.132771
 1325 Fit      -0.133607
 1326 Fit      -0.134351
 1327 Fit      -0.135043
 1328 Fit      -0.130637
 1329 Fit      -0.130079
 1330 Fit      -0.129673
 1331 Fit      -0.129401
 1332 Fit      -0.129258
 1333 Fit      -0.128928
 1334 Fit      -0.128979
 1335 Fit      -0.129260
 1336 Fit      -0.129778
 1337 Fit      -0.130509
 1338 Fit      -0.131406
 1339 Fit      -0.132407
 1340 Fit      -0.133474
 1341 Fit      -0.134653
 1342 Fit      -0.136197
 1343 Fit      -0.131253
 1344 Fit      -0.130782
 1345 Fit      -0.130280
 1346 Fit      -0.129799
 1347 Fit      -0.129384
 1348 Fit      -0.129078
 1349 Fit      -0.129012
 1350 Fit      -0.128994
 1351 Fit      -0.129266
 1352 Fit      -0.129838
 1353 Fit      -0.130688
 1354 Fit      -0.131773
 1355 Fit      -0.133070
 1356 Fit      -0.134634
 1357 Fit      -0.136722
 1358 Fit      -0.139973
 1359 Fit      -0.132431
 1360 Fit      -0.131626
 1361 Fit      -0.130949
 1362 Fit      -0.130312
 1363 Fit      -0.129736
 1364 Fit      -0.129279
 1365 Fit      -0.129573
 1366 Fit      -0.129546
 1367 Fit      -0.129941
 1368 Fit      -0.130772
 1369 Fit      -0.132016
 1370 Fit      -0.133675
 1371 Fit      -0.135881
 1372 Fit      -0.139059
 1373 Fit      -0.144065
 1374 Fit      -0.134027
 1375 Fit      -0.132556
 1376 Fit      -0.131498
 1377 Fit      -0.130634
 1378 Fit      -0.129966
 1379 Fit      -0.130650
 1380 Fit      -0.130682
 1381 Fit      -0.131357
 1382 Fit      -0.132697
 1383 Fit      -0.134734
 1384 Fit      -0.137661
 1385 Fit      -0.141934
 1386 Fit      -0.147863
 1387 Fit      -0.139477
 1388 Fit      -0.135778
 1389 Fit      -0.133606
 1390 Fit      -0.132171
 1391 Fit      -0.131182
 1392 Fit      -0.132268
 1393 Fit      -0.132481
 1394 Fit      -0.133753
 1395 Fit      -0.136127
 1396 Fit      -0.139668
 1397 Fit      -0.144023
 1398 Fit      -0.147060
 1399 Fit      -0.145864
 1400 Fit      -0.141477
 1401 Fit      -0.137348
 1402 Fit      -0.134639
 1403 Fit      -0.133014
 1404 Fit      -0.134471
 1405 Fit      -0.135444
 1406 Fit      -0.138642
 1407 Fit      -0.141339
 1408 Fit      -0.139451
 1409 Fit      -0.136021
 1410 Fit      -0.137387
 1411 Fit      -0.142310
 1412 Fit      -0.143305
 1413 Fit      -0.141428
 1414 Fit      -0.141915
 1415 Fit      -0.141725
 1416 Fit      -0.141743
 1417 Fit      -0.143069
 1418 Fit      -0.142598
 1419 Fit      -0.141661
 1420 Fit      -0.142779
 1421 Fit      -0.142223
 1422 Fit      -0.140834
 1423 Fit      -0.145216
 1424 Fit      -0.144068
 1425 Fit      -0.142757
 1426 Fit      -0.141066
 1427 Fit      -0.145987
 1428 Fit      -0.144565
 1429 Fit      -0.143465
 1430 Fit      -0.141963
 1431 Fit      -0.149314
 1432 Fit      -0.147063
 1433 Fit      -0.145698
 1434 Fit      -0.144465
 1435 Fit      -0.143516
 1436 Fit      -0.150944
 1437 Fit      -0.147929
 1438 Fit      -0.146294
 1439 Fit      -0.145084
 1440 Fit      -0.143947
 1441 Fit      -0.143599
 1442 Fit      -0.152008
 1443 Fit      -0.149786
 1444 Fit      -0.148096
 1445 Fit      -0.146917
 1446 Fit      -0.146149
 1447 Fit      -0.146479
 1448 Fit      -0.148716
 1449 Fit      -0.151879
 1450 Fit      -0.149700
 1451 Fit      -0.148053
 1452 Fit      -0.146917
 1453 Fit      -0.146192
 1454 Fit      -0.146568
 1455 Fit      -0.148849
 1456 Fit      -0.150009
 1457 Fit      -0.150515
 1458 Fit      -0.149631
 1459 Fit      -0.148560
 1460 Fit      -0.147964
 1461 Fit      -0.148473
 1462 Fit      -0.149912
 1463 Fit      -0.150425
 1464 Fit      -0.149573
 1465 Fit      -0.148545
 1466 Fit      -0.147995
 1467 Fit      -0.148545
 1468 Fit      -0.149523
 1469 Fit      -0.149508
 1470 Fit      -0.149077
 1471 Fit      -0.149477
 1472 Fit      -0.149479
 1473 Fit      -0.149093
 1474 Fit      -0.149455
 1475 Fit      -0.153850
 1476 Fit      -0.145449
 1477 Fit      -0.144036
 1478 Fit      -0.146273
 1479 Fit      -0.137685
 1480 Fit      -0.136004
 1481 Fit      -0.137601
 1482 Fit      -0.141859
 1483 Fit      -0.131661
 1484 Fit      -0.130313
 1485 Fit      -0.131712
 1486 Fit      -0.135147
 1487 Fit      -0.139941
 1488 Fit      -0.145558
 1489 Fit      -0.129343
 1490 Fit      -0.127300
 1491 Fit      -0.127903
 1492 Fit      -0.130395
 1493 Fit      -0.134021
 1494 Fit      -0.138154
 1495 Fit      -0.142376
 1496 Fit      -0.146475
 1497 Fit      -0.150396
 1498 Fit      -0.126694
 1499 Fit      -0.127055
 1500 Fit      -0.129394
 1501 Fit      -0.132811
 1502 Fit      -0.136495
 1503 Fit      -0.139854
 1504 Fit      -0.142589
 1505 Fit      -0.144683
 1506 Fit      -0.146304
 1507 Fit      -0.147684
 1508 Fit      -0.149011
 1509 Fit      -0.127507
 1510 Fit      -0.128209
 1511 Fit      -0.144219
 1512 Fit      -0.143285
 1513 Fit      -0.142514
 1514 Fit      -0.142169
 1515 Fit      -0.142450
 1516 Fit      -0.143580
 1517 Fit      -0.145917
 1518 Fit      -0.150122
 1519 Fit      -0.129191
 1520 Fit      -0.129204
 1521 Fit      -0.139095
 1522 Fit      -0.137051
 1523 Fit      -0.136046
 1524 Fit      -0.136363
 1525 Fit      -0.138324
 1526 Fit      -0.142391
 1527 Fit      -0.129812
 1528 Fit      -0.130570
 1529 Fit      -0.136062
 1530 Fit      -0.133416
 1531 Fit      -0.132460
 1532 Fit      -0.133507
 1533 Fit      -0.136831
 1534 Fit      -0.142576
 1535 Fit      -0.129558
 1536 Fit      -0.131193
 1537 Fit      -0.134246
 1538 Fit      -0.131967
 1539 Fit      -0.131990
 1540 Fit      -0.134549
 1541 Fit      -0.139592
 1542 Fit      -0.139847
 1543 Fit      -0.128612
 1544 Fit      -0.128449
 1545 Fit      -0.130323
 1546 Fit      -0.133396
 1547 Fit      -0.133937
 1548 Fit      -0.137620
 1549 Fit      -0.133879
 1550 Fit      -0.129829
 1551 Fit      -0.127815
 1552 Fit      -0.127833
 1553 Fit      -0.130192
 1554 Fit      -0.136698
 1555 Fit      -0.137487
 1556 Fit      -0.134909
 1557 Fit      -0.130280
 1558 Fit      -0.128880
 1559 Fit      -0.130545
 1560 Fit      -0.142211
 1561 Fit      -0.136230
 1562 Fit      -0.132544
 1563 Fit      -0.133178
 1564 Fit      -0.146353
 1565 Fit      -0.137838
 1566 Fit      -0.137670
 1567 Fit      -0.144285
 1568 Fit      -0.153160
 1569 Fit      -0.161808
 1570 Fit      -0.170002
 1571 Fit      -0.158179
 1572 Fit      -0.151394
 1573 Fit      -0.154754
 1574 Fit      -0.167178
 1575 Fit      -0.175599
 1576 Fit      -0.180397
 1577 Fit      -0.167746
 1578 Fit      -0.155575
 1579 Fit      -0.147205
 1580 Fit      -0.143322
 1581 Fit      -0.143694
 1582 Fit      -0.148405
 1583 Fit      -0.158617
 1584 Fit      -0.165514
 1585 Fit      -0.153426
 1586 Fit      -0.144904
 1587 Fit      -0.139591
 1588 Fit      -0.137005
 1589 Fit      -0.136734
 1590 Fit      -0.138552
 1591 Fit      -0.142668
 1592 Fit      -0.150191
 1593 Fit      -0.161155
 1594 Fit      -0.149677
 1595 Fit      -0.141668
 1596 Fit      -0.136355
 1597 Fit      -0.133208
 1598 Fit      -0.131836
 1599 Fit      -0.131925
 1600 Fit      -0.133256
 1601 Fit      -0.135803
 1602 Fit      -0.139961
 1603 Fit      -0.168535
 1604 Fit      -0.154387
 1605 Fit      -0.144529
 1606 Fit      -0.137620
 1607 Fit      -0.132917
 1608 Fit      -0.129973
 1609 Fit      -0.128470
 1610 Fit      -0.128140
 1611 Fit      -0.128746
 1612 Fit      -0.130105
 1613 Fit      -0.132148
 1614 Fit      -0.135047
 1615 Fit      -0.157207
 1616 Fit      -0.146452
 1617 Fit      -0.138790
 1618 Fit      -0.133310
 1619 Fit      -0.129531
 1620 Fit      -0.127151
 1621 Fit      -0.125936
 1622 Fit      -0.125670
 1623 Fit      -0.126148
 1624 Fit      -0.127179
 1625 Fit      -0.128616
 1626 Fit      -0.130387
 1627 Fit      -0.156569
 1628 Fit      -0.146460
 1629 Fit      -0.138996
 1630 Fit      -0.133437
 1631 Fit      -0.129398
 1632 Fit      -0.126641
 1633 Fit      -0.124982
 1634 Fit      -0.124250
 1635 Fit      -0.124271
 1636 Fit      -0.124870
 1637 Fit      -0.125882
 1638 Fit      -0.127163
 1639 Fit      -0.128605
 1640 Fit      -0.152455
 1641 Fit      -0.144502
 1642 Fit      -0.138076
 1643 Fit      -0.133007
 1644 Fit      -0.129156
 1645 Fit      -0.126408
 1646 Fit      -0.124645
 1647 Fit      -0.123746
 1648 Fit      -0.123571
 1649 Fit      -0.123979
 1650 Fit      -0.124829
 1651 Fit      -0.126012
 1652 Fit      -0.127459
 1653 Fit      -0.146405
 1654 Fit      -0.140739
 1655 Fit      -0.135594
 1656 Fit      -0.131336
 1657 Fit      -0.128056
 1658 Fit      -0.125740
 1659 Fit      -0.124323
 1660 Fit      -0.123704
 1661 Fit      -0.123766
 1662 Fit      -0.124395
 1663 Fit      -0.125511
 1664 Fit      -0.127124
 1665 Fit      -0.141978
 1666 Fit      -0.137501
 1667 Fit      -0.133269
 1668 Fit      -0.129758
 1669 Fit      -0.127126
 1670 Fit      -0.125389
 1671 Fit      -0.124495
 1672 Fit      -0.124360
 1673 Fit      -0.124911
 1674 Fit      -0.126141
 1675 Fit      -0.128227
 1676 Fit      -0.143230
 1677 Fit      -0.139078
 1678 Fit      -0.134865
 1679 Fit      -0.131230
 1680 Fit      -0.128435
 1681 Fit      -0.126558
 1682 Fit      -0.125589
 1683 Fit      -0.125485
 1684 Fit      -0.126256
 1685 Fit      -0.128096
 1686 Fit      -0.141389
 1687 Fit      -0.136346
 1688 Fit      -0.132366
 1689 Fit      -0.129443
 1690 Fit      -0.127599
 1691 Fit      -0.126835
 1692 Fit      -0.127201
 1693 Fit      -0.128990
 1694 Fit      -0.137625
 1695 Fit      -0.132955
 1696 Fit      -0.129983
 1697 Fit      -0.128530
 1698 Fit      -0.128687
 1699 Fit      -0.162097
 1700 Fit      -0.166342
 1701 Fit      -0.166674
 1702 Fit      -0.162469
 1703 Fit      -0.158867
 1704 Fit      -0.158535
 1705 Fit      -0.161815
 1706 Fit      -0.171814
 1707 Fit      -0.174218
 1708 Fit      -0.172404
 1709 Fit      -0.167777
 1710 Fit      -0.162787
 1711 Fit      -0.158848
 1712 Fit      -0.156422
 1713 Fit      -0.155444
 1714 Fit      -0.155888
 1715 Fit      -0.157956
 1716 Fit      -0.161760
 1717 Fit      -0.166848
 1718 Fit      -0.178692
 1719 Fit      -0.183017
 1720 Fit      -0.182962
 1721 Fit      -0.178570
 1722 Fit      -0.172410
 1723 Fit      -0.166434
 1724 Fit      -0.161395
 1725 Fit      -0.157657
 1726 Fit      -0.155276
 1727 Fit      -0.153983
 1728 Fit      -0.153495
 1729 Fit      -0.153767
 1730 Fit      -0.154985
 1731 Fit      -0.157422
 1732 Fit      -0.161253
 1733 Fit      -0.166411
 1734 Fit      -0.172508
 1735 Fit      -0.187030
 1736 Fit      -0.194177
 1737 Fit      -0.193182
 1738 Fit      -0.185562
 1739 Fit      -0.177634
 1740 Fit      -0.170708
 1741 Fit      -0.164732
 1742 Fit      -0.159798
 1743 Fit      -0.156229
 1744 Fit      -0.154044
 1745 Fit      -0.152894
 1746 Fit      -0.152367
 1747 Fit      -0.152226
 1748 Fit      -0.152462
 1749 Fit      -0.153235
 1750 Fit      -0.154786
 1751 Fit      -0.157357
 1752 Fit      -0.161121
 1753 Fit      -0.166114
 1754 Fit      -0.172211
 1755 Fit      -0.179238
 1756 Fit      -0.193200
 1757 Fit      -0.183479
 1758 Fit      -0.163097
 1759 Fit      -0.157887
 1760 Fit      -0.154288
 1761 Fit      -0.152304
 1762 Fit      -0.151474
 1763 Fit      -0.151266
 1764 Fit      -0.151308
 1765 Fit      -0.151450
 1766 Fit      -0.151722
 1767 Fit      -0.152270
 1768 Fit      -0.153294
 1769 Fit      -0.155012
 1770 Fit      -0.157630
 1771 Fit      -0.161316
 1772 Fit      -0.166159
 1773 Fit      -0.172099
 1774 Fit      -0.178926
 1775 Fit      -0.186677
 1776 Fit      -0.149846
 1777 Fit      -0.149307
 1778 Fit      -0.149628
 1779 Fit      -0.150188
 1780 Fit      -0.150685
 1781 Fit      -0.151066
 1782 Fit      -0.151430
 1783 Fit      -0.151959
 1784 Fit      -0.152867
 1785 Fit      -0.154374
 1786 Fit      -0.156706
 1787 Fit      -0.160081
 1788 Fit      -0.164699
 1789 Fit      -0.170675
 1790 Fit      -0.147816
 1791 Fit      -0.149158
 1792 Fit      -0.150142
 1793 Fit      -0.150761
 1794 Fit      -0.151169
 1795 Fit      -0.151583
 1796 Fit      -0.152238
 1797 Fit      -0.153369
 1798 Fit      -0.155213
 1799 Fit      -0.158025
 1800 Fit      -0.162097
 1801 Fit      -0.167766
 1802 Fit      -0.149368
 1803 Fit      -0.150437
 1804 Fit      -0.150946
 1805 Fit      -0.151200
 1806 Fit      -0.151493
 1807 Fit      -0.152091
 1808 Fit      -0.153245
 1809 Fit      -0.155216
 1810 Fit      -0.158312
 1811 Fit      -0.162953
 1812 Fit      -0.151394
 1813 Fit      -0.151177
 1814 Fit      -0.151031
 1815 Fit      -0.151258
 1816 Fit      -0.152119
 1817 Fit      -0.153884
 1818 Fit      -0.156901
 1819 Fit      -0.161712
 1820 Fit      -0.149966
 1821 Fit      -0.149980
 1822 Fit      -0.151012
 1823 Fit      -0.153372
 1824 Fit      -0.157581
 1825 Fit      -0.136234
 1826 Fit      -0.138866
 1827 Fit      -0.141853
 1828 Fit      -0.131788
 1829 Fit      -0.133148
 1830 Fit      -0.134714
 1831 Fit      -0.136453
 1832 Fit      -0.138378
 1833 Fit      -0.140519
 1834 Fit      -0.142900
 1835 Fit      -0.130246
 1836 Fit      -0.130364
 1837 Fit      -0.130955
 1838 Fit      -0.131791
 1839 Fit      -0.132787
 1840 Fit      -0.133918
 1841 Fit      -0.135179
 1842 Fit      -0.136557
 1843 Fit      -0.138016
 1844 Fit      -0.139486
 1845 Fit      -0.140849
 1846 Fit      -0.130102
 1847 Fit      -0.129878
 1848 Fit      -0.130042
 1849 Fit      -0.130428
 1850 Fit      -0.130973
 1851 Fit      -0.131657
 1852 Fit      -0.132477
 1853 Fit      -0.133420
 1854 Fit      -0.134449
 1855 Fit      -0.135500
 1856 Fit      -0.136471
 1857 Fit      -0.137222
 1858 Fit      -0.130424
 1859 Fit      -0.129817
 1860 Fit      -0.129559
 1861 Fit      -0.129524
 1862 Fit      -0.129651
 1863 Fit      -0.129928
 1864 Fit      -0.130358
 1865 Fit      -0.130947
 1866 Fit      -0.131681
 1867 Fit      -0.132525
 1868 Fit      -0.133410
 1869 Fit      -0.134244
 1870 Fit      -0.134914
 1871 Fit      -0.135313
 1872 Fit      -0.130495
 1873 Fit      -0.129932
 1874 Fit      -0.129523
 1875 Fit      -0.129248
 1876 Fit      -0.129105
 1877 Fit      -0.129107
 1878 Fit      -0.129277
 1879 Fit      -0.129636
 1880 Fit      -0.130184
 1881 Fit      -0.130899
 1882 Fit      -0.131731
 1883 Fit      -0.132605
 1884 Fit      -0.133442
 1885 Fit      -0.134186
 1886 Fit      -0.134883
 1887 Fit      -0.131105
 1888 Fit      -0.130633
 1889 Fit      -0.130129
 1890 Fit      -0.129647
 1891 Fit      -0.129232
 1892 Fit      -0.128926
 1893 Fit      -0.128776
 1894 Fit      -0.128826
 1895 Fit      -0.129106
 1896 Fit      -0.129622
 1897 Fit      -0.130351
 1898 Fit      -0.131246
 1899 Fit      -0.132246
 1900 Fit      -0.133313
 1901 Fit      -0.134495
 1902 Fit      -0.136045
 1903 Fit      -0.131840
 1904 Fit      -0.131126
 1905 Fit      -0.130471
 1906 Fit      -0.129860
 1907 Fit      -0.129337
 1908 Fit      -0.128967
 1909 Fit      -0.128818
 1910 Fit      -0.128941
 1911 Fit      -0.129363
 1912 Fit      -0.130077
 1913 Fit      -0.131048
 1914 Fit      -0.132239
 1915 Fit      -0.133654
 1916 Fit      -0.135432
 1917 Fit      -0.137995
 1918 Fit      -0.142264
 1919 Fit      -0.133864
 1920 Fit      -0.132397
 1921 Fit      -0.131343
 1922 Fit      -0.130482
 1923 Fit      -0.129816
 1924 Fit      -0.129424
 1925 Fit      -0.129397
 1926 Fit      -0.129791
 1927 Fit      -0.130621
 1928 Fit      -0.131864
 1929 Fit      -0.133523
 1930 Fit      -0.135731
 1931 Fit      -0.138915
 1932 Fit      -0.143931
 1933 Fit      -0.142040
 1934 Fit      -0.137207
 1935 Fit      -0.134402
 1936 Fit      -0.132669
 1937 Fit      -0.131472
 1938 Fit      -0.130703
 1939 Fit      -0.130441
 1940 Fit      -0.130789
 1941 Fit      -0.131795
 1942 Fit      -0.133473
 1943 Fit      -0.135915
 1944 Fit      -0.139452
 1945 Fit      -0.144577
 1946 Fit      -0.151015
 1947 Fit      -0.146920
 1948 Fit      -0.145716
 1949 Fit      -0.141321
 1950 Fit      -0.137190
 1951 Fit      -0.134484
 1952 Fit      -0.132862
 1953 Fit      -0.132119
 1954 Fit      -0.132333
 1955 Fit      -0.133605
 1956 Fit      -0.135980
 1957 Fit      -0.139524
 1958 Fit      -0.143884
 1959 Fit      -0.141193
 1960 Fit      -0.139299
 1961 Fit      -0.135868
 1962 Fit      -0.134322
 1963 Fit      -0.135296
 1964 Fit      -0.138496
 1965 Fit      -0.137238
 1966 Fit      -0.138913
 1967 Fit      -0.139495
 1968 Fit      -0.135244
 1969 Fit      -0.132653
 1970 Fit      -0.132986
 1971 Fit      -0.129519
 1972 Fit      -0.132603
 1973 Fit      -0.136607
 1974 Fit      -0.128892
 1975 Fit      -0.127395
 1976 Fit      -0.127679
 1977 Fit      -0.125390
 1978 Fit      -0.128030
 1979 Fit      -0.131351
 1980 Fit      -0.135089
 1981 Fit      -0.124805
 1982 Fit      -0.123459
 1983 Fit      -0.123752
 1984 Fit      -0.123049
 1985 Fit      -0.125393
 1986 Fit      -0.128154
 1987 Fit      -0.131088
 1988 Fit      -0.134039
 1989 Fit      -0.136928
 1990 Fit      -0.121840
 1991 Fit      -0.120925
 1992 Fit      -0.121440
 1993 Fit      -0.122533
 1994 Fit      -0.124794
 1995 Fit      -0.127213
 1996 Fit      -0.129548
 1997 Fit      -0.131666
 1998 Fit      -0.133533
 1999 Fit      -0.135187
 2000 Fit      -0.136703
 2001 Fit      -0.138160
 2002 Fit      -0.120205
 2003 Fit      -0.119861
 2004 Fit      -0.120761
 2005 Fit      -0.123715
 2006 Fit      -0.133145
 2007 Fit      -0.133502
 2008 Fit      -0.133802
 2009 Fit      -0.134192
 2010 Fit      -0.134806
 2011 Fit      -0.135775
 2012 Fit      -0.137266
 2013 Fit      -0.139534
 2014 Fit      -0.143001
 2015 Fit      -0.120863
 2016 Fit      -0.119814
 2017 Fit      -0.120175
 2018 Fit      -0.121612
 2019 Fit      -0.131586
 2020 Fit      -0.130901
 2021 Fit      -0.130530
 2022 Fit      -0.130644
 2023 Fit      -0.131418
 2024 Fit      -0.133063
 2025 Fit      -0.135886
 2026 Fit      -0.120534
 2027 Fit      -0.120508
 2028 Fit      -0.121712
 2029 Fit      -0.129107
 2030 Fit      -0.127970
 2031 Fit      -0.127529
 2032 Fit      -0.127993
 2033 Fit      -0.129581
 2034 Fit      -0.132565
 2035 Fit      -0.121522
 2036 Fit      -0.121046
 2037 Fit      -0.121955
 2038 Fit      -0.126721
 2039 Fit      -0.125880
 2040 Fit      -0.126159
 2041 Fit      -0.127758
 2042 Fit      -0.130853
 2043 Fit      -0.135561
 2044 Fit      -0.121420
 2045 Fit      -0.122014
 2046 Fit      -0.126264
 2047 Fit      -0.125493
 2048 Fit      -0.126121
 2049 Fit      -0.128298
 2050 Fit      -0.132035
 2051 Fit      -0.121411
 2052 Fit      -0.121622
 2053 Fit      -0.126534
 2054 Fit      -0.126578
 2055 Fit      -0.128363
 2056 Fit      -0.131886
 2057 Fit      -0.133460
 2058 Fit      -0.129724
 2059 Fit      -0.122519
 2060 Fit      -0.121308
 2061 Fit      -0.120997
 2062 Fit      -0.121852
 2063 Fit      -0.128203
 2064 Fit      -0.129622
 2065 Fit      -0.133016
 2066 Fit      -0.128007
 2067 Fit      -0.124616
 2068 Fit      -0.122333
 2069 Fit      -0.121107
 2070 Fit      -0.121024
 2071 Fit      -0.122222
 2072 Fit      -0.130897
 2073 Fit      -0.133347
 2074 Fit      -0.129955
 2075 Fit      -0.125472
 2076 Fit      -0.122790
 2077 Fit      -0.121791
 2078 Fit      -0.122452
 2079 Fit      -0.133711
 2080 Fit      -0.131730
 2081 Fit      -0.126853
 2082 Fit      -0.124260
 2083 Fit      -0.123817
 2084 Fit      -0.137122
 2085 Fit      -0.130054
 2086 Fit      -0.127036
 2087 Fit      -0.126690
 2088 Fit      -0.138299
 2089 Fit      -0.130819
 2090 Fit      -0.129823
 2091 Fit      -0.135072
 2092 Fit      -0.133024
 2093 Fit      -0.140516
 2094 Fit      -0.136016
 2095 Fit      -0.138573
 2096 Fit      -0.153697
 2097 Fit      -0.147290
 2098 Fit      -0.161232
 2099 Fit      -0.150356
 2100 Fit      -0.144098
 2101 Fit      -0.141610
 2102 Fit      -0.170748
 2103 Fit      -0.159113
 2104 Fit      -0.147968
 2105 Fit      -0.140216
 2106 Fit      -0.136569
 2107 Fit      -0.136973
 2108 Fit      -0.136513
 2109 Fit      -0.157151
 2110 Fit      -0.146088
 2111 Fit      -0.138155
 2112 Fit      -0.133121
 2113 Fit      -0.130606
 2114 Fit      -0.130325
 2115 Fit      -0.132197
 2116 Fit      -0.132005
 2117 Fit      -0.147743
 2118 Fit      -0.138675
 2119 Fit      -0.132395
 2120 Fit      -0.128338
 2121 Fit      -0.126108
 2122 Fit      -0.125430
 2123 Fit      -0.126143
 2124 Fit      -0.128246
 2125 Fit      -0.128170
 2126 Fit      -0.149447
 2127 Fit      -0.139661
 2128 Fit      -0.132680
 2129 Fit      -0.127784
 2130 Fit      -0.124525
 2131 Fit      -0.122606
 2132 Fit      -0.121819
 2133 Fit      -0.122010
 2134 Fit      -0.123095
 2135 Fit      -0.125087
 2136 Fit      -0.125139
 2137 Fit      -0.143604
 2138 Fit      -0.135333
 2139 Fit      -0.129341
 2140 Fit      -0.125037
 2141 Fit      -0.122067
 2142 Fit      -0.120196
 2143 Fit      -0.119252
 2144 Fit      -0.119102
 2145 Fit      -0.119642
 2146 Fit      -0.120810
 2147 Fit      -0.122606
 2148 Fit      -0.123058
 2149 Fit      -0.144362
 2150 Fit      -0.135706
 2151 Fit      -0.129385
 2152 Fit      -0.124744
 2153 Fit      -0.121411
 2154 Fit      -0.119154
 2155 Fit      -0.117804
 2156 Fit      -0.117228
 2157 Fit      -0.117315
 2158 Fit      -0.117975
 2159 Fit      -0.119150
 2160 Fit      -0.120825
 2161 Fit      -0.144206
 2162 Fit      -0.135917
 2163 Fit      -0.129687
 2164 Fit      -0.124967
 2165 Fit      -0.121444
 2166 Fit      -0.118919
 2167 Fit      -0.117250
 2168 Fit      -0.116322
 2169 Fit      -0.116036
 2170 Fit      -0.116306
 2171 Fit      -0.117065
 2172 Fit      -0.118271
 2173 Fit      -0.119922
 2174 Fit      -0.145898
 2175 Fit      -0.138002
 2176 Fit      -0.131713
 2177 Fit      -0.126728
 2178 Fit      -0.122839
 2179 Fit      -0.119896
 2180 Fit      -0.117785
 2181 Fit      -0.116411
 2182 Fit      -0.115691
 2183 Fit      -0.115548
 2184 Fit      -0.115920
 2185 Fit      -0.116762
 2186 Fit      -0.118063
 2187 Fit      -0.119862
 2188 Fit      -0.137348
 2189 Fit      -0.131754
 2190 Fit      -0.127019
 2191 Fit      -0.123184
 2192 Fit      -0.120208
 2193 Fit      -0.118031
 2194 Fit      -0.116584
 2195 Fit      -0.115800
 2196 Fit      -0.115619
 2197 Fit      -0.115993
 2198 Fit      -0.116901
 2199 Fit      -0.118378
 2200 Fit      -0.120546
 2201 Fit      -0.133609
 2202 Fit      -0.128978
 2203 Fit      -0.124959
 2204 Fit      -0.121707
 2205 Fit      -0.119241
 2206 Fit      -0.117532
 2207 Fit      -0.116535
 2208 Fit      -0.116203
 2209 Fit      -0.116508
 2210 Fit      -0.117462
 2211 Fit      -0.119165
 2212 Fit      -0.131387
 2213 Fit      -0.127262
 2214 Fit      -0.123767
 2215 Fit      -0.121018
 2216 Fit      -0.119033
 2217 Fit      -0.117795
 2218 Fit      -0.117280
 2219 Fit      -0.117485
 2220 Fit      -0.118464
 2221 Fit      -0.120396
 2222 Fit      -0.133449
 2223 Fit      -0.128807
 2224 Fit      -0.125009
 2225 Fit      -0.122111
 2226 Fit      -0.120113
 2227 Fit      -0.119007
 2228 Fit      -0.118799
 2229 Fit      -0.119573
 2230 Fit      -0.121576
 2231 Fit      -0.133179
 2232 Fit      -0.128051
 2233 Fit      -0.124383
 2234 Fit      -0.121994
 2235 Fit      -0.120835
 2236 Fit      -0.120967
 2237 Fit      -0.124458
 2238 Fit      -0.149121
 2239 Fit      -0.146135
 2240 Fit      -0.145947
 2241 Fit      -0.148973
 2242 Fit      -0.152925
 2243 Fit      -0.153135
 2244 Fit      -0.149365
 2245 Fit      -0.143799
 2246 Fit      -0.142957
 2247 Fit      -0.143497
 2248 Fit      -0.145506
 2249 Fit      -0.148985
 2250 Fit      -0.153478
 2251 Fit      -0.157735
 2252 Fit      -0.159725
 2253 Fit      -0.158153
 2254 Fit      -0.154120
 2255 Fit      -0.149651
 2256 Fit      -0.146043
 2257 Fit      -0.141956
 2258 Fit      -0.141134
 2259 Fit      -0.141035
 2260 Fit      -0.141675
 2261 Fit      -0.143173
 2262 Fit      -0.145666
 2263 Fit      -0.149213
 2264 Fit      -0.153708
 2265 Fit      -0.158805
 2266 Fit      -0.163766
 2267 Fit      -0.167177
 2268 Fit      -0.167442
 2269 Fit      -0.164423
 2270 Fit      -0.159616
 2271 Fit      -0.154533
 2272 Fit      -0.149958
 2273 Fit      -0.146263
 2274 Fit      -0.143611
 2275 Fit      -0.140463
 2276 Fit      -0.139800
 2277 Fit      -0.139598
 2278 Fit      -0.139825
 2279 Fit      -0.140555
 2280 Fit      -0.141920
 2281 Fit      -0.144069
 2282 Fit      -0.147124
 2283 Fit      -0.151140
 2284 Fit      -0.156075
 2285 Fit      -0.161792
 2286 Fit      -0.168069
 2287 Fit      -0.174210
 2288 Fit      -0.174245
 2289 Fit      -0.168078
 2290 Fit      -0.161770
 2291 Fit      -0.156064
 2292 Fit      -0.151087
 2293 Fit      -0.146962
 2294 Fit      -0.143845
 2295 Fit      -0.141737
 2296 Fit      -0.139199
 2297 Fit      -0.138769
 2298 Fit      -0.138646
 2299 Fit      -0.138775
 2300 Fit      -0.139202
 2301 Fit      -0.140040
 2302 Fit      -0.141435
 2303 Fit      -0.143544
 2304 Fit      -0.146510
 2305 Fit      -0.150443
 2306 Fit      -0.155375
 2307 Fit      -0.161251
 2308 Fit      -0.168018
 2309 Fit      -0.175881
 2310 Fit      -0.173326
 2311 Fit      -0.165705
 2312 Fit      -0.159272
 2313 Fit      -0.153569
 2314 Fit      -0.148581
 2315 Fit      -0.144608
 2316 Fit      -0.141828
 2317 Fit      -0.140122
 2318 Fit      -0.138087
 2319 Fit      -0.137962
 2320 Fit      -0.138009
 2321 Fit      -0.138160
 2322 Fit      -0.138447
 2323 Fit      -0.138964
 2324 Fit      -0.139839
 2325 Fit      -0.141219
 2326 Fit      -0.143257
 2327 Fit      -0.146109
 2328 Fit      -0.149923
 2329 Fit      -0.154805
 2330 Fit      -0.160761
 2331 Fit      -0.142195
 2332 Fit      -0.139818
 2333 Fit      -0.138590
 2334 Fit      -0.137131
 2335 Fit      -0.137372
 2336 Fit      -0.137647
 2337 Fit      -0.137891
 2338 Fit      -0.138143
 2339 Fit      -0.138501
 2340 Fit      -0.139092
 2341 Fit      -0.140058
 2342 Fit      -0.141551
 2343 Fit      -0.143734
 2344 Fit      -0.146788
 2345 Fit      -0.150914
 2346 Fit      -0.156310
 2347 Fit      -0.137150
 2348 Fit      -0.137159
 2349 Fit      -0.137674
 2350 Fit      -0.138002
 2351 Fit      -0.138215
 2352 Fit      -0.138441
 2353 Fit      -0.138820
 2354 Fit      -0.139504
 2355 Fit      -0.140645
 2356 Fit      -0.142412
 2357 Fit      -0.144998
 2358 Fit      -0.148647
 2359 Fit      -0.153674
 2360 Fit      -0.138707
 2361 Fit      -0.138756
 2362 Fit      -0.138752
 2363 Fit      -0.138873
 2364 Fit      -0.139285
 2365 Fit      -0.140151
 2366 Fit      -0.141643
 2367 Fit      -0.143970
 2368 Fit      -0.147411
 2369 Fit      -0.152379
 2370 Fit      -0.139513
 2371 Fit      -0.139199
 2372 Fit      -0.139249
 2373 Fit      -0.139833
 2374 Fit      -0.141130
 2375 Fit      -0.143367
 2376 Fit      -0.146879
 2377 Fit      -0.123813
 2378 Fit      -0.124773
 2379 Fit      -0.126014
 2380 Fit      -0.127525
 2381 Fit      -0.129319
 2382 Fit      -0.131422
 2383 Fit      -0.123190
 2384 Fit      -0.122067
 2385 Fit      -0.122697
 2386 Fit      -0.123543
 2387 Fit      -0.124589
 2388 Fit      -0.125829
 2389 Fit      -0.127259
 2390 Fit      -0.128872
 2391 Fit      -0.130656
 2392 Fit      -0.122125
 2393 Fit      -0.121654
 2394 Fit      -0.121691
 2395 Fit      -0.120752
 2396 Fit      -0.121157
 2397 Fit      -0.121749
 2398 Fit      -0.122514
 2399 Fit      -0.123442
 2400 Fit      -0.124518
 2401 Fit      -0.125724
 2402 Fit      -0.127032
 2403 Fit      -0.128411
 2404 Fit      -0.122016
 2405 Fit      -0.121051
 2406 Fit      -0.120624
 2407 Fit      -0.120557
 2408 Fit      -0.119762
 2409 Fit      -0.120008
 2410 Fit      -0.120432
 2411 Fit      -0.121025
 2412 Fit      -0.121776
 2413 Fit      -0.122668
 2414 Fit      -0.123679
 2415 Fit      -0.124779
 2416 Fit      -0.125944
 2417 Fit      -0.127157
 2418 Fit      -0.122444
 2419 Fit      -0.121112
 2420 Fit      -0.120305
 2421 Fit      -0.119869
 2422 Fit      -0.119706
 2423 Fit      -0.119069
 2424 Fit      -0.119202
 2425 Fit      -0.119518
 2426 Fit      -0.120012
 2427 Fit      -0.120675
 2428 Fit      -0.121490
 2429 Fit      -0.122435
 2430 Fit      -0.123487
 2431 Fit      -0.124634
 2432 Fit      -0.125895
 2433 Fit      -0.121705
 2434 Fit      -0.120608
 2435 Fit      -0.119856
 2436 Fit      -0.119377
 2437 Fit      -0.119124
 2438 Fit      -0.118684
 2439 Fit      -0.118737
 2440 Fit      -0.118992
 2441 Fit      -0.119448
 2442 Fit      -0.120096
 2443 Fit      -0.120921
 2444 Fit      -0.121906
 2445 Fit      -0.123042
 2446 Fit      -0.124345
 2447 Fit      -0.125899
 2448 Fit      -0.127909
 2449 Fit      -0.122815
 2450 Fit      -0.121513
 2451 Fit      -0.120492
 2452 Fit      -0.119721
 2453 Fit      -0.119173
 2454 Fit      -0.118830
 2455 Fit      -0.118633
 2456 Fit      -0.118636
 2457 Fit      -0.118875
 2458 Fit      -0.119354
 2459 Fit      -0.120065
 2460 Fit      -0.120999
 2461 Fit      -0.122151
 2462 Fit      -0.123542
 2463 Fit      -0.125261
 2464 Fit      -0.127520
 2465 Fit      -0.123275
 2466 Fit      -0.121911
 2467 Fit      -0.120817
 2468 Fit      -0.119952
 2469 Fit      -0.119300
 2470 Fit      -0.118858
 2471 Fit      -0.118947
 2472 Fit      -0.118927
 2473 Fit      -0.119206
 2474 Fit      -0.119792
 2475 Fit      -0.120684
 2476 Fit      -0.121884
 2477 Fit      -0.123426
 2478 Fit      -0.125421
 2479 Fit      -0.128122
 2480 Fit      -0.132014
 2481 Fit      -0.125018
 2482 Fit      -0.123130
 2483 Fit      -0.121727
 2484 Fit      -0.120643
 2485 Fit      -0.119821
 2486 Fit      -0.119252
 2487 Fit      -0.119655
 2488 Fit      -0.119639
 2489 Fit      -0.120010
 2490 Fit      -0.120782
 2491 Fit      -0.121967
 2492 Fit      -0.123608
 2493 Fit      -0.125821
 2494 Fit      -0.128863
 2495 Fit      -0.133149
 2496 Fit      -0.125325
 2497 Fit      -0.123288
 2498 Fit      -0.121825
 2499 Fit      -0.120760
 2500 Fit      -0.120036
 2501 Fit      -0.120789
 2502 Fit      -0.120827
 2503 Fit      -0.121433
 2504 Fit      -0.122636
 2505 Fit      -0.124494
 2506 Fit      -0.127139
 2507 Fit      -0.130796
 2508 Fit      -0.135578
 2509 Fit      -0.129725
 2510 Fit      -0.126252
 2511 Fit      -0.123903
 2512 Fit      -0.122312
 2513 Fit      -0.121289
 2514 Fit      -0.122395
 2515 Fit      -0.122621
 2516 Fit      -0.123904
 2517 Fit      -0.126296
 2518 Fit      -0.129804
 2519 Fit      -0.133917
 2520 Fit      -0.136703
 2521 Fit      -0.135847
 2522 Fit      -0.132015
 2523 Fit      -0.127938
 2524 Fit      -0.124980
 2525 Fit      -0.123178
 2526 Fit      -0.124553
 2527 Fit      -0.125510
 2528 Fit      -0.128653
 2529 Fit      -0.131287
 2530 Fit      -0.129599
 2531 Fit      -0.126173
 2532 Fit      -0.127419
 2533 Fit      -0.133847
 2534 Fit      -0.133798
 2535 Fit      -0.133222
 2536 Fit      -0.132846
 2537 Fit      -0.133173
 2538 Fit      -0.132821
 2539 Fit      -0.133794
 2540 Fit      -0.132932
 2541 Fit      -0.132223
 2542 Fit      -0.134353
 2543 Fit      -0.133290
 2544 Fit      -0.132566
 2545 Fit      -0.135787
 2546 Fit      -0.134230
 2547 Fit      -0.133272
 2548 Fit      -0.132690
 2549 Fit      -0.135720
 2550 Fit      -0.134196
 2551 Fit      -0.133270
 2552 Fit      -0.132723
 2553 Fit      -0.138937
 2554 Fit      -0.136513
 2555 Fit      -0.135017
 2556 Fit      -0.134153
 2557 Fit      -0.133898
 2558 Fit      -0.138841
 2559 Fit      -0.136452
 2560 Fit      -0.134990
 2561 Fit      -0.134160
 2562 Fit      -0.133939
 2563 Fit      -0.140083
 2564 Fit      -0.138037
 2565 Fit      -0.136339
 2566 Fit      -0.135326
 2567 Fit      -0.135088
 2568 Fit      -0.135944
 2569 Fit      -0.138031
 2570 Fit      -0.139979
 2571 Fit      -0.137965
 2572 Fit      -0.136301
 2573 Fit      -0.135323
 2574 Fit      -0.135122
 2575 Fit      -0.136014
 2576 Fit      -0.138134
 2577 Fit      -0.138096
 2578 Fit      -0.138338
 2579 Fit      -0.137356
 2580 Fit      -0.136313
 2581 Fit      -0.136012
 2582 Fit      -0.136774
 2583 Fit      -0.138020
 2584 Fit      -0.138265
 2585 Fit      -0.137308
 2586 Fit      -0.136299
 2587 Fit      -0.136036
 2588 Fit      -0.136830
 2589 Fit      -0.137076
 2590 Fit      -0.136937
 2591 Fit      -0.136590
 2592 Fit      -0.137039
 2593 Fit      -0.136913
 2594 Fit      -0.136602
 2595 Fit      -0.136789
 2596 Fit      -0.139468
 2597 Fit      -0.138938
 2598 Fit      -0.133264
 2599 Fit      -0.132556
 2600 Fit      -0.133875
 2601 Fit      -0.136972
 2602 Fit      -0.128879
 2603 Fit      -0.127372
 2604 Fit      -0.127647
 2605 Fit      -0.129478
 2606 Fit      -0.132553
 2607 Fit      -0.136547
 2608 Fit      -0.123878
 2609 Fit      -0.123371
 2610 Fit      -0.124369
 2611 Fit      -0.126542
 2612 Fit      -0.129551
 2613 Fit      -0.133100
 2614 Fit      -0.136958
 2615 Fit      -0.121794
 2616 Fit      -0.120868
 2617 Fit      -0.121373
 2618 Fit      -0.122973
 2619 Fit      -0.125309
 2620 Fit      -0.128062
 2621 Fit      -0.130988
 2622 Fit      -0.133932
 2623 Fit      -0.136812
 2624 Fit      -0.120142
 2625 Fit      -0.119786
 2626 Fit      -0.120676
 2627 Fit      -0.122438
 2628 Fit      -0.124692
 2629 Fit      -0.127106
 2630 Fit      -0.129436
 2631 Fit      -0.131548
 2632 Fit      -0.133409
 2633 Fit      -0.135058
 2634 Fit      -0.136569
 2635 Fit      -0.138022
 2636 Fit      -0.120075
 2637 Fit      -0.119749
 2638 Fit      -0.120684
 2639 Fit      -0.122497
 2640 Fit      -0.132760
 2641 Fit      -0.133204
 2642 Fit      -0.133510
 2643 Fit      -0.133837
 2644 Fit      -0.134323
 2645 Fit      -0.135099
 2646 Fit      -0.136309
 2647 Fit      -0.138155
 2648 Fit      -0.140961
 2649 Fit      -0.120453
 2650 Fit      -0.120408
 2651 Fit      -0.121596
 2652 Fit      -0.131444
 2653 Fit      -0.130761
 2654 Fit      -0.130393
 2655 Fit      -0.130512
 2656 Fit      -0.131291
 2657 Fit      -0.132943
 2658 Fit      -0.135774
 2659 Fit      -0.121017
 2660 Fit      -0.121228
 2661 Fit      -0.129726
 2662 Fit      -0.128328
 2663 Fit      -0.127519
 2664 Fit      -0.127512
 2665 Fit      -0.128518
 2666 Fit      -0.130774
 2667 Fit      -0.134595
 2668 Fit      -0.121327
 2669 Fit      -0.121896
 2670 Fit      -0.126592
 2671 Fit      -0.125760
 2672 Fit      -0.126050
 2673 Fit      -0.127661
 2674 Fit      -0.130769
 2675 Fit      -0.135488
 2676 Fit      -0.121330
 2677 Fit      -0.121513
 2678 Fit      -0.126140
 2679 Fit      -0.125382
 2680 Fit      -0.126025
 2681 Fit      -0.128218
 2682 Fit      -0.131973
 2683 Fit      -0.131487
 2684 Fit      -0.128151
 2685 Fit      -0.121765
 2686 Fit      -0.120942
 2687 Fit      -0.121158
 2688 Fit      -0.122629
 2689 Fit      -0.126989
 2690 Fit      -0.126241
 2691 Fit      -0.127161
 2692 Fit      -0.129854
 2693 Fit      -0.127975
 2694 Fit      -0.124573
 2695 Fit      -0.122274
 2696 Fit      -0.121027
 2697 Fit      -0.120918
 2698 Fit      -0.122088
 2699 Fit      -0.128102
 2700 Fit      -0.129544
 2701 Fit      -0.132966
 2702 Fit      -0.127416
 2703 Fit      -0.123840
 2704 Fit      -0.121988
 2705 Fit      -0.121793
 2706 Fit      -0.123255
 2707 Fit      -0.130466
 2708 Fit      -0.131734
 2709 Fit      -0.128915
 2710 Fit      -0.125178
 2711 Fit      -0.123655
 2712 Fit      -0.124209
 2713 Fit      -0.133118
 2714 Fit      -0.134759
 2715 Fit      -0.129947
 2716 Fit      -0.126908
 2717 Fit      -0.126537
 2718 Fit      -0.137024
 2719 Fit      -0.130684
 2720 Fit      -0.129662
 2721 Fit      -0.138180
 2722 Fit      -0.134937
 2723 Fit      -0.132862
 2724 Fit      -0.135859
 2725 Fit      -0.140387
 2726 Fit      -0.138428
 2727 Fit      -0.153764
 2728 Fit      -0.161302
 2729 Fit      -0.150413
 2730 Fit      -0.144151
 2731 Fit      -0.147348
 2732 Fit      -0.170817
 2733 Fit      -0.159171
 2734 Fit      -0.148020
 2735 Fit      -0.140263
 2736 Fit      -0.136612
 2737 Fit      -0.137014
 2738 Fit      -0.141656
 2739 Fit      -0.157204
 2740 Fit      -0.146137
 2741 Fit      -0.138199
 2742 Fit      -0.133161
 2743 Fit      -0.130642
 2744 Fit      -0.130358
 2745 Fit      -0.132227
 2746 Fit      -0.136546
 2747 Fit      -0.153591
 2748 Fit      -0.142865
 2749 Fit      -0.135268
 2750 Fit      -0.130155
 2751 Fit      -0.127048
 2752 Fit      -0.125616
 2753 Fit      -0.125642
 2754 Fit      -0.127033
 2755 Fit      -0.129903
 2756 Fit      -0.134733
 2757 Fit      -0.149495
 2758 Fit      -0.139706
 2759 Fit      -0.132720
 2760 Fit      -0.127819
 2761 Fit      -0.124556
 2762 Fit      -0.122633
 2763 Fit      -0.121840
 2764 Fit      -0.122027
 2765 Fit      -0.123107
 2766 Fit      -0.125093
 2767 Fit      -0.128172
 2768 Fit      -0.143651
 2769 Fit      -0.135375
 2770 Fit      -0.129379
 2771 Fit      -0.125070
 2772 Fit      -0.122095
 2773 Fit      -0.120219
 2774 Fit      -0.119270
 2775 Fit      -0.119115
 2776 Fit      -0.119649
 2777 Fit      -0.120811
 2778 Fit      -0.122600
 2779 Fit      -0.125125
 2780 Fit      -0.144412
 2781 Fit      -0.135750
 2782 Fit      -0.129423
 2783 Fit      -0.124776
 2784 Fit      -0.121438
 2785 Fit      -0.119175
 2786 Fit      -0.117820
 2787 Fit      -0.117238
 2788 Fit      -0.117319
 2789 Fit      -0.117973
 2790 Fit      -0.119139
 2791 Fit      -0.120805
 2792 Fit      -0.123029
 2793 Fit      -0.144259
 2794 Fit      -0.135962
 2795 Fit      -0.129725
 2796 Fit      -0.124999
 2797 Fit      -0.121470
 2798 Fit      -0.118940
 2799 Fit      -0.117265
 2800 Fit      -0.116331
 2801 Fit      -0.116038
 2802 Fit      -0.116301
 2803 Fit      -0.117052
 2804 Fit      -0.118249
 2805 Fit      -0.119888
 2806 Fit      -0.141782
 2807 Fit      -0.134723
 2808 Fit      -0.129109
 2809 Fit      -0.124686
 2810 Fit      -0.121280
 2811 Fit      -0.118760
 2812 Fit      -0.117022
 2813 Fit      -0.115979
 2814 Fit      -0.115549
 2815 Fit      -0.115663
 2816 Fit      -0.116265
 2817 Fit      -0.117325
 2818 Fit      -0.118853
 2819 Fit      -0.120923
 2820 Fit      -0.137401
 2821 Fit      -0.131795
 2822 Fit      -0.127050
 2823 Fit      -0.123207
 2824 Fit      -0.120225
 2825 Fit      -0.118041
 2826 Fit      -0.116587
 2827 Fit      -0.115796
 2828 Fit      -0.115607
 2829 Fit      -0.115970
 2830 Fit      -0.116867
 2831 Fit      -0.118329
 2832 Fit      -0.120479
 2833 Fit      -0.133652
 2834 Fit      -0.129009
 2835 Fit      -0.124981
 2836 Fit      -0.121721
 2837 Fit      -0.119248
 2838 Fit      -0.117531
 2839 Fit      -0.116525
 2840 Fit      -0.116184
 2841 Fit      -0.116477
 2842 Fit      -0.117418
 2843 Fit      -0.119102
 2844 Fit      -0.131415
 2845 Fit      -0.127280
 2846 Fit      -0.123777
 2847 Fit      -0.121020
 2848 Fit      -0.119027
 2849 Fit      -0.117780
 2850 Fit      -0.117254
 2851 Fit      -0.117445
 2852 Fit      -0.118408
 2853 Fit      -0.120318
 2854 Fit      -0.133461
 2855 Fit      -0.128812
 2856 Fit      -0.125008
 2857 Fit      -0.122101
 2858 Fit      -0.120095
 2859 Fit      -0.118977
 2860 Fit      -0.118755
 2861 Fit      -0.119509
 2862 Fit      -0.121485
 2863 Fit      -0.130398
 2864 Fit      -0.126031
 2865 Fit      -0.123007
 2866 Fit      -0.121221
 2867 Fit      -0.120673
 2868 Fit      -0.121509
 2869 Fit      -0.124406
 2870 Fit      -0.149106
 2871 Fit      -0.152905
 2872 Fit      -0.153118
 2873 Fit      -0.149353
 2874 Fit      -0.146124
 2875 Fit      -0.145933
 2876 Fit      -0.148955
 2877 Fit      -0.157708
 2878 Fit      -0.159700
 2879 Fit      -0.158135
 2880 Fit      -0.154109
 2881 Fit      -0.149644
 2882 Fit      -0.146036
 2883 Fit      -0.143789
 2884 Fit      -0.142945
 2885 Fit      -0.143483
 2886 Fit      -0.145490
 2887 Fit      -0.148966
 2888 Fit      -0.153455
 2889 Fit      -0.163730
 2890 Fit      -0.167140
 2891 Fit      -0.167411
 2892 Fit      -0.164402
 2893 Fit      -0.159606
 2894 Fit      -0.154529
 2895 Fit      -0.149956
 2896 Fit      -0.146260
 2897 Fit      -0.143605
 2898 Fit      -0.141947
 2899 Fit      -0.141123
 2900 Fit      -0.141022
 2901 Fit      -0.141661
 2902 Fit      -0.143157
 2903 Fit      -0.145648
 2904 Fit      -0.149192
 2905 Fit      -0.153682
 2906 Fit      -0.158774
 2907 Fit      -0.171193
 2908 Fit      -0.171250
 2909 Fit      -0.164862
 2910 Fit      -0.158828
 2911 Fit      -0.153482
 2912 Fit      -0.148909
 2913 Fit      -0.145272
 2914 Fit      -0.142668
 2915 Fit      -0.141002
 2916 Fit      -0.140055
 2917 Fit      -0.139632
 2918 Fit      -0.139640
 2919 Fit      -0.140105
 2920 Fit      -0.141133
 2921 Fit      -0.142871
 2922 Fit      -0.145459
 2923 Fit      -0.148991
 2924 Fit      -0.153474
 2925 Fit      -0.158815
 2926 Fit      -0.164844
 2927 Fit      -0.169332
 2928 Fit      -0.162378
 2929 Fit      -0.156349
 2930 Fit      -0.150975
 2931 Fit      -0.146454
 2932 Fit      -0.143069
 2933 Fit      -0.140851
 2934 Fit      -0.139571
 2935 Fit      -0.138922
 2936 Fit      -0.138658
 2937 Fit      -0.138660
 2938 Fit      -0.138927
 2939 Fit      -0.139543
 2940 Fit      -0.140640
 2941 Fit      -0.142372
 2942 Fit      -0.144893
 2943 Fit      -0.148330
 2944 Fit      -0.152761
 2945 Fit      -0.158172
 2946 Fit      -0.164481
 2947 Fit      -0.171740
 2948 Fit      -0.140833
 2949 Fit      -0.139076
 2950 Fit      -0.138255
 2951 Fit      -0.137972
 2952 Fit      -0.137947
 2953 Fit      -0.138047
 2954 Fit      -0.138258
 2955 Fit      -0.138646
 2956 Fit      -0.139326
 2957 Fit      -0.140435
 2958 Fit      -0.142125
 2959 Fit      -0.144551
 2960 Fit      -0.147866
 2961 Fit      -0.152202
 2962 Fit      -0.157626
 2963 Fit      -0.137125
 2964 Fit      -0.137101
 2965 Fit      -0.137338
 2966 Fit      -0.137613
 2967 Fit      -0.137858
 2968 Fit      -0.138111
 2969 Fit      -0.138471
 2970 Fit      -0.139064
 2971 Fit      -0.140032
 2972 Fit      -0.141526
 2973 Fit      -0.143709
 2974 Fit      -0.146764
 2975 Fit      -0.150889
 2976 Fit      -0.156283
 2977 Fit      -0.137110
 2978 Fit      -0.137626
 2979 Fit      -0.137956
 2980 Fit      -0.138172
 2981 Fit      -0.138400
 2982 Fit      -0.138783
 2983 Fit      -0.139469
 2984 Fit      -0.140613
 2985 Fit      -0.142382
 2986 Fit      -0.144969
 2987 Fit      -0.148619
 2988 Fit      -0.153645
 2989 Fit      -0.138689
 2990 Fit      -0.138693
 2991 Fit      -0.138735
 2992 Fit      -0.138985
 2993 Fit      -0.139607
 2994 Fit      -0.140766
 2995 Fit      -0.142649
 2996 Fit      -0.145494
 2997 Fit      -0.149637
 2998 Fit      -0.139254
 2999 Fit      -0.139105
 3000 Fit      -0.139406
 3001 Fit      -0.140327
 3002 Fit      -0.142065
 3003 Fit      -0.144891
 3004 Fit      -0.149231
 3005 Fit      -0.123072
 3006 Fit      -0.123690
 3007 Fit      -0.124645
 3008 Fit      -0.125881
 3009 Fit      -0.127387
 3010 Fit      -0.129176
 3011 Fit      -0.131274
 3012 Fit      -0.122013
 3013 Fit      -0.121535
 3014 Fit      -0.121567
 3015 Fit      -0.121939
 3016 Fit      -0.122566
 3017 Fit      -0.123408
 3018 Fit      -0.124450
 3019 Fit      -0.125686
 3020 Fit      -0.127112
 3021 Fit      -0.128721
 3022 Fit      -0.130502
 3023 Fit      -0.121337
 3024 Fit      -0.120663
 3025 Fit      -0.120428
 3026 Fit      -0.120497
 3027 Fit      -0.120798
 3028 Fit      -0.121296
 3029 Fit      -0.121973
 3030 Fit      -0.122818
 3031 Fit      -0.123819
 3032 Fit      -0.124960
 3033 Fit      -0.126218
 3034 Fit      -0.127564
 3035 Fit      -0.128965
 3036 Fit      -0.121589
 3037 Fit      -0.120536
 3038 Fit      -0.119924
 3039 Fit      -0.119630
 3040 Fit      -0.119579
 3041 Fit      -0.119730
 3042 Fit      -0.120064
 3043 Fit      -0.120571
 3044 Fit      -0.121243
 3045 Fit      -0.122064
 3046 Fit      -0.123017
 3047 Fit      -0.124074
 3048 Fit      -0.125209
 3049 Fit      -0.126398
 3050 Fit      -0.121593
 3051 Fit      -0.120489
 3052 Fit      -0.119732
 3053 Fit      -0.119251
 3054 Fit      -0.118995
 3055 Fit      -0.118938
 3056 Fit      -0.119069
 3057 Fit      -0.119383
 3058 Fit      -0.119876
 3059 Fit      -0.120537
 3060 Fit      -0.121350
 3061 Fit      -0.122293
 3062 Fit      -0.123345
 3063 Fit      -0.124492
 3064 Fit      -0.125755
 3065 Fit      -0.122704
 3066 Fit      -0.121396
 3067 Fit      -0.120370
 3068 Fit      -0.119596
 3069 Fit      -0.119046
 3070 Fit      -0.118701
 3071 Fit      -0.118554
 3072 Fit      -0.118606
 3073 Fit      -0.118860
 3074 Fit      -0.119314
 3075 Fit      -0.119960
 3076 Fit      -0.120784
 3077 Fit      -0.121768
 3078 Fit      -0.122903
 3079 Fit      -0.124209
 3080 Fit      -0.125766
 3081 Fit      -0.127782
 3082 Fit      -0.122436
 3083 Fit      -0.121211
 3084 Fit      -0.120232
 3085 Fit      -0.119474
 3086 Fit      -0.118925
 3087 Fit      -0.118590
 3088 Fit      -0.118476
 3089 Fit      -0.118595
 3090 Fit      -0.118953
 3091 Fit      -0.119548
 3092 Fit      -0.120371
 3093 Fit      -0.121413
 3094 Fit      -0.122679
 3095 Fit      -0.124220
 3096 Fit      -0.126175
 3097 Fit      -0.128855
 3098 Fit      -0.123872
 3099 Fit      -0.122257
 3100 Fit      -0.121025
 3101 Fit      -0.120074
 3102 Fit      -0.119377
 3103 Fit      -0.118938
 3104 Fit      -0.118772
 3105 Fit      -0.118900
 3106 Fit      -0.119331
 3107 Fit      -0.120069
 3108 Fit      -0.121113
 3109 Fit      -0.122477
 3110 Fit      -0.124227
 3111 Fit      -0.126536
 3112 Fit      -0.129762
 3113 Fit      -0.126546
 3114 Fit      -0.124090
 3115 Fit      -0.122373
 3116 Fit      -0.121122
 3117 Fit      -0.120229
 3118 Fit      -0.119675
 3119 Fit      -0.119473
 3120 Fit      -0.119648
 3121 Fit      -0.120218
 3122 Fit      -0.121193
 3123 Fit      -0.122598
 3124 Fit      -0.124506
 3125 Fit      -0.127095
 3126 Fit      -0.130706
 3127 Fit      -0.135809
 3128 Fit      -0.129602
 3129 Fit      -0.126126
 3130 Fit      -0.123777
 3131 Fit      -0.122185
 3132 Fit      -0.121163
 3133 Fit      -0.120663
 3134 Fit      -0.120701
 3135 Fit      -0.121307
 3136 Fit      -0.122511
 3137 Fit      -0.124370
 3138 Fit      -0.127020
 3139 Fit      -0.130683
 3140 Fit      -0.135475
 3141 Fit      -0.136597
 3142 Fit      -0.135737
 3143 Fit      -0.131897
 3144 Fit      -0.127815
 3145 Fit      -0.124855
 3146 Fit      -0.123053
 3147 Fit      -0.122270
 3148 Fit      -0.122497
 3149 Fit      -0.123781
 3150 Fit      -0.126175
 3151 Fit      -0.129690
 3152 Fit      -0.133809
 3153 Fit      -0.131172
 3154 Fit      -0.129480
 3155 Fit      -0.126050
 3156 Fit      -0.124430
 3157 Fit      -0.125388
 3158 Fit      -0.128536
 3159 Fit      -0.127299
 3160 Fit      -0.137583
 3161 Fit      -0.131654
 3162 Fit      -0.130669
 3163 Fit      -0.131064
 3164 Fit      -0.127577
 3165 Fit      -0.126584
 3166 Fit      -0.125710
 3167 Fit      -0.126063
 3168 Fit      -0.122991
 3169 Fit      -0.125168
 3170 Fit      -0.122250
 3171 Fit      -0.121398
 3172 Fit      -0.121679
 3173 Fit      -0.119274
 3174 Fit      -0.121140
 3175 Fit      -0.123541
 3176 Fit      -0.126315
 3177 Fit      -0.118589
 3178 Fit      -0.117850
 3179 Fit      -0.118121
 3180 Fit      -0.116585
 3181 Fit      -0.118246
 3182 Fit      -0.120311
 3183 Fit      -0.122631
 3184 Fit      -0.125090
 3185 Fit      -0.127605
 3186 Fit      -0.115770
 3187 Fit      -0.115180
 3188 Fit      -0.115504
 3189 Fit      -0.115002
 3190 Fit      -0.116525
 3191 Fit      -0.118313
 3192 Fit      -0.120225
 3193 Fit      -0.122165
 3194 Fit      -0.124073
 3195 Fit      -0.125927
 3196 Fit      -0.127726
 3197 Fit      -0.114994
 3198 Fit      -0.113765
 3199 Fit      -0.113445
 3200 Fit      -0.113914
 3201 Fit      -0.114519
 3202 Fit      -0.116007
 3203 Fit      -0.117625
 3204 Fit      -0.119235
 3205 Fit      -0.120749
 3206 Fit      -0.122126
 3207 Fit      -0.123368
 3208 Fit      -0.124505
 3209 Fit      -0.125585
 3210 Fit      -0.126666
 3211 Fit      -0.127807
 3212 Fit      -0.129077
 3213 Fit      -0.113467
 3214 Fit      -0.112644
 3215 Fit      -0.112649
 3216 Fit      -0.113336
 3217 Fit      -0.115046
 3218 Fit      -0.116581
 3219 Fit      -0.121562
 3220 Fit      -0.122239
 3221 Fit      -0.122746
 3222 Fit      -0.123165
 3223 Fit      -0.123587
 3224 Fit      -0.124103
 3225 Fit      -0.124804
 3226 Fit      -0.125791
 3227 Fit      -0.127185
 3228 Fit      -0.129151
 3229 Fit      -0.131936
 3230 Fit      -0.112704
 3231 Fit      -0.112334
 3232 Fit      -0.112718
 3233 Fit      -0.113690
 3234 Fit      -0.121954
 3235 Fit      -0.121744
 3236 Fit      -0.121641
 3237 Fit      -0.121758
 3238 Fit      -0.122209
 3239 Fit      -0.123115
 3240 Fit      -0.124620
 3241 Fit      -0.126915
 3242 Fit      -0.130277
 3243 Fit      -0.113175
 3244 Fit      -0.112563
 3245 Fit      -0.112728
 3246 Fit      -0.113550
 3247 Fit      -0.120805
 3248 Fit      -0.120191
 3249 Fit      -0.119880
 3250 Fit      -0.120010
 3251 Fit      -0.120719
 3252 Fit      -0.122156
 3253 Fit      -0.124498
 3254 Fit      -0.127981
 3255 Fit      -0.113039
 3256 Fit      -0.112951
 3257 Fit      -0.113608
 3258 Fit      -0.119469
 3259 Fit      -0.118817
 3260 Fit      -0.118704
 3261 Fit      -0.119276
 3262 Fit      -0.120671
 3263 Fit      -0.123027
 3264 Fit      -0.126484
 3265 Fit      -0.113481
 3266 Fit      -0.113197
 3267 Fit      -0.113668
 3268 Fit      -0.119143
 3269 Fit      -0.118372
 3270 Fit      -0.118282
 3271 Fit      -0.119020
 3272 Fit      -0.120703
 3273 Fit      -0.123402
 3274 Fit      -0.127098
 3275 Fit      -0.113832
 3276 Fit      -0.113337
 3277 Fit      -0.113555
 3278 Fit      -0.119062
 3279 Fit      -0.118513
 3280 Fit      -0.118848
 3281 Fit      -0.120192
 3282 Fit      -0.122592
 3283 Fit      -0.125962
 3284 Fit      -0.124287
 3285 Fit      -0.114305
 3286 Fit      -0.113515
 3287 Fit      -0.113362
 3288 Fit      -0.113943
 3289 Fit      -0.119541
 3290 Fit      -0.119512
 3291 Fit      -0.120548
 3292 Fit      -0.122710
 3293 Fit      -0.123003
 3294 Fit      -0.119868
 3295 Fit      -0.117390
 3296 Fit      -0.115504
 3297 Fit      -0.114200
 3298 Fit      -0.113531
 3299 Fit      -0.113575
 3300 Fit      -0.114393
 3301 Fit      -0.120864
 3302 Fit      -0.121977
 3303 Fit      -0.124344
 3304 Fit      -0.123411
 3305 Fit      -0.119732
 3306 Fit      -0.117004
 3307 Fit      -0.115160
 3308 Fit      -0.114173
 3309 Fit      -0.114057
 3310 Fit      -0.114824
 3311 Fit      -0.122516
 3312 Fit      -0.123786
 3313 Fit      -0.120376
 3314 Fit      -0.117497
 3315 Fit      -0.115763
 3316 Fit      -0.115127
 3317 Fit      -0.115547
 3318 Fit      -0.124507
 3319 Fit      -0.126437
 3320 Fit      -0.122575
 3321 Fit      -0.119242
 3322 Fit      -0.117344
 3323 Fit      -0.116815
 3324 Fit      -0.117537
 3325 Fit      -0.127226
 3326 Fit      -0.122270
 3327 Fit      -0.119708
 3328 Fit      -0.118900
 3329 Fit      -0.127675
 3330 Fit      -0.125896
 3331 Fit      -0.122481
 3332 Fit      -0.121192
 3333 Fit      -0.125493
 3334 Fit      -0.123513
 3335 Fit      -0.129109
 3336 Fit      -0.128479
 3337 Fit      -0.125697
 3338 Fit      -0.127602
 3339 Fit      -0.145947
 3340 Fit      -0.140217
 3341 Fit      -0.152687
 3342 Fit      -0.142999
 3343 Fit      -0.137341
 3344 Fit      -0.135170
 3345 Fit      -0.150801
 3346 Fit      -0.140849
 3347 Fit      -0.133806
 3348 Fit      -0.130451
 3349 Fit      -0.130851
 3350 Fit      -0.130659
 3351 Fit      -0.149053
 3352 Fit      -0.139177
 3353 Fit      -0.131938
 3354 Fit      -0.127265
 3355 Fit      -0.124896
 3356 Fit      -0.124639
 3357 Fit      -0.126473
 3358 Fit      -0.126647
 3359 Fit      -0.147418
 3360 Fit      -0.137718
 3361 Fit      -0.130545
 3362 Fit      -0.125492
 3363 Fit      -0.122203
 3364 Fit      -0.120418
 3365 Fit      -0.119969
 3366 Fit      -0.120786
 3367 Fit      -0.122929
 3368 Fit      -0.123168
 3369 Fit      -0.142638
 3370 Fit      -0.133553
 3371 Fit      -0.126961
 3372 Fit      -0.122280
 3373 Fit      -0.119121
 3374 Fit      -0.117221
 3375 Fit      -0.116407
 3376 Fit      -0.116574
 3377 Fit      -0.117687
 3378 Fit      -0.119812
 3379 Fit      -0.120291
 3380 Fit      -0.134689
 3381 Fit      -0.127682
 3382 Fit      -0.122525
 3383 Fit      -0.118785
 3384 Fit      -0.116183
 3385 Fit      -0.114534
 3386 Fit      -0.113706
 3387 Fit      -0.113609
 3388 Fit      -0.114192
 3389 Fit      -0.115445
 3390 Fit      -0.117425
 3391 Fit      -0.132915
 3392 Fit      -0.126169
 3393 Fit      -0.121149
 3394 Fit      -0.117433
 3395 Fit      -0.114759
 3396 Fit      -0.112953
 3397 Fit      -0.111891
 3398 Fit      -0.111482
 3399 Fit      -0.111662
 3400 Fit      -0.112393
 3401 Fit      -0.113670
 3402 Fit      -0.115536
 3403 Fit      -0.133529
 3404 Fit      -0.126546
 3405 Fit      -0.121295
 3406 Fit      -0.117333
 3407 Fit      -0.114393
 3408 Fit      -0.112298
 3409 Fit      -0.110928
 3410 Fit      -0.110189
 3411 Fit      -0.110012
 3412 Fit      -0.110346
 3413 Fit      -0.111163
 3414 Fit      -0.112463
 3415 Fit      -0.114284
 3416 Fit      -0.133684
 3417 Fit      -0.126895
 3418 Fit      -0.121668
 3419 Fit      -0.117626
 3420 Fit      -0.114534
 3421 Fit      -0.112238
 3422 Fit      -0.110627
 3423 Fit      -0.109618
 3424 Fit      -0.109147
 3425 Fit      -0.109163
 3426 Fit      -0.109632
 3427 Fit      -0.110540
 3428 Fit      -0.111899
 3429 Fit      -0.113759
 3430 Fit      -0.128999
 3431 Fit      -0.123571
 3432 Fit      -0.119243
 3433 Fit      -0.115825
 3434 Fit      -0.113184
 3435 Fit      -0.111220
 3436 Fit      -0.109858
 3437 Fit      -0.109037
 3438 Fit      -0.108707
 3439 Fit      -0.108835
 3440 Fit      -0.109400
 3441 Fit      -0.110406
 3442 Fit      -0.111888
 3443 Fit      -0.128976
 3444 Fit      -0.123837
 3445 Fit      -0.119587
 3446 Fit      -0.116155
 3447 Fit      -0.113462
 3448 Fit      -0.111435
 3449 Fit      -0.110012
 3450 Fit      -0.109141
 3451 Fit      -0.108782
 3452 Fit      -0.108909
 3453 Fit      -0.109514
 3454 Fit      -0.110621
 3455 Fit      -0.112299
 3456 Fit      -0.125877
 3457 Fit      -0.121469
 3458 Fit      -0.117776
 3459 Fit      -0.114803
 3460 Fit      -0.112516
 3461 Fit      -0.110868
 3462 Fit      -0.109816
 3463 Fit      -0.109326
 3464 Fit      -0.109380
 3465 Fit      -0.109985
 3466 Fit      -0.111192
 3467 Fit      -0.113121
 3468 Fit      -0.123845
 3469 Fit      -0.119925
 3470 Fit      -0.116678
 3471 Fit      -0.114118
 3472 Fit      -0.112225
 3473 Fit      -0.110968
 3474 Fit      -0.110322
 3475 Fit      -0.110281
 3476 Fit      -0.110871
 3477 Fit      -0.112173
 3478 Fit      -0.124059
 3479 Fit      -0.120144
 3480 Fit      -0.116980
 3481 Fit      -0.114565
 3482 Fit      -0.112874
 3483 Fit      -0.111887
 3484 Fit      -0.111604
 3485 Fit      -0.112063
 3486 Fit      -0.113377
 3487 Fit      -0.123413
 3488 Fit      -0.119473
 3489 Fit      -0.116562
 3490 Fit      -0.114613
 3491 Fit      -0.113599
 3492 Fit      -0.113548
 3493 Fit      -0.118585
 3494 Fit      -0.116612
 3495 Fit      -0.138241
 3496 Fit      -0.135537
 3497 Fit      -0.135412
 3498 Fit      -0.138153
 3499 Fit      -0.141609
 3500 Fit      -0.141759
 3501 Fit      -0.138425
 3502 Fit      -0.133372
 3503 Fit      -0.132619
 3504 Fit      -0.133168
 3505 Fit      -0.135049
 3506 Fit      -0.138193
 3507 Fit      -0.142145
 3508 Fit      -0.145790
 3509 Fit      -0.147449
 3510 Fit      -0.146110
 3511 Fit      -0.142633
 3512 Fit      -0.138685
 3513 Fit      -0.135428
 3514 Fit      -0.131640
 3515 Fit      -0.130852
 3516 Fit      -0.130780
 3517 Fit      -0.131430
 3518 Fit      -0.132870
 3519 Fit      -0.135184
 3520 Fit      -0.138392
 3521 Fit      -0.142373
 3522 Fit      -0.146792
 3523 Fit      -0.150964
 3524 Fit      -0.153735
 3525 Fit      -0.153943
 3526 Fit      -0.151496
 3527 Fit      -0.147475
 3528 Fit      -0.143078
 3529 Fit      -0.139025
 3530 Fit      -0.135684
 3531 Fit      -0.133221
 3532 Fit      -0.130252
 3533 Fit      -0.129557
 3534 Fit      -0.129314
 3535 Fit      -0.129494
 3536 Fit      -0.130130
 3537 Fit      -0.131293
 3538 Fit      -0.133075
 3539 Fit      -0.135556
 3540 Fit      -0.138780
 3541 Fit      -0.142728
 3542 Fit      -0.147303
 3543 Fit      -0.152314
 3544 Fit      -0.157345
 3545 Fit      -0.158200
 3546 Fit      -0.153258
 3547 Fit      -0.148226
 3548 Fit      -0.143580
 3549 Fit      -0.139488
 3550 Fit      -0.136064
 3551 Fit      -0.133398
 3552 Fit      -0.131491
 3553 Fit      -0.129134
 3554 Fit      -0.128567
 3555 Fit      -0.128323
 3556 Fit      -0.128358
 3557 Fit      -0.128682
 3558 Fit      -0.129345
 3559 Fit      -0.130427
 3560 Fit      -0.132016
 3561 Fit      -0.134204
 3562 Fit      -0.137068
 3563 Fit      -0.140655
 3564 Fit      -0.144968
 3565 Fit      -0.149966
 3566 Fit      -0.155608
 3567 Fit      -0.155894
 3568 Fit      -0.150261
 3569 Fit      -0.145281
 3570 Fit      -0.140863
 3571 Fit      -0.137061
 3572 Fit      -0.133990
 3573 Fit      -0.131702
 3574 Fit      -0.130130
 3575 Fit      -0.128244
 3576 Fit      -0.127831
 3577 Fit      -0.127658
 3578 Fit      -0.127670
 3579 Fit      -0.127867
 3580 Fit      -0.128291
 3581 Fit      -0.129010
 3582 Fit      -0.130109
 3583 Fit      -0.131681
 3584 Fit      -0.133825
 3585 Fit      -0.136635
 3586 Fit      -0.140192
 3587 Fit      -0.144544
 3588 Fit      -0.149679
 3589 Fit      -0.132385
 3590 Fit      -0.130332
 3591 Fit      -0.129018
 3592 Fit      -0.127579
 3593 Fit      -0.127353
 3594 Fit      -0.127286
 3595 Fit      -0.127321
 3596 Fit      -0.127454
 3597 Fit      -0.127721
 3598 Fit      -0.128182
 3599 Fit      -0.128911
 3600 Fit      -0.129995
 3601 Fit      -0.131526
 3602 Fit      -0.133606
 3603 Fit      -0.136343
 3604 Fit      -0.139848
 3605 Fit      -0.144219
 3606 Fit      -0.128095
 3607 Fit      -0.127191
 3608 Fit      -0.127248
 3609 Fit      -0.127326
 3610 Fit      -0.127427
 3611 Fit      -0.127593
 3612 Fit      -0.127886
 3613 Fit      -0.128380
 3614 Fit      -0.129158
 3615 Fit      -0.130309
 3616 Fit      -0.131933
 3617 Fit      -0.134142
 3618 Fit      -0.137071
 3619 Fit      -0.140870
 3620 Fit      -0.127793
 3621 Fit      -0.127833
 3622 Fit      -0.127889
 3623 Fit      -0.128041
 3624 Fit      -0.128378
 3625 Fit      -0.128994
 3626 Fit      -0.129985
 3627 Fit      -0.131462
 3628 Fit      -0.133554
 3629 Fit      -0.136425
 3630 Fit      -0.140287
 3631 Fit      -0.128634
 3632 Fit      -0.128549
 3633 Fit      -0.128646
 3634 Fit      -0.129024
 3635 Fit      -0.129785
 3636 Fit      -0.131042
 3637 Fit      -0.132930
 3638 Fit      -0.135630
 3639 Fit      -0.139393
 3640 Fit      -0.129366
 3641 Fit      -0.129906
 3642 Fit      -0.131009
 3643 Fit      -0.132824
 3644 Fit      -0.135558
 3645 Fit      -0.139528
 3646 Fit      -0.115609
 3647 Fit      -0.116154
 3648 Fit      -0.116963
 3649 Fit      -0.118019
 3650 Fit      -0.119321
 3651 Fit      -0.120881
 3652 Fit      -0.115372
 3653 Fit      -0.113802
 3654 Fit      -0.114177
 3655 Fit      -0.114771
 3656 Fit      -0.115566
 3657 Fit      -0.116556
 3658 Fit      -0.117743
 3659 Fit      -0.119129
 3660 Fit      -0.120724
 3661 Fit      -0.113869
 3662 Fit      -0.113679
 3663 Fit      -0.112441
 3664 Fit      -0.112685
 3665 Fit      -0.113115
 3666 Fit      -0.113717
 3667 Fit      -0.114485
 3668 Fit      -0.115413
 3669 Fit      -0.116499
 3670 Fit      -0.117742
 3671 Fit      -0.119144
 3672 Fit      -0.113163
 3673 Fit      -0.112625
 3674 Fit      -0.112407
 3675 Fit      -0.111427
 3676 Fit      -0.111576
 3677 Fit      -0.111895
 3678 Fit      -0.112374
 3679 Fit      -0.113006
 3680 Fit      -0.113786
 3681 Fit      -0.114708
 3682 Fit      -0.115769
 3683 Fit      -0.116968
 3684 Fit      -0.118310
 3685 Fit      -0.113075
 3686 Fit      -0.112232
 3687 Fit      -0.111718
 3688 Fit      -0.111465
 3689 Fit      -0.110713
 3690 Fit      -0.110792
 3691 Fit      -0.111037
 3692 Fit      -0.111441
 3693 Fit      -0.111999
 3694 Fit      -0.112706
 3695 Fit      -0.113555
 3696 Fit      -0.114545
 3697 Fit      -0.115676
 3698 Fit      -0.116961
 3699 Fit      -0.118435
 3700 Fit      -0.113545
 3701 Fit      -0.112419
 3702 Fit      -0.111627
 3703 Fit      -0.111107
 3704 Fit      -0.110812
 3705 Fit      -0.110281
 3706 Fit      -0.110306
 3707 Fit      -0.110496
 3708 Fit      -0.110847
 3709 Fit      -0.111354
 3710 Fit      -0.112015
 3711 Fit      -0.112826
 3712 Fit      -0.113786
 3713 Fit      -0.114903
 3714 Fit      -0.116201
 3715 Fit      -0.117730
 3716 Fit      -0.114378
 3717 Fit      -0.113056
 3718 Fit      -0.112039
 3719 Fit      -0.111285
 3720 Fit      -0.110757
 3721 Fit      -0.110428
 3722 Fit      -0.110134
 3723 Fit      -0.110124
 3724 Fit      -0.110296
 3725 Fit      -0.110650
 3726 Fit      -0.111183
 3727 Fit      -0.111893
 3728 Fit      -0.112780
 3729 Fit      -0.113854
 3730 Fit      -0.115139
 3731 Fit      -0.116686
 3732 Fit      -0.118597
 3733 Fit      -0.114519
 3734 Fit      -0.113180
 3735 Fit      -0.112121
 3736 Fit      -0.111309
 3737 Fit      -0.110718
 3738 Fit      -0.110330
 3739 Fit      -0.110281
 3740 Fit      -0.110250
 3741 Fit      -0.110437
 3742 Fit      -0.110842
 3743 Fit      -0.111467
 3744 Fit      -0.112314
 3745 Fit      -0.113395
 3746 Fit      -0.114740
 3747 Fit      -0.116410
 3748 Fit      -0.118527
 3749 Fit      -0.121297
 3750 Fit      -0.115404
 3751 Fit      -0.113860
 3752 Fit      -0.112642
 3753 Fit      -0.111698
 3754 Fit      -0.111000
 3755 Fit      -0.110530
 3756 Fit      -0.110740
 3757 Fit      -0.110702
 3758 Fit      -0.110928
 3759 Fit      -0.111424
 3760 Fit      -0.112196
 3761 Fit      -0.113257
 3762 Fit      -0.114642
 3763 Fit      -0.116419
 3764 Fit      -0.118716
 3765 Fit      -0.121743
 3766 Fit      -0.117008
 3767 Fit      -0.115066
 3768 Fit      -0.113579
 3769 Fit      -0.112443
 3770 Fit      -0.111606
 3771 Fit      -0.111042
 3772 Fit      -0.111535
 3773 Fit      -0.111510
 3774 Fit      -0.111843
 3775 Fit      -0.112544
 3776 Fit      -0.113633
 3777 Fit      -0.115153
 3778 Fit      -0.117189
 3779 Fit      -0.119887
 3780 Fit      -0.123452
 3781 Fit      -0.117392
 3782 Fit      -0.115294
 3783 Fit      -0.113751
 3784 Fit      -0.112643
 3785 Fit      -0.111911
 3786 Fit      -0.112697
 3787 Fit      -0.112732
 3788 Fit      -0.113335
 3789 Fit      -0.114533
 3790 Fit      -0.116384
 3791 Fit      -0.118990
 3792 Fit      -0.122465
 3793 Fit      -0.126747
 3794 Fit      -0.121977
 3795 Fit      -0.118523
 3796 Fit      -0.116030
 3797 Fit      -0.114308
 3798 Fit      -0.113218
 3799 Fit      -0.114279
 3800 Fit      -0.114493
 3801 Fit      -0.115747
 3802 Fit      -0.118068
 3803 Fit      -0.121382
 3804 Fit      -0.125093
 3805 Fit      -0.123653
 3806 Fit      -0.119885
 3807 Fit      -0.116940
 3808 Fit      -0.115087
 3809 Fit      -0.116364
 3810 Fit      -0.117268
 3811 Fit      -0.120242
 3812 Fit      -0.122690
 3813 Fit      -0.121219
 3814 Fit      -0.117976
 3815 Fit      -0.119092
 3816 Fit      -0.126281
 3817 Fit      -0.125386
 3818 Fit      -0.125025
 3819 Fit      -0.125335
 3820 Fit      -0.124994
 3821 Fit      -0.125311
 3822 Fit      -0.124569
 3823 Fit      -0.124198
 3824 Fit      -0.124843
 3825 Fit      -0.124332
 3826 Fit      -0.125403
 3827 Fit      -0.124535
 3828 Fit      -0.124134
 3829 Fit      -0.126017
 3830 Fit      -0.124872
 3831 Fit      -0.124276
 3832 Fit      -0.127163
 3833 Fit      -0.125651
 3834 Fit      -0.124800
 3835 Fit      -0.124499
 3836 Fit      -0.126263
 3837 Fit      -0.125131
 3838 Fit      -0.124583
 3839 Fit      -0.124606
 3840 Fit      -0.128432
 3841 Fit      -0.126608
 3842 Fit      -0.125494
 3843 Fit      -0.125065
 3844 Fit      -0.125404
 3845 Fit      -0.127374
 3846 Fit      -0.125933
 3847 Fit      -0.125190
 3848 Fit      -0.125152
 3849 Fit      -0.125984
 3850 Fit      -0.129301
 3851 Fit      -0.127810
 3852 Fit      -0.126484
 3853 Fit      -0.125733
 3854 Fit      -0.125720
 3855 Fit      -0.126555
 3856 Fit      -0.129221
 3857 Fit      -0.127752
 3858 Fit      -0.126452
 3859 Fit      -0.125729
 3860 Fit      -0.125745
 3861 Fit      -0.126607
 3862 Fit      -0.127765
 3863 Fit      -0.127872
 3864 Fit      -0.127089
 3865 Fit      -0.126281
 3866 Fit      -0.126139
 3867 Fit      -0.126811
 3868 Fit      -0.127707
 3869 Fit      -0.127816
 3870 Fit      -0.127050
 3871 Fit      -0.126269
 3872 Fit      -0.126156
 3873 Fit      -0.126854
 3874 Fit      -0.126800
 3875 Fit      -0.126651
 3876 Fit      -0.126405
 3877 Fit      -0.126771
 3878 Fit      -0.126632
 3879 Fit      -0.126414
 3880 Fit      -0.126499
 3881 Fit      -0.137617
 3882 Fit      -0.131674
 3883 Fit      -0.130683
 3884 Fit      -0.131071
 3885 Fit      -0.125997
 3886 Fit      -0.125730
 3887 Fit      -0.126672
 3888 Fit      -0.123099
 3889 Fit      -0.121669
 3890 Fit      -0.121383
 3891 Fit      -0.122190
 3892 Fit      -0.123950
 3893 Fit      -0.126480
 3894 Fit      -0.119340
 3895 Fit      -0.118063
 3896 Fit      -0.117833
 3897 Fit      -0.118558
 3898 Fit      -0.120083
 3899 Fit      -0.122231
 3900 Fit      -0.124831
 3901 Fit      -0.115737
 3902 Fit      -0.115139
 3903 Fit      -0.115454
 3904 Fit      -0.116529
 3905 Fit      -0.118182
 3906 Fit      -0.120241
 3907 Fit      -0.122555
 3908 Fit      -0.125008
 3909 Fit      -0.127518
 3910 Fit      -0.114221
 3911 Fit      -0.113447
 3912 Fit      -0.113532
 3913 Fit      -0.114326
 3914 Fit      -0.115647
 3915 Fit      -0.117317
 3916 Fit      -0.119176
 3917 Fit      -0.121107
 3918 Fit      -0.123031
 3919 Fit      -0.124909
 3920 Fit      -0.126730
 3921 Fit      -0.128503
 3922 Fit      -0.114173
 3923 Fit      -0.112892
 3924 Fit      -0.112487
 3925 Fit      -0.112845
 3926 Fit      -0.113797
 3927 Fit      -0.115150
 3928 Fit      -0.116718
 3929 Fit      -0.118341
 3930 Fit      -0.119908
 3931 Fit      -0.121352
 3932 Fit      -0.122656
 3933 Fit      -0.123837
 3934 Fit      -0.124937
 3935 Fit      -0.126008
 3936 Fit      -0.127111
 3937 Fit      -0.128307
 3938 Fit      -0.129673
 3939 Fit      -0.112644
 3940 Fit      -0.112261
 3941 Fit      -0.112635
 3942 Fit      -0.113598
 3943 Fit      -0.114948
 3944 Fit      -0.116478
 3945 Fit      -0.121448
 3946 Fit      -0.122123
 3947 Fit      -0.122629
 3948 Fit      -0.123048
 3949 Fit      -0.123470
 3950 Fit      -0.123986
 3951 Fit      -0.124689
 3952 Fit      -0.125679
 3953 Fit      -0.127077
 3954 Fit      -0.129048
 3955 Fit      -0.131838
 3956 Fit      -0.112700
 3957 Fit      -0.112473
 3958 Fit      -0.112974
 3959 Fit      -0.114049
 3960 Fit      -0.121940
 3961 Fit      -0.121723
 3962 Fit      -0.121553
 3963 Fit      -0.121548
 3964 Fit      -0.121821
 3965 Fit      -0.122488
 3966 Fit      -0.123678
 3967 Fit      -0.125555
 3968 Fit      -0.128346
 3969 Fit      -0.112967
 3970 Fit      -0.112864
 3971 Fit      -0.113506
 3972 Fit      -0.120683
 3973 Fit      -0.120073
 3974 Fit      -0.119766
 3975 Fit      -0.119902
 3976 Fit      -0.120617
 3977 Fit      -0.122060
 3978 Fit      -0.124409
 3979 Fit      -0.127898
 3980 Fit      -0.113843
 3981 Fit      -0.113169
 3982 Fit      -0.113246
 3983 Fit      -0.114061
 3984 Fit      -0.119826
 3985 Fit      -0.118970
 3986 Fit      -0.118576
 3987 Fit      -0.118795
 3988 Fit      -0.119769
 3989 Fit      -0.121636
 3990 Fit      -0.124535
 3991 Fit      -0.113434
 3992 Fit      -0.113266
 3993 Fit      -0.113838
 3994 Fit      -0.118571
 3995 Fit      -0.118129
 3996 Fit      -0.118446
 3997 Fit      -0.119655
 3998 Fit      -0.121853
 3999 Fit      -0.125072
 4000 Fit      -0.124305
 4001 Fit      -0.114259
 4002 Fit      -0.113449
 4003 Fit      -0.113276
 4004 Fit      -0.113838
 4005 Fit      -0.118950
 4006 Fit      -0.118413
 4007 Fit      -0.118760
 4008 Fit      -0.120118
 4009 Fit      -0.122533
 4010 Fit      -0.125920
 4011 Fit      -0.124847
 4012 Fit      -0.121338
 4013 Fit      -0.118532
 4014 Fit      -0.116343
 4015 Fit      -0.114730
 4016 Fit      -0.113717
 4017 Fit      -0.113375
 4018 Fit      -0.113783
 4019 Fit      -0.119304
 4020 Fit      -0.119807
 4021 Fit      -0.121424
 4022 Fit      -0.124148
 4023 Fit      -0.121420
 4024 Fit      -0.118214
 4025 Fit      -0.115921
 4026 Fit      -0.114489
 4027 Fit      -0.113917
 4028 Fit      -0.114223
 4029 Fit      -0.120661
 4030 Fit      -0.121183
 4031 Fit      -0.122944
 4032 Fit      -0.122218
 4033 Fit      -0.118732
 4034 Fit      -0.116417
 4035 Fit      -0.115220
 4036 Fit      -0.115100
 4037 Fit      -0.116001
 4038 Fit      -0.122900
 4039 Fit      -0.124873
 4040 Fit      -0.122512
 4041 Fit      -0.119164
 4042 Fit      -0.117248
 4043 Fit      -0.116702
 4044 Fit      -0.117404
 4045 Fit      -0.124417
 4046 Fit      -0.126371
 4047 Fit      -0.122186
 4048 Fit      -0.119606
 4049 Fit      -0.118778
 4050 Fit      -0.127146
 4051 Fit      -0.125812
 4052 Fit      -0.122376
 4053 Fit      -0.121067
 4054 Fit      -0.127580
 4055 Fit      -0.125391
 4056 Fit      -0.123389
 4057 Fit      -0.128383
 4058 Fit      -0.125578
 4059 Fit      -0.129011
 4060 Fit      -0.127492
 4061 Fit      -0.146007
 4062 Fit      -0.152751
 4063 Fit      -0.143052
 4064 Fit      -0.137390
 4065 Fit      -0.140270
 4066 Fit      -0.150856
 4067 Fit      -0.140898
 4068 Fit      -0.133850
 4069 Fit      -0.130491
 4070 Fit      -0.130890
 4071 Fit      -0.135213
 4072 Fit      -0.149103
 4073 Fit      -0.139223
 4074 Fit      -0.131980
 4075 Fit      -0.127302
 4076 Fit      -0.124930
 4077 Fit      -0.124670
 4078 Fit      -0.126503
 4079 Fit      -0.130691
 4080 Fit      -0.147466
 4081 Fit      -0.137762
 4082 Fit      -0.130585
 4083 Fit      -0.125528
 4084 Fit      -0.122235
 4085 Fit      -0.120446
 4086 Fit      -0.119994
 4087 Fit      -0.120808
 4088 Fit      -0.122949
 4089 Fit      -0.126667
 4090 Fit      -0.142684
 4091 Fit      -0.133595
 4092 Fit      -0.126998
 4093 Fit      -0.122313
 4094 Fit      -0.119149
 4095 Fit      -0.117246
 4096 Fit      -0.116428
 4097 Fit      -0.116590
 4098 Fit      -0.117700
 4099 Fit      -0.119821
 4100 Fit      -0.123174
 4101 Fit      -0.139136
 4102 Fit      -0.130959
 4103 Fit      -0.124940
 4104 Fit      -0.120530
 4105 Fit      -0.117382
 4106 Fit      -0.115272
 4107 Fit      -0.114042
 4108 Fit      -0.113585
 4109 Fit      -0.113827
 4110 Fit      -0.114738
 4111 Fit      -0.116338
 4112 Fit      -0.118728
 4113 Fit      -0.132958
 4114 Fit      -0.126207
 4115 Fit      -0.121181
 4116 Fit      -0.117461
 4117 Fit      -0.114782
 4118 Fit      -0.112972
 4119 Fit      -0.111905
 4120 Fit      -0.111492
 4121 Fit      -0.111667
 4122 Fit      -0.112392
 4123 Fit      -0.113663
 4124 Fit      -0.115523
 4125 Fit      -0.133574
 4126 Fit      -0.126585
 4127 Fit      -0.121328
 4128 Fit      -0.117361
 4129 Fit      -0.114415
 4130 Fit      -0.112316
 4131 Fit      -0.110941
 4132 Fit      -0.110197
 4133 Fit      -0.110014
 4134 Fit      -0.110343
 4135 Fit      -0.111153
 4136 Fit      -0.112446
 4137 Fit      -0.114259
 4138 Fit      -0.133732
 4139 Fit      -0.126935
 4140 Fit      -0.121702
 4141 Fit      -0.117654
 4142 Fit      -0.114556
 4143 Fit      -0.112255
 4144 Fit      -0.110639
 4145 Fit      -0.109625
 4146 Fit      -0.109148
 4147 Fit      -0.109158
 4148 Fit      -0.109620
 4149 Fit      -0.110521
 4150 Fit      -0.111871
 4151 Fit      -0.113721
 4152 Fit      -0.132255
 4153 Fit      -0.126173
 4154 Fit      -0.121316
 4155 Fit      -0.117455
 4156 Fit      -0.114434
 4157 Fit      -0.112137
 4158 Fit      -0.110477
 4159 Fit      -0.109387
 4160 Fit      -0.108810
 4161 Fit      -0.108707
 4162 Fit      -0.109047
 4163 Fit      -0.109822
 4164 Fit      -0.111049
 4165 Fit      -0.112784
 4166 Fit      -0.129022
 4167 Fit      -0.123873
 4168 Fit      -0.119615
 4169 Fit      -0.116176
 4170 Fit      -0.113476
 4171 Fit      -0.111443
 4172 Fit      -0.110014
 4173 Fit      -0.109137
 4174 Fit      -0.108771
 4175 Fit      -0.108890
 4176 Fit      -0.109485
 4177 Fit      -0.110582
 4178 Fit      -0.112247
 4179 Fit      -0.125915
 4180 Fit      -0.121497
 4181 Fit      -0.117795
 4182 Fit      -0.114816
 4183 Fit      -0.112521
 4184 Fit      -0.110867
 4185 Fit      -0.109808
 4186 Fit      -0.109310
 4187 Fit      -0.109355
 4188 Fit      -0.109949
 4189 Fit      -0.111143
 4190 Fit      -0.113056
 4191 Fit      -0.123871
 4192 Fit      -0.119943
 4193 Fit      -0.116687
 4194 Fit      -0.114120
 4195 Fit      -0.112220
 4196 Fit      -0.110955
 4197 Fit      -0.110301
 4198 Fit      -0.110249
 4199 Fit      -0.110826
 4200 Fit      -0.112113
 4201 Fit      -0.126299
 4202 Fit      -0.122020
 4203 Fit      -0.118470
 4204 Fit      -0.115675
 4205 Fit      -0.113617
 4206 Fit      -0.112271
 4207 Fit      -0.111624
 4208 Fit      -0.111691
 4209 Fit      -0.112542
 4210 Fit      -0.123408
 4211 Fit      -0.119462
 4212 Fit      -0.116543
 4213 Fit      -0.114585
 4214 Fit      -0.113559
 4215 Fit      -0.113493
 4216 Fit      -0.118550
 4217 Fit      -0.116566
 4218 Fit      -0.138225
 4219 Fit      -0.141589
 4220 Fit      -0.141742
 4221 Fit      -0.138411
 4222 Fit      -0.135523
 4223 Fit      -0.135396
 4224 Fit      -0.138135
 4225 Fit      -0.145765
 4226 Fit      -0.147425
 4227 Fit      -0.146091
 4228 Fit      -0.142619
 4229 Fit      -0.138675
 4230 Fit      -0.135418
 4231 Fit      -0.133360
 4232 Fit      -0.132606
 4233 Fit      -0.133153
 4234 Fit      -0.135032
 4235 Fit      -0.138173
 4236 Fit      -0.142122
 4237 Fit      -0.150931
 4238 Fit      -0.153701
 4239 Fit      -0.153913
 4240 Fit      -0.151474
 4241 Fit      -0.147461
 4242 Fit      -0.143069
 4243 Fit      -0.139018
 4244 Fit      -0.135676
 4245 Fit      -0.133212
 4246 Fit      -0.131629
 4247 Fit      -0.130839
 4248 Fit      -0.130766
 4249 Fit      -0.131414
 4250 Fit      -0.132854
 4251 Fit      -0.135166
 4252 Fit      -0.138371
 4253 Fit      -0.142349
 4254 Fit      -0.146763
 4255 Fit      -0.157302
 4256 Fit      -0.158174
 4257 Fit      -0.153242
 4258 Fit      -0.148217
 4259 Fit      -0.143574
 4260 Fit      -0.139484
 4261 Fit      -0.136060
 4262 Fit      -0.133392
 4263 Fit      -0.131482
 4264 Fit      -0.130240
 4265 Fit      -0.129543
 4266 Fit      -0.129299
 4267 Fit      -0.129479
 4268 Fit      -0.130113
 4269 Fit      -0.131276
 4270 Fit      -0.133057
 4271 Fit      -0.135537
 4272 Fit      -0.138759
 4273 Fit      -0.142703
 4274 Fit      -0.147274
 4275 Fit      -0.152278
 4276 Fit      -0.158962
 4277 Fit      -0.152980
 4278 Fit      -0.147694
 4279 Fit      -0.143000
 4280 Fit      -0.138876
 4281 Fit      -0.135425
 4282 Fit      -0.132744
 4283 Fit      -0.130825
 4284 Fit      -0.129557
 4285 Fit      -0.128789
 4286 Fit      -0.128392
 4287 Fit      -0.128289
 4288 Fit      -0.128463
 4289 Fit      -0.128948
 4290 Fit      -0.129810
 4291 Fit      -0.131134
 4292 Fit      -0.133011
 4293 Fit      -0.135528
 4294 Fit      -0.138748
 4295 Fit      -0.142698
 4296 Fit      -0.147355
 4297 Fit      -0.152671
 4298 Fit      -0.158623
 4299 Fit      -0.131246
 4300 Fit      -0.129581
 4301 Fit      -0.128558
 4302 Fit      -0.127981
 4303 Fit      -0.127698
 4304 Fit      -0.127620
 4305 Fit      -0.127722
 4306 Fit      -0.128026
 4307 Fit      -0.128588
 4308 Fit      -0.129486
 4309 Fit      -0.130810
 4310 Fit      -0.132656
 4311 Fit      -0.135120
 4312 Fit      -0.138294
 4313 Fit      -0.142244
 4314 Fit      -0.146989
 4315 Fit      -0.152488
 4316 Fit      -0.127766
 4317 Fit      -0.127413
 4318 Fit      -0.127277
 4319 Fit      -0.127264
 4320 Fit      -0.127346
 4321 Fit      -0.127541
 4322 Fit      -0.127897
 4323 Fit      -0.128483
 4324 Fit      -0.129379
 4325 Fit      -0.130675
 4326 Fit      -0.132468
 4327 Fit      -0.134863
 4328 Fit      -0.137970
 4329 Fit      -0.141896
 4330 Fit      -0.146722
 4331 Fit      -0.127154
 4332 Fit      -0.127211
 4333 Fit      -0.127289
 4334 Fit      -0.127392
 4335 Fit      -0.127560
 4336 Fit      -0.127854
 4337 Fit      -0.128350
 4338 Fit      -0.129129
 4339 Fit      -0.130282
 4340 Fit      -0.131907
 4341 Fit      -0.134117
 4342 Fit      -0.137046
 4343 Fit      -0.140845
 4344 Fit      -0.127708
 4345 Fit      -0.127769
 4346 Fit      -0.127810
 4347 Fit      -0.127906
 4348 Fit      -0.128142
 4349 Fit      -0.128609
 4350 Fit      -0.129402
 4351 Fit      -0.130623
 4352 Fit      -0.132392
 4353 Fit      -0.134852
 4354 Fit      -0.138189
 4355 Fit      -0.128581
 4356 Fit      -0.128499
 4357 Fit      -0.128599
 4358 Fit      -0.128980
 4359 Fit      -0.129744
 4360 Fit      -0.131003
 4361 Fit      -0.132894
 4362 Fit      -0.135596
 4363 Fit      -0.139361
 4364 Fit      -0.129312
 4365 Fit      -0.129856
 4366 Fit      -0.130963
 4367 Fit      -0.132781
 4368 Fit      -0.135518
 4369 Fit      -0.139491
 4370 Fit      -0.115271
 4371 Fit      -0.115504
 4372 Fit      -0.116044
 4373 Fit      -0.116850
 4374 Fit      -0.117902
 4375 Fit      -0.119200
 4376 Fit      -0.120755
 4377 Fit      -0.114014
 4378 Fit      -0.113627
 4379 Fit      -0.113599
 4380 Fit      -0.113850
 4381 Fit      -0.114334
 4382 Fit      -0.115026
 4383 Fit      -0.115916
 4384 Fit      -0.117001
 4385 Fit      -0.118283
 4386 Fit      -0.119770
 4387 Fit      -0.121471
 4388 Fit      -0.113063
 4389 Fit      -0.112521
 4390 Fit      -0.112299
 4391 Fit      -0.112330
 4392 Fit      -0.112571
 4393 Fit      -0.112998
 4394 Fit      -0.113598
 4395 Fit      -0.114363
 4396 Fit      -0.115288
 4397 Fit      -0.116372
 4398 Fit      -0.117614
 4399 Fit      -0.119014
 4400 Fit      -0.112978
 4401 Fit      -0.112129
 4402 Fit      -0.111612
 4403 Fit      -0.111356
 4404 Fit      -0.111315
 4405 Fit      -0.111461
 4406 Fit      -0.111778
 4407 Fit      -0.112255
 4408 Fit      -0.112885
 4409 Fit      -0.113663
 4410 Fit      -0.114584
 4411 Fit      -0.115643
 4412 Fit      -0.116841
 4413 Fit      -0.118183
 4414 Fit      -0.114167
 4415 Fit      -0.112839
 4416 Fit      -0.111884
 4417 Fit      -0.111230
 4418 Fit      -0.110824
 4419 Fit      -0.110628
 4420 Fit      -0.110617
 4421 Fit      -0.110779
 4422 Fit      -0.111102
 4423 Fit      -0.111583
 4424 Fit      -0.112214
 4425 Fit      -0.112991
 4426 Fit      -0.113910
 4427 Fit      -0.114969
 4428 Fit      -0.116174
 4429 Fit      -0.117549
 4430 Fit      -0.114286
 4431 Fit      -0.112958
 4432 Fit      -0.111937
 4433 Fit      -0.111179
 4434 Fit      -0.110648
 4435 Fit      -0.110318
 4436 Fit      -0.110169
 4437 Fit      -0.110192
 4438 Fit      -0.110381
 4439 Fit      -0.110730
 4440 Fit      -0.111237
 4441 Fit      -0.111896
 4442 Fit      -0.112706
 4443 Fit      -0.113666
 4444 Fit      -0.114783
 4445 Fit      -0.116082
 4446 Fit      -0.117613
 4447 Fit      -0.113715
 4448 Fit      -0.112516
 4449 Fit      -0.111581
 4450 Fit      -0.110880
 4451 Fit      -0.110390
 4452 Fit      -0.110098
 4453 Fit      -0.109994
 4454 Fit      -0.110074
 4455 Fit      -0.110336
 4456 Fit      -0.110779
 4457 Fit      -0.111399
 4458 Fit      -0.112197
 4459 Fit      -0.113176
 4460 Fit      -0.114351
 4461 Fit      -0.115759
 4462 Fit      -0.117475
 4463 Fit      -0.119635
 4464 Fit      -0.114489
 4465 Fit      -0.113112
 4466 Fit      -0.112033
 4467 Fit      -0.111212
 4468 Fit      -0.110628
 4469 Fit      -0.110269
 4470 Fit      -0.110128
 4471 Fit      -0.110204
 4472 Fit      -0.110499
 4473 Fit      -0.111013
 4474 Fit      -0.111748
 4475 Fit      -0.112710
 4476 Fit      -0.113918
 4477 Fit      -0.115417
 4478 Fit      -0.117294
 4479 Fit      -0.119711
 4480 Fit      -0.115871
 4481 Fit      -0.114171
 4482 Fit      -0.112867
 4483 Fit      -0.111883
 4484 Fit      -0.111183
 4485 Fit      -0.110749
 4486 Fit      -0.110578
 4487 Fit      -0.110671
 4488 Fit      -0.111031
 4489 Fit      -0.111663
 4490 Fit      -0.112577
 4491 Fit      -0.113795
 4492 Fit      -0.115366
 4493 Fit      -0.117386
 4494 Fit      -0.120022
 4495 Fit      -0.123531
 4496 Fit      -0.117292
 4497 Fit      -0.115191
 4498 Fit      -0.113646
 4499 Fit      -0.112537
 4500 Fit      -0.111804
 4501 Fit      -0.111426
 4502 Fit      -0.111401
 4503 Fit      -0.111734
 4504 Fit      -0.112435
 4505 Fit      -0.113525
 4506 Fit      -0.115047
 4507 Fit      -0.117086
 4508 Fit      -0.119790
 4509 Fit      -0.123363
 4510 Fit      -0.121882
 4511 Fit      -0.118423
 4512 Fit      -0.115927
 4513 Fit      -0.114203
 4514 Fit      -0.113112
 4515 Fit      -0.112590
 4516 Fit      -0.112625
 4517 Fit      -0.113228
 4518 Fit      -0.114427
 4519 Fit      -0.116281
 4520 Fit      -0.118892
 4521 Fit      -0.122375
 4522 Fit      -0.126666
 4523 Fit      -0.123562
 4524 Fit      -0.119787
 4525 Fit      -0.116839
 4526 Fit      -0.114983
 4527 Fit      -0.114174
 4528 Fit      -0.114389
 4529 Fit      -0.115645
 4530 Fit      -0.117969
 4531 Fit      -0.121289
 4532 Fit      -0.125008
 4533 Fit      -0.122599
 4534 Fit      -0.121124
 4535 Fit      -0.117876
 4536 Fit      -0.116262
 4537 Fit      -0.117168
 4538 Fit      -0.120147
 4539 Fit      -0.118994
 -----------------------------------------------------------------
 Leave Link  602 at Tue Apr 29 14:16:15 2025, MaxMem=   104857600 cpu:               0.1 elap:               0.1
 (Enter /Applications/g16/l9999.exe)

 Test job not archived.
 1\1\GINC-MAC-STUDIO\SP\RHF\6-31G(d)\F2N1O4S2(1-)\ROOT\29-Apr-2025\0\\#
 P hf/6-31g(d) pop(mk) IOP(6/33=2, 6/42=6)\\Gaussian input prepared by 
 ASE\\-1,1\S,0,7.209,124.813,808.544\F,0,7.41,123.597,807.526\O,0,5.972
 ,124.457,809.068\O,0,8.186,124.908,809.353\N,0,7.168,125.964,807.596\S
 ,0,6.009,126.297,806.717\F,0,4.994,126.917,807.786\O,0,5.259,125.197,8
 06.317\O,0,6.325,127.149,805.828\\Version=Apple M1-G16RevC.02\State=1-
 A\HF=-1347.606958\RMSD=2.084e-09\Dipole=0.4761554,0.3509797,-0.0330964
 \Quadrupole=0.2749625,1.2565943,-1.5315569,-0.7665199,-2.7479598,3.615
 25\PG=C01 [X(F2N1O4S2)]\\@


0EVERYBODY IS IGNORANT, ONLY ON DIFFERENT SUBJECTS.
0          WILL ROGERS
 Job cpu time:       0 days  0 hours  0 minutes  1.5 seconds.
 Elapsed time:       0 days  0 hours  0 minutes  1.5 seconds.
 File lengths (MBytes):  RWF=     10 Int=      0 D2E=      0 Chk=      2 Scr=      1
 Normal termination of Gaussian 16 at Tue Apr 29 14:16:15 2025.
