9

S       7.209000000000000    124.813000000000002    808.543999999999983
F       7.410000000000000    123.596999999999994    807.525999999999954
O       5.972000000000000    124.456999999999994    809.067999999999984
O       8.186000000000000    124.908000000000001    809.352999999999952
N       7.168000000000000    125.963999999999999    807.596000000000004
S       6.009000000000000    126.296999999999997    806.716999999999985
F       4.994000000000000    126.917000000000002    807.785999999999945
O       5.259000000000000    125.197000000000003    806.317000000000007
O       6.325000000000000    127.149000000000001    805.827999999999975
