10

N       7.558669000000000      6.866195000000000      3.896484000000000
C       8.159433999999999      7.466153000000000      3.121850000000000
C       8.934498000000000      8.240205000000000      2.157047000000000
C       9.899183000000001      9.207984000000000      2.869876000000000
C      10.674246000000000      9.982222000000000      1.905175000000000
N      11.275134000000000     10.582304000000001      1.130726000000000
H       9.342530999999999      9.898025000000001      3.508031000000000
H      10.588758000000000      8.653813000000000      3.510682000000000
H       8.244991000000001      8.794368000000000      1.516158000000000
H       9.491172000000001      7.550116000000000      1.518973000000000
