 Entering Gaussian System, Link 0=g16
 Initial command:
 /home/appl/Gaussian/g16/l1.exe "/scr/Gau-148763.inp" -scrdir="/scr/"
 Entering Link 1 = /home/appl/Gaussian/g16/l1.exe PID=    148765.
  
 Copyright (c) 1988-2019, Gaussian, Inc.  All Rights Reserved.
  
 This is part of the Gaussian(R) 16 program.  It is based on
 the Gaussian(R) 09 system (copyright 2009, Gaussian, Inc.),
 the Gaussian(R) 03 system (copyright 2003, Gaussian, Inc.),
 the Gaussian(R) 98 system (copyright 1998, Gaussian, Inc.),
 the Gaussian(R) 94 system (copyright 1995, Gaussian, Inc.),
 the Gaussian 92(TM) system (copyright 1992, Gaussian, Inc.),
 the Gaussian 90(TM) system (copyright 1990, Gaussian, Inc.),
 the Gaussian 88(TM) system (copyright 1988, Gaussian, Inc.),
 the Gaussian 86(TM) system (copyright 1986, Carnegie Mellon
 University), and the Gaussian 82(TM) system (copyright 1983,
 Carnegie Mellon University). Gaussian is a federally registered
 trademark of Gaussian, Inc.
  
 This software contains proprietary and confidential information,
 including trade secrets, belonging to Gaussian, Inc.
  
 This software is provided under written license and may be
 used, copied, transmitted, or stored only in accord with that
 written license.
  
 The following legend is applicable only to US Government
 contracts under FAR:
  
                    RESTRICTED RIGHTS LEGEND
  
 Use, reproduction and disclosure by the US Government is
 subject to restrictions as set forth in subparagraphs (a)
 and (c) of the Commercial Computer Software - Restricted
 Rights clause in FAR 52.227-19.
  
 Gaussian, Inc.
 340 Quinnipiac St., Bldg. 40, Wallingford CT 06492
  
  
 ---------------------------------------------------------------
 Warning -- This program may not be used in any manner that
 competes with the business of Gaussian, Inc. or will provide
 assistance to any competitor of Gaussian, Inc.  The licensee
 of this program is prohibited from giving any competitor of
 Gaussian, Inc. access to this program.  By using this program,
 the user acknowledges that Gaussian, Inc. is engaged in the
 business of creating and licensing software in the field of
 computational chemistry and represents and warrants to the
 licensee that it is not a competitor of Gaussian, Inc. and that
 it will not use this program in any manner prohibited above.
 ---------------------------------------------------------------
  

 Cite this work as:
 Gaussian 16, Revision C.01,
 M. J. Frisch, G. W. Trucks, H. B. Schlegel, G. E. Scuseria, 
 M. A. Robb, J. R. Cheeseman, G. Scalmani, V. Barone, 
 G. A. Petersson, H. Nakatsuji, X. Li, M. Caricato, A. V. Marenich, 
 J. Bloino, B. G. Janesko, R. Gomperts, B. Mennucci, H. P. Hratchian, 
 J. V. Ortiz, A. F. Izmaylov, J. L. Sonnenberg, D. Williams-Young, 
 F. Ding, F. Lipparini, F. Egidi, J. Goings, B. Peng, A. Petrone, 
 T. Henderson, D. Ranasinghe, V. G. Zakrzewski, J. Gao, N. Rega, 
 G. Zheng, W. Liang, M. Hada, M. Ehara, K. Toyota, R. Fukuda, 
 J. Hasegawa, M. Ishida, T. Nakajima, Y. Honda, O. Kitao, H. Nakai, 
 T. Vreven, K. Throssell, J. A. Montgomery, Jr., J. E. Peralta, 
 F. Ogliaro, M. J. Bearpark, J. J. Heyd, E. N. Brothers, K. N. Kudin, 
 V. N. Staroverov, T. A. Keith, R. Kobayashi, J. Normand, 
 K. Raghavachari, A. P. Rendell, J. C. Burant, S. S. Iyengar, 
 J. Tomasi, M. Cossi, J. M. Millam, M. Klene, C. Adamo, R. Cammi, 
 J. W. Ochterski, R. L. Martin, K. Morokuma, O. Farkas, 
 J. B. Foresman, and D. J. Fox, Gaussian, Inc., Wallingford CT, 2019.
 
 ******************************************
 Gaussian 16:  ES64L-G16RevC.01  3-Jul-2019
                14-Sep-2024 
 ******************************************
 %mem=32GB
 %nprocshared=40
 Will use up to   40 processors via shared memory.
 -----------------------------------------
 #P wb97xd/6-311++g(d,p) opt(maxcycle=256)
 -----------------------------------------
 1/6=256,18=20,19=15,26=3,38=1/1,3;
 2/9=110,12=2,17=6,18=5,40=1/2;
 3/5=4,6=6,7=1111,11=2,25=1,30=1,71=1,74=-58/1,2,3;
 4//1;
 5/5=2,38=5/2;
 6/7=2,8=2,9=2,10=2,28=1/1;
 7//1,2,3,16;
 1/6=256,18=20,19=15,26=3/3(2);
 2/9=110/2;
 99//99;
 2/9=110/2;
 3/5=4,6=6,7=1111,11=2,25=1,30=1,71=1,74=-58/1,2,3;
 4/5=5,16=3,69=1/1;
 5/5=2,38=5/2;
 7//1,2,3,16;
 1/6=256,18=20,19=15,26=3/3(-5);
 2/9=110/2;
 6/7=2,8=2,9=2,10=2,19=2,28=1/1;
 99/9=1/99;
 Leave Link    1 at Sat Sep 14 17:51:20 2024, MaxMem=  4294967296 cpu:               3.0 elap:               0.3
 (Enter /home/appl/Gaussian/g16/l101.exe)
 ------------------------------
 Gaussian input prepared by ASE
 ------------------------------
 Symbolic Z-matrix:
 Charge = -1 Multiplicity = 1
 S                     0.96147   6.94558   5.14755 
 F                     0.75104   7.4499    3.6445 
 O                     0.04838   7.77644   5.78596 
 O                     2.18055   7.03024   5.49943 
 N                     0.52125   5.52575   5.0269 
 S                    -0.96147   5.14842   5.14755 
 F                    -1.4029    5.29596   6.4093 
 O                    -0.98324   3.86645   4.55437 
 O                    -1.72944   5.99862   4.26784 
 
 ITRead=  0  0  0  0  0  0  0  0  0
 MicOpt= -1 -1 -1 -1 -1 -1 -1 -1 -1
 NAtoms=      9 NQM=        9 NQMF=       0 NMMI=      0 NMMIF=      0
                NMic=       0 NMicF=      0.
                    Isotopes and Nuclear Properties:
 (Nuclear quadrupole moments (NQMom) in fm**2, nuclear magnetic moments (NMagM)
  in nuclear magnetons)

  Atom         1           2           3           4           5           6           7           8           9
 IAtWgt=          32          19          16          16          14          32          19          16          16
 AtmWgt=  31.9720718  18.9984032  15.9949146  15.9949146  14.0030740  31.9720718  18.9984032  15.9949146  15.9949146
 NucSpn=           0           1           0           0           2           0           1           0           0
 AtZEff=  -0.0000000  -0.0000000  -0.0000000  -0.0000000  -0.0000000  -0.0000000  -0.0000000  -0.0000000  -0.0000000
 NQMom=    0.0000000   0.0000000   0.0000000   0.0000000   2.0440000   0.0000000   0.0000000   0.0000000   0.0000000
 NMagM=    0.0000000   2.6288670   0.0000000   0.0000000   0.4037610   0.0000000   2.6288670   0.0000000   0.0000000
 AtZNuc=  16.0000000   9.0000000   8.0000000   8.0000000   7.0000000  16.0000000   9.0000000   8.0000000   8.0000000
 Leave Link  101 at Sat Sep 14 17:51:23 2024, MaxMem=  4294967296 cpu:              35.5 elap:               2.0
 (Enter /home/appl/Gaussian/g16/l103.exe)

 GradGradGradGradGradGradGradGradGradGradGradGradGradGradGradGradGradGrad
 Berny optimization.
 Initialization pass.
                           ----------------------------
                           !    Initial Parameters    !
                           ! (Angstroms and Degrees)  !
 --------------------------                            --------------------------
 ! Name  Definition              Value          Derivative Info.                !
 --------------------------------------------------------------------------------
 ! R1    R(1,2)                  1.5993         estimate D2E/DX2                !
 ! R2    R(1,3)                  1.3898         estimate D2E/DX2                !
 ! R3    R(1,4)                  1.2717         estimate D2E/DX2                !
 ! R4    R(1,5)                  1.4914         estimate D2E/DX2                !
 ! R5    R(5,6)                  1.5347         estimate D2E/DX2                !
 ! R6    R(6,7)                  1.3449         estimate D2E/DX2                !
 ! R7    R(6,8)                  1.4127         estimate D2E/DX2                !
 ! R8    R(6,9)                  1.4445         estimate D2E/DX2                !
 ! A1    A(2,1,3)               99.0178         estimate D2E/DX2                !
 ! A2    A(2,1,4)              111.42           estimate D2E/DX2                !
 ! A3    A(2,1,5)              100.6811         estimate D2E/DX2                !
 ! A4    A(3,1,4)              117.5749         estimate D2E/DX2                !
 ! A5    A(3,1,5)              114.353          estimate D2E/DX2                !
 ! A6    A(4,1,5)              111.6372         estimate D2E/DX2                !
 ! A7    A(1,5,6)              120.8555         estimate D2E/DX2                !
 ! A8    A(5,6,7)              111.3393         estimate D2E/DX2                !
 ! A9    A(5,6,8)              101.8288         estimate D2E/DX2                !
 ! A10   A(5,6,9)              108.7267         estimate D2E/DX2                !
 ! A11   A(7,6,8)              119.2378         estimate D2E/DX2                !
 ! A12   A(7,6,9)              109.4081         estimate D2E/DX2                !
 ! A13   A(8,6,9)              105.6767         estimate D2E/DX2                !
 ! D1    D(2,1,5,6)            -85.1877         estimate D2E/DX2                !
 ! D2    D(3,1,5,6)             19.9093         estimate D2E/DX2                !
 ! D3    D(4,1,5,6)            156.477          estimate D2E/DX2                !
 ! D4    D(1,5,6,7)            -70.2588         estimate D2E/DX2                !
 ! D5    D(1,5,6,8)            161.6013         estimate D2E/DX2                !
 ! D6    D(1,5,6,9)             50.3474         estimate D2E/DX2                !
 --------------------------------------------------------------------------------
 Trust Radius=3.00D-01 FncErr=1.00D-07 GrdErr=1.00D-06 EigMax=2.50D+02 EigMin=1.00D-04
 Number of steps in this run=    100 maximum allowed number of steps=    100.
 GradGradGradGradGradGradGradGradGradGradGradGradGradGradGradGradGradGrad

 Leave Link  103 at Sat Sep 14 17:51:23 2024, MaxMem=  4294967296 cpu:               1.2 elap:               0.1
 (Enter /home/appl/Gaussian/g16/l202.exe)
                          Input orientation:                          
 ---------------------------------------------------------------------
 Center     Atomic      Atomic             Coordinates (Angstroms)
 Number     Number       Type             X           Y           Z
 ---------------------------------------------------------------------
      1         16           0        0.961473    6.945584    5.147546
      2          9           0        0.751037    7.449904    3.644503
      3          8           0        0.048376    7.776442    5.785962
      4          8           0        2.180548    7.030242    5.499429
      5          7           0        0.521251    5.525749    5.026900
      6         16           0       -0.961473    5.148416    5.147546
      7          9           0       -1.402904    5.295963    6.409298
      8          8           0       -0.983242    3.866452    4.554371
      9          8           0       -1.729442    5.998624    4.267838
 ---------------------------------------------------------------------
                    Distance matrix (angstroms):
                    1          2          3          4          5
     1  S    0.000000
     2  F    1.599300   0.000000
     3  O    1.389837   2.277325   0.000000
     4  O    1.271665   2.379153   2.277076   0.000000
     5  N    1.491403   2.380378   2.421860   2.289116   0.000000
     6  S    2.632021   3.238623   2.886848   3.679319   1.534734
     7  F    3.146990   4.113760   2.940670   4.083714   2.380378
     8  O    3.689828   4.083714   4.227183   4.572994   2.289116
     9  O    2.985237   2.940670   2.937001   4.227183   2.421860
                    6          7          8          9
     6  S    0.000000
     7  F    1.344860   0.000000
     8  O    1.412714   2.379153   0.000000
     9  O    1.444478   2.277325   2.277076   0.000000
 Stoichiometry    F2NO4S2(1-)
 Framework group  C1[X(F2NO4S2)]
 Deg. of freedom    21
 Full point group                 C1      NOp   1
 Largest Abelian subgroup         C1      NOp   1
 Largest concise Abelian subgroup C1      NOp   1
                         Standard orientation:                         
 ---------------------------------------------------------------------
 Center     Atomic      Atomic             Coordinates (Angstroms)
 Number     Number       Type             X           Y           Z
 ---------------------------------------------------------------------
      1         16           0        1.313061   -0.133995   -0.117186
      2          9           0        1.570195    1.391894    0.286924
      3          8           0        1.217320   -0.683342    1.155880
      4          8           0        2.230519   -0.573234   -0.880386
      5          7           0        0.011165   -0.014266   -0.834832
      6         16           0       -1.316524   -0.033416   -0.065235
      7          9           0       -1.575364   -1.255164    0.433747
      8          8           0       -2.205676    0.529604   -1.007668
      9          8           0       -1.239192    0.920455    1.016738
 ---------------------------------------------------------------------
 Rotational constants (GHZ):           2.8065705           1.0266565           0.9942472
 Leave Link  202 at Sat Sep 14 17:51:24 2024, MaxMem=  4294967296 cpu:               3.7 elap:               0.2
 (Enter /home/appl/Gaussian/g16/l301.exe)
 Standard basis: 6-311++G(d,p) (5D, 7F)
 Ernie: Thresh=  0.10000D-02 Tol=  0.10000D-05 Strict=F.
 There are   223 symmetry adapted cartesian basis functions of A   symmetry.
 There are   214 symmetry adapted basis functions of A   symmetry.
   214 basis functions,   352 primitive gaussians,   223 cartesian basis functions
    45 alpha electrons       45 beta electrons
       nuclear repulsion energy       825.2002475964 Hartrees.
 IExCor= 4639 DFT=T Ex+Corr=wB97XD ExCW=0 ScaHFX=  1.000000
 ScaDFX=  1.000000  1.000000  1.000000  1.000000 ScalE2=  1.000000  1.000000
 IRadAn=      5 IRanWt=     -1 IRanGd=            0 ICorTp=0 IEmpDi=121
 HFx  wShort=  0.000000 wLong=  0.200000 cFull=  0.222036 cShort=  0.000000 cLong=  0.777964
 DFx  wShort=  0.000000 wLong=  0.200000 cFull=  0.000000 cShort=  0.000000 cLong=  1.000000
 NAtoms=    9 NActive=    9 NUniq=    9 SFac= 1.00D+00 NAtFMM=   60 NAOKFM=F Big=F
 Integral buffers will be    131072 words long.
 Raffenetti 2 integral format.
 Two-electron integral symmetry is turned on.
 R6Disp:  Grimme-D2 Dispersion energy=       -0.0026032917 Hartrees.
 Nuclear repulsion after empirical dispersion term =      825.1976443047 Hartrees.
 Leave Link  301 at Sat Sep 14 17:51:24 2024, MaxMem=  4294967296 cpu:               4.1 elap:               0.3
 (Enter /home/appl/Gaussian/g16/l302.exe)
 NPDir=0 NMtPBC=     1 NCelOv=     1 NCel=       1 NClECP=     1 NCelD=      1
         NCelK=      1 NCelE2=     1 NClLst=     1 CellRange=     0.0.
 One-electron integrals computed using PRISM.
 One-electron integral symmetry used in STVInt
 NBasis=   214 RedAO= T EigKep=  1.60D-04  NBF=   214
 NBsUse=   214 1.00D-06 EigRej= -1.00D+00 NBFU=   214
 Precomputing XC quadrature grid using
 IXCGrd= 4 IRadAn=           5 IRanWt=          -1 IRanGd=           0 AccXCQ= 0.00D+00.
 Generated NRdTot=       0 NPtTot=           0 NUsed=           0 NTot=          32
 NSgBfM=   223   223   223   223   223 MxSgAt=     9 MxSgA2=     9.
 Leave Link  302 at Sat Sep 14 17:51:32 2024, MaxMem=  4294967296 cpu:             130.7 elap:               7.1
 (Enter /home/appl/Gaussian/g16/l303.exe)
 DipDrv:  MaxL=1.
 Leave Link  303 at Sat Sep 14 17:51:34 2024, MaxMem=  4294967296 cpu:              11.0 elap:               0.7
 (Enter /home/appl/Gaussian/g16/l401.exe)
 ExpMin= 4.05D-02 ExpMax= 9.34D+04 ExpMxC= 3.17D+03 IAcc=3 IRadAn=         5 AccDes= 0.00D+00
 Harris functional with IExCor= 4639 and IRadAn=       5 diagonalized for initial guess.
 HarFok:  IExCor= 4639 AccDes= 0.00D+00 IRadAn=         5 IDoV= 1 UseB2=F ITyADJ=14
 ICtDFT=  3500011 ScaDFX=  1.000000  1.000000  1.000000  1.000000
 FoFCou: FMM=F IPFlag=           0 FMFlag=      100000 FMFlg1=           0
         NFxFlg=           0 DoJE=T BraDBF=F KetDBF=T FulRan=T
         wScrn=  0.000000 ICntrl=       500 IOpCl=  0 I1Cent=   200000004 NGrid=           0
         NMat0=    1 NMatS0=      1 NMatT0=    0 NMatD0=    1 NMtDS0=    0 NMtDT0=    0
 Petite list used in FoFCou.
 Harris En= -1319.60467246621    
 JPrj=0 DoOrth=F DoCkMO=F.
 Leave Link  401 at Sat Sep 14 17:51:39 2024, MaxMem=  4294967296 cpu:              81.5 elap:               5.2
 (Enter /home/appl/Gaussian/g16/l502.exe)
 Keep R1 ints in memory in canonical form, NReq=576265202.
 FoFCou: FMM=F IPFlag=           0 FMFlag=           0 FMFlg1=           0
         NFxFlg=           0 DoJE=F BraDBF=F KetDBF=F FulRan=T
         wScrn=  0.000000 ICntrl=       600 IOpCl=  0 I1Cent=           0 NGrid=           0
         NMat0=    1 NMatS0=  23005 NMatT0=    0 NMatD0=    1 NMtDS0=    0 NMtDT0=    0
 Symmetry not used in FoFCou.
 Two-electron integral symmetry not used.
 Closed shell SCF:
 Using DIIS extrapolation, IDIIS=  1040.
 NGot=  4294967296 LenX=  3765603616 LenY=  3765553446
 Requested convergence on RMS density matrix=1.00D-08 within 128 cycles.
 Requested convergence on MAX density matrix=1.00D-06.
 Requested convergence on             energy=1.00D-06.
 No special actions if energy rises.

 Cycle   1  Pass 1  IDiag  1:
 E= -1350.94118241176    
 DIIS: error= 1.08D-01 at cycle   1 NSaved=   1.
 NSaved= 1 IEnMin= 1 EnMin= -1350.94118241176     IErMin= 1 ErrMin= 1.08D-01
 ErrMax= 1.08D-01  0.00D+00 EMaxC= 1.00D-01 BMatC= 3.82D+00 BMatP= 3.82D+00
 IDIUse=3 WtCom= 0.00D+00 WtEn= 1.00D+00
 Coeff-Com:  0.100D+01
 Coeff-En:   0.100D+01
 Coeff:      0.100D+01
 Gap=     0.472 Goal=   None    Shift=    0.000
 GapD=    0.472 DampG=2.000 DampE=0.250 DampFc=0.5000 IDamp=-1.
 Damping current iteration by 5.00D-01
 RMSDP=1.20D-02 MaxDP=3.93D-01              OVMax= 1.92D-01

 Cycle   2  Pass 1  IDiag  1:
 E= -1351.21693355600     Delta-E=       -0.275751144242 Rises=F Damp=T
 DIIS: error= 4.62D-02 at cycle   2 NSaved=   2.
 NSaved= 2 IEnMin= 2 EnMin= -1351.21693355600     IErMin= 2 ErrMin= 4.62D-02
 ErrMax= 4.62D-02  0.00D+00 EMaxC= 1.00D-01 BMatC= 5.73D-01 BMatP= 3.82D+00
 IDIUse=3 WtCom= 5.38D-01 WtEn= 4.62D-01
 Coeff-Com: -0.389D+00 0.139D+01
 Coeff-En:   0.000D+00 0.100D+01
 Coeff:     -0.209D+00 0.121D+01
 Gap=     0.531 Goal=   None    Shift=    0.000
 RMSDP=4.99D-03 MaxDP=2.98D-01 DE=-2.76D-01 OVMax= 1.29D-01

 Cycle   3  Pass 1  IDiag  1:
 E= -1351.45228802036     Delta-E=       -0.235354464363 Rises=F Damp=F
 DIIS: error= 1.80D-02 at cycle   3 NSaved=   3.
 NSaved= 3 IEnMin= 3 EnMin= -1351.45228802036     IErMin= 3 ErrMin= 1.80D-02
 ErrMax= 1.80D-02  0.00D+00 EMaxC= 1.00D-01 BMatC= 1.17D-01 BMatP= 5.73D-01
 IDIUse=3 WtCom= 8.20D-01 WtEn= 1.80D-01
 Coeff-Com: -0.203D+00 0.553D+00 0.650D+00
 Coeff-En:   0.000D+00 0.000D+00 0.100D+01
 Coeff:     -0.167D+00 0.454D+00 0.713D+00
 Gap=     0.396 Goal=   None    Shift=    0.000
 RMSDP=3.33D-03 MaxDP=9.79D-02 DE=-2.35D-01 OVMax= 4.66D-02

 Cycle   4  Pass 1  IDiag  1:
 E= -1351.51128256152     Delta-E=       -0.058994541154 Rises=F Damp=F
 DIIS: error= 6.81D-03 at cycle   4 NSaved=   4.
 NSaved= 4 IEnMin= 4 EnMin= -1351.51128256152     IErMin= 4 ErrMin= 6.81D-03
 ErrMax= 6.81D-03  0.00D+00 EMaxC= 1.00D-01 BMatC= 1.78D-02 BMatP= 1.17D-01
 IDIUse=3 WtCom= 9.32D-01 WtEn= 6.81D-02
 Coeff-Com: -0.391D-01 0.949D-01 0.323D+00 0.621D+00
 Coeff-En:   0.000D+00 0.000D+00 0.101D+00 0.899D+00
 Coeff:     -0.365D-01 0.885D-01 0.308D+00 0.640D+00
 Gap=     0.389 Goal=   None    Shift=    0.000
 RMSDP=1.05D-03 MaxDP=2.91D-02 DE=-5.90D-02 OVMax= 1.78D-02

 Cycle   5  Pass 1  IDiag  1:
 E= -1351.52166184949     Delta-E=       -0.010379287976 Rises=F Damp=F
 DIIS: error= 9.27D-04 at cycle   5 NSaved=   5.
 NSaved= 5 IEnMin= 5 EnMin= -1351.52166184949     IErMin= 5 ErrMin= 9.27D-04
 ErrMax= 9.27D-04  0.00D+00 EMaxC= 1.00D-01 BMatC= 5.95D-04 BMatP= 1.78D-02
 IDIUse=3 WtCom= 9.91D-01 WtEn= 9.27D-03
 Coeff-Com: -0.785D-02 0.168D-01 0.109D+00 0.299D+00 0.583D+00
 Coeff-En:   0.000D+00 0.000D+00 0.000D+00 0.000D+00 0.100D+01
 Coeff:     -0.778D-02 0.166D-01 0.108D+00 0.296D+00 0.587D+00
 Gap=     0.384 Goal=   None    Shift=    0.000
 RMSDP=1.89D-04 MaxDP=4.86D-03 DE=-1.04D-02 OVMax= 4.15D-03

 Cycle   6  Pass 1  IDiag  1:
 E= -1351.52205332575     Delta-E=       -0.000391476256 Rises=F Damp=F
 DIIS: error= 2.03D-04 at cycle   6 NSaved=   6.
 NSaved= 6 IEnMin= 6 EnMin= -1351.52205332575     IErMin= 6 ErrMin= 2.03D-04
 ErrMax= 2.03D-04  0.00D+00 EMaxC= 1.00D-01 BMatC= 2.45D-05 BMatP= 5.95D-04
 IDIUse=3 WtCom= 9.98D-01 WtEn= 2.03D-03
 Coeff-Com:  0.164D-03-0.920D-03 0.136D-01 0.601D-01 0.225D+00 0.702D+00
 Coeff-En:   0.000D+00 0.000D+00 0.000D+00 0.000D+00 0.000D+00 0.100D+01
 Coeff:      0.164D-03-0.918D-03 0.136D-01 0.600D-01 0.225D+00 0.703D+00
 Gap=     0.382 Goal=   None    Shift=    0.000
 RMSDP=5.47D-05 MaxDP=1.57D-03 DE=-3.91D-04 OVMax= 8.30D-04

 Cycle   7  Pass 1  IDiag  1:
 E= -1351.52207184992     Delta-E=       -0.000018524168 Rises=F Damp=F
 DIIS: error= 8.38D-05 at cycle   7 NSaved=   7.
 NSaved= 7 IEnMin= 7 EnMin= -1351.52207184992     IErMin= 7 ErrMin= 8.38D-05
 ErrMax= 8.38D-05  0.00D+00 EMaxC= 1.00D-01 BMatC= 2.26D-06 BMatP= 2.45D-05
 IDIUse=1 WtCom= 1.00D+00 WtEn= 0.00D+00
 Coeff-Com:  0.986D-03-0.230D-02-0.913D-02-0.166D-01 0.600D-02 0.237D+00
 Coeff-Com:  0.784D+00
 Coeff:      0.986D-03-0.230D-02-0.913D-02-0.166D-01 0.600D-02 0.237D+00
 Coeff:      0.784D+00
 Gap=     0.382 Goal=   None    Shift=    0.000
 RMSDP=1.61D-05 MaxDP=3.94D-04 DE=-1.85D-05 OVMax= 3.25D-04

 Cycle   8  Pass 1  IDiag  1:
 E= -1351.52207344150     Delta-E=       -0.000001591584 Rises=F Damp=F
 DIIS: error= 3.57D-05 at cycle   8 NSaved=   8.
 NSaved= 8 IEnMin= 8 EnMin= -1351.52207344150     IErMin= 8 ErrMin= 3.57D-05
 ErrMax= 3.57D-05  0.00D+00 EMaxC= 1.00D-01 BMatC= 3.65D-07 BMatP= 2.26D-06
 IDIUse=1 WtCom= 1.00D+00 WtEn= 0.00D+00
 Coeff-Com:  0.410D-03-0.909D-03-0.545D-02-0.134D-01-0.180D-01 0.472D-01
 Coeff-Com:  0.367D+00 0.624D+00
 Coeff:      0.410D-03-0.909D-03-0.545D-02-0.134D-01-0.180D-01 0.472D-01
 Coeff:      0.367D+00 0.624D+00
 Gap=     0.382 Goal=   None    Shift=    0.000
 RMSDP=5.75D-06 MaxDP=2.12D-04 DE=-1.59D-06 OVMax= 9.01D-05

 Cycle   9  Pass 1  IDiag  1:
 E= -1351.52207368549     Delta-E=       -0.000000243984 Rises=F Damp=F
 DIIS: error= 3.63D-06 at cycle   9 NSaved=   9.
 NSaved= 9 IEnMin= 9 EnMin= -1351.52207368549     IErMin= 9 ErrMin= 3.63D-06
 ErrMax= 3.63D-06  0.00D+00 EMaxC= 1.00D-01 BMatC= 6.35D-09 BMatP= 3.65D-07
 IDIUse=1 WtCom= 1.00D+00 WtEn= 0.00D+00
 Coeff-Com: -0.151D-04 0.396D-04-0.413D-04-0.508D-03-0.187D-02-0.906D-02
 Coeff-Com: -0.714D-02 0.526D-01 0.966D+00
 Coeff:     -0.151D-04 0.396D-04-0.413D-04-0.508D-03-0.187D-02-0.906D-02
 Coeff:     -0.714D-02 0.526D-01 0.966D+00
 Gap=     0.382 Goal=   None    Shift=    0.000
 RMSDP=2.32D-06 MaxDP=1.07D-04 DE=-2.44D-07 OVMax= 4.07D-05

 Cycle  10  Pass 1  IDiag  1:
 E= -1351.52207369519     Delta-E=       -0.000000009705 Rises=F Damp=F
 DIIS: error= 2.88D-06 at cycle  10 NSaved=  10.
 NSaved=10 IEnMin=10 EnMin= -1351.52207369519     IErMin=10 ErrMin= 2.88D-06
 ErrMax= 2.88D-06  0.00D+00 EMaxC= 1.00D-01 BMatC= 3.32D-09 BMatP= 6.35D-09
 IDIUse=1 WtCom= 1.00D+00 WtEn= 0.00D+00
 Coeff-Com: -0.415D-04 0.945D-04 0.414D-03 0.799D-03 0.259D-03-0.972D-02
 Coeff-Com: -0.364D-01-0.278D-01 0.483D+00 0.590D+00
 Coeff:     -0.415D-04 0.945D-04 0.414D-03 0.799D-03 0.259D-03-0.972D-02
 Coeff:     -0.364D-01-0.278D-01 0.483D+00 0.590D+00
 Gap=     0.382 Goal=   None    Shift=    0.000
 RMSDP=6.77D-07 MaxDP=2.30D-05 DE=-9.70D-09 OVMax= 1.33D-05

 Cycle  11  Pass 1  IDiag  1:
 E= -1351.52207369770     Delta-E=       -0.000000002511 Rises=F Damp=F
 DIIS: error= 5.04D-07 at cycle  11 NSaved=  11.
 NSaved=11 IEnMin=11 EnMin= -1351.52207369770     IErMin=11 ErrMin= 5.04D-07
 ErrMax= 5.04D-07  0.00D+00 EMaxC= 1.00D-01 BMatC= 1.44D-10 BMatP= 3.32D-09
 IDIUse=1 WtCom= 1.00D+00 WtEn= 0.00D+00
 Coeff-Com: -0.901D-05 0.199D-04 0.117D-03 0.309D-03 0.360D-03-0.130D-02
 Coeff-Com: -0.928D-02-0.134D-01 0.359D-02 0.143D+00 0.876D+00
 Coeff:     -0.901D-05 0.199D-04 0.117D-03 0.309D-03 0.360D-03-0.130D-02
 Coeff:     -0.928D-02-0.134D-01 0.359D-02 0.143D+00 0.876D+00
 Gap=     0.382 Goal=   None    Shift=    0.000
 RMSDP=3.27D-07 MaxDP=1.40D-05 DE=-2.51D-09 OVMax= 6.65D-06

 Cycle  12  Pass 1  IDiag  1:
 E= -1351.52207369789     Delta-E=       -0.000000000192 Rises=F Damp=F
 DIIS: error= 1.88D-07 at cycle  12 NSaved=  12.
 NSaved=12 IEnMin=12 EnMin= -1351.52207369789     IErMin=12 ErrMin= 1.88D-07
 ErrMax= 1.88D-07  0.00D+00 EMaxC= 1.00D-01 BMatC= 2.94D-11 BMatP= 1.44D-10
 IDIUse=1 WtCom= 1.00D+00 WtEn= 0.00D+00
 Coeff-Com: -0.130D-06 0.218D-07 0.147D-04 0.708D-04 0.166D-03 0.431D-03
 Coeff-Com: -0.618D-03-0.342D-02-0.468D-01 0.576D-02 0.391D+00 0.653D+00
 Coeff:     -0.130D-06 0.218D-07 0.147D-04 0.708D-04 0.166D-03 0.431D-03
 Coeff:     -0.618D-03-0.342D-02-0.468D-01 0.576D-02 0.391D+00 0.653D+00
 Gap=     0.382 Goal=   None    Shift=    0.000
 RMSDP=8.39D-08 MaxDP=3.31D-06 DE=-1.92D-10 OVMax= 2.00D-06

 Cycle  13  Pass 1  IDiag  1:
 E= -1351.52207369791     Delta-E=       -0.000000000017 Rises=F Damp=F
 DIIS: error= 7.43D-08 at cycle  13 NSaved=  13.
 NSaved=13 IEnMin=13 EnMin= -1351.52207369791     IErMin=13 ErrMin= 7.43D-08
 ErrMax= 7.43D-08  0.00D+00 EMaxC= 1.00D-01 BMatC= 2.49D-12 BMatP= 2.94D-11
 IDIUse=1 WtCom= 1.00D+00 WtEn= 0.00D+00
 Coeff-Com:  0.115D-05-0.258D-05-0.112D-04-0.207D-04 0.213D-05 0.279D-03
 Coeff-Com:  0.101D-02 0.444D-03-0.155D-01-0.150D-01 0.229D-01 0.228D+00
 Coeff-Com:  0.778D+00
 Coeff:      0.115D-05-0.258D-05-0.112D-04-0.207D-04 0.213D-05 0.279D-03
 Coeff:      0.101D-02 0.444D-03-0.155D-01-0.150D-01 0.229D-01 0.228D+00
 Coeff:      0.778D+00
 Gap=     0.382 Goal=   None    Shift=    0.000
 RMSDP=3.28D-08 MaxDP=1.32D-06 DE=-1.73D-11 OVMax= 8.50D-07

 Cycle  14  Pass 1  IDiag  1:
 E= -1351.52207369792     Delta-E=       -0.000000000011 Rises=F Damp=F
 DIIS: error= 2.70D-08 at cycle  14 NSaved=  14.
 NSaved=14 IEnMin=14 EnMin= -1351.52207369792     IErMin=14 ErrMin= 2.70D-08
 ErrMax= 2.70D-08  0.00D+00 EMaxC= 1.00D-01 BMatC= 4.02D-13 BMatP= 2.49D-12
 IDIUse=1 WtCom= 1.00D+00 WtEn= 0.00D+00
 Coeff-Com:  0.466D-06-0.102D-05-0.584D-05-0.159D-04-0.145D-04 0.701D-04
 Coeff-Com:  0.490D-03 0.440D-03-0.108D-02-0.659D-02-0.345D-01 0.206D-01
 Coeff-Com:  0.325D+00 0.695D+00
 Coeff:      0.466D-06-0.102D-05-0.584D-05-0.159D-04-0.145D-04 0.701D-04
 Coeff:      0.490D-03 0.440D-03-0.108D-02-0.659D-02-0.345D-01 0.206D-01
 Coeff:      0.325D+00 0.695D+00
 Gap=     0.382 Goal=   None    Shift=    0.000
 RMSDP=1.08D-08 MaxDP=2.83D-07 DE=-1.09D-11 OVMax= 3.02D-07

 Cycle  15  Pass 1  IDiag  1:
 E= -1351.52207369793     Delta-E=       -0.000000000005 Rises=F Damp=F
 DIIS: error= 8.02D-09 at cycle  15 NSaved=  15.
 NSaved=15 IEnMin=15 EnMin= -1351.52207369793     IErMin=15 ErrMin= 8.02D-09
 ErrMax= 8.02D-09  0.00D+00 EMaxC= 1.00D-01 BMatC= 4.18D-14 BMatP= 4.02D-13
 IDIUse=1 WtCom= 1.00D+00 WtEn= 0.00D+00
 Coeff-Com: -0.245D-07 0.687D-07-0.234D-06-0.237D-05-0.510D-05-0.163D-04
 Coeff-Com:  0.283D-04 0.826D-04 0.214D-02-0.218D-03-0.177D-01-0.285D-01
 Coeff-Com:  0.915D-02 0.263D+00 0.772D+00
 Coeff:     -0.245D-07 0.687D-07-0.234D-06-0.237D-05-0.510D-05-0.163D-04
 Coeff:      0.283D-04 0.826D-04 0.214D-02-0.218D-03-0.177D-01-0.285D-01
 Coeff:      0.915D-02 0.263D+00 0.772D+00
 Gap=     0.382 Goal=   None    Shift=    0.000
 RMSDP=3.71D-09 MaxDP=1.02D-07 DE=-5.46D-12 OVMax= 1.31D-07

 SCF Done:  E(RwB97XD) =  -1351.52207370     A.U. after   15 cycles
            NFock= 15  Conv=0.37D-08     -V/T= 1.9998
 KE= 1.351834982270D+03 PE=-4.874715736274D+03 EE= 1.346161036002D+03
 Leave Link  502 at Sat Sep 14 17:53:27 2024, MaxMem=  4294967296 cpu:            1450.9 elap:             109.8
 (Enter /home/appl/Gaussian/g16/l601.exe)
 Copying SCF densities to generalized density rwf, IOpCl= 0 IROHF=0.

 **********************************************************************

            Population analysis using the SCF Density.

 **********************************************************************

 Orbital symmetries:
       Occupied  (A) (A) (A) (A) (A) (A) (A) (A) (A) (A) (A) (A)
                 (A) (A) (A) (A) (A) (A) (A) (A) (A) (A) (A) (A)
                 (A) (A) (A) (A) (A) (A) (A) (A) (A) (A) (A) (A)
                 (A) (A) (A) (A) (A) (A) (A) (A) (A)
       Virtual   (A) (A) (A) (A) (A) (A) (A) (A) (A) (A) (A) (A)
                 (A) (A) (A) (A) (A) (A) (A) (A) (A) (A) (A) (A)
                 (A) (A) (A) (A) (A) (A) (A) (A) (A) (A) (A) (A)
                 (A) (A) (A) (A) (A) (A) (A) (A) (A) (A) (A) (A)
                 (A) (A) (A) (A) (A) (A) (A) (A) (A) (A) (A) (A)
                 (A) (A) (A) (A) (A) (A) (A) (A) (A) (A) (A) (A)
                 (A) (A) (A) (A) (A) (A) (A) (A) (A) (A) (A) (A)
                 (A) (A) (A) (A) (A) (A) (A) (A) (A) (A) (A) (A)
                 (A) (A) (A) (A) (A) (A) (A) (A) (A) (A) (A) (A)
                 (A) (A) (A) (A) (A) (A) (A) (A) (A) (A) (A) (A)
                 (A) (A) (A) (A) (A) (A) (A) (A) (A) (A) (A) (A)
                 (A) (A) (A) (A) (A) (A) (A) (A) (A) (A) (A) (A)
                 (A) (A) (A) (A) (A) (A) (A) (A) (A) (A) (A) (A)
                 (A) (A) (A) (A) (A) (A) (A) (A) (A) (A) (A) (A)
                 (A)
 The electronic state is 1-A.
 Alpha  occ. eigenvalues --  -89.12701 -89.09644 -24.80040 -24.66369 -19.10783
 Alpha  occ. eigenvalues --  -19.07806 -19.07520 -19.05645 -14.26310  -8.14491
 Alpha  occ. eigenvalues --   -8.11987  -6.09632  -6.09000  -6.08968  -6.06863
 Alpha  occ. eigenvalues --   -6.06684  -6.06485  -1.42037  -1.22635  -1.13248
 Alpha  occ. eigenvalues --   -1.08164  -1.01482  -0.95268  -0.90405  -0.71086
 Alpha  occ. eigenvalues --   -0.64589  -0.57434  -0.56219  -0.54932  -0.47420
 Alpha  occ. eigenvalues --   -0.44863  -0.42978  -0.39492  -0.39008  -0.37858
 Alpha  occ. eigenvalues --   -0.35855  -0.34968  -0.33432  -0.30719  -0.28975
 Alpha  occ. eigenvalues --   -0.26640  -0.24876  -0.21901  -0.21413  -0.19755
 Alpha virt. eigenvalues --    0.18483   0.20219   0.21732   0.22074   0.23891
 Alpha virt. eigenvalues --    0.24101   0.24494   0.28290   0.28884   0.32943
 Alpha virt. eigenvalues --    0.33379   0.34188   0.34862   0.37142   0.37491
 Alpha virt. eigenvalues --    0.38574   0.39805   0.41075   0.41842   0.43374
 Alpha virt. eigenvalues --    0.43936   0.45754   0.46093   0.46490   0.46992
 Alpha virt. eigenvalues --    0.47797   0.48102   0.48610   0.48988   0.49781
 Alpha virt. eigenvalues --    0.50592   0.51625   0.52150   0.52456   0.52763
 Alpha virt. eigenvalues --    0.54343   0.55424   0.55908   0.57228   0.59180
 Alpha virt. eigenvalues --    0.61163   0.62035   0.62401   0.65645   0.66312
 Alpha virt. eigenvalues --    0.67041   0.68769   0.71364   0.76199   0.79502
 Alpha virt. eigenvalues --    0.89533   0.91147   0.93135   0.94750   1.03310
 Alpha virt. eigenvalues --    1.09309   1.14575   1.14959   1.17626   1.23786
 Alpha virt. eigenvalues --    1.24247   1.25131   1.26608   1.28956   1.30790
 Alpha virt. eigenvalues --    1.32046   1.32584   1.34074   1.36723   1.38929
 Alpha virt. eigenvalues --    1.40284   1.41600   1.42313   1.44091   1.47376
 Alpha virt. eigenvalues --    1.48674   1.53162   1.54682   1.55974   1.57922
 Alpha virt. eigenvalues --    1.63970   1.65087   1.66578   1.68974   1.82192
 Alpha virt. eigenvalues --    1.85465   1.92248   1.95419   1.98669   2.00135
 Alpha virt. eigenvalues --    2.03016   2.07749   2.11231   2.14171   2.27248
 Alpha virt. eigenvalues --    2.31917   2.42298   2.45077   2.50390   2.84454
 Alpha virt. eigenvalues --    2.88653   3.01995   3.02635   3.06958   3.07639
 Alpha virt. eigenvalues --    3.09387   3.10133   3.11738   3.13102   3.14907
 Alpha virt. eigenvalues --    3.16922   3.25906   3.29642   3.33909   3.39904
 Alpha virt. eigenvalues --    3.44173   3.52811   3.74298   3.82677   3.85910
 Alpha virt. eigenvalues --    3.87257   3.91190   3.98639   3.99120   4.02573
 Alpha virt. eigenvalues --    4.03866   4.06067   4.06142   4.11807   4.21226
 Alpha virt. eigenvalues --    4.32966   4.42535   4.58976   4.68957   5.23608
 Alpha virt. eigenvalues --    5.26644   5.27121   5.28651   5.31069   5.31954
 Alpha virt. eigenvalues --    5.36870   5.38387   5.47342   5.54167   5.57905
 Alpha virt. eigenvalues --    5.78565   6.46350   6.49140   6.59311   6.61944
 Alpha virt. eigenvalues --    6.62609   6.67616   8.47558   8.54727  17.57795
 Alpha virt. eigenvalues --   17.63184  17.70896  17.79905  17.81376  18.05565
 Alpha virt. eigenvalues --   35.75167  50.18763  50.19173  50.21416  50.25264
 Alpha virt. eigenvalues --   66.98701  67.10859 189.69679 189.76751
          Condensed to atoms (all electrons):
               1          2          3          4          5          6
     1  S   15.811858   0.156581   0.369460  -0.534679  -0.275394   0.074334
     2  F    0.156581   9.234835   0.068037  -0.183452  -0.063376  -0.055505
     3  O    0.369460   0.068037   8.940586  -0.636386  -0.205557  -0.093100
     4  O   -0.534679  -0.183452  -0.636386   9.572592  -0.349159   0.140884
     5  N   -0.275394  -0.063376  -0.205557  -0.349159   9.410805  -0.292058
     6  S    0.074334  -0.055505  -0.093100   0.140884  -0.292058  15.554296
     7  F   -0.063002   0.006605   0.046037  -0.027578   0.048145  -0.056627
     8  O    0.061246  -0.018694  -0.026919   0.019996  -0.295273   0.049379
     9  O   -0.060996   0.031209  -0.045973  -0.002997  -0.225674   0.305759
               7          8          9
     1  S   -0.063002   0.061246  -0.060996
     2  F    0.006605  -0.018694   0.031209
     3  O    0.046037  -0.026919  -0.045973
     4  O   -0.027578   0.019996  -0.002997
     5  N    0.048145  -0.295273  -0.225674
     6  S   -0.056627   0.049379   0.305759
     7  F    8.953984  -0.104261   0.043564
     8  O   -0.104261   9.036178  -0.501752
     9  O    0.043564  -0.501752   8.879210
 Mulliken charges:
               1
     1  S    0.460591
     2  F   -0.176240
     3  O   -0.416186
     4  O    0.000777
     5  N   -0.752460
     6  S    0.372636
     7  F    0.153132
     8  O   -0.219900
     9  O   -0.422350
 Sum of Mulliken charges =  -1.00000
 Mulliken charges with hydrogens summed into heavy atoms:
               1
     1  S    0.460591
     2  F   -0.176240
     3  O   -0.416186
     4  O    0.000777
     5  N   -0.752460
     6  S    0.372636
     7  F    0.153132
     8  O   -0.219900
     9  O   -0.422350
 Electronic spatial extent (au):  <R**2>=           1205.1175
 Charge=             -1.0000 electrons
 Dipole moment (field-independent basis, Debye):
    X=             -0.1474    Y=             -3.0111    Z=             -0.2072  Tot=              3.0218
 Quadrupole moment (field-independent basis, Debye-Ang):
   XX=            -80.5469   YY=            -67.8990   ZZ=            -75.2424
   XY=              7.9469   XZ=             -2.6785   YZ=             -0.8706
 Traceless Quadrupole moment (field-independent basis, Debye-Ang):
   XX=             -5.9841   YY=              6.6638   ZZ=             -0.6796
   XY=              7.9469   XZ=             -2.6785   YZ=             -0.8706
 Octapole moment (field-independent basis, Debye-Ang**2):
  XXX=              4.2425  YYY=             -6.9401  ZZZ=              4.5836  XYY=             -2.3400
  XXY=             -7.9419  XXZ=             14.1711  XZZ=              2.4998  YZZ=             -1.0134
  YYZ=             -2.3396  XYZ=             -0.1037
 Hexadecapole moment (field-independent basis, Debye-Ang**3):
 XXXX=           -995.5685 YYYY=           -235.2302 ZZZZ=           -261.9930 XXXY=             53.4167
 XXXZ=            -14.4241 YYYX=             19.3118 YYYZ=             -2.6922 ZZZX=             -8.6996
 ZZZY=             -2.0053 XXYY=           -203.2096 XXZZ=           -222.1349 YYZZ=            -83.8929
 XXYZ=             -2.7922 YYXZ=             -1.0134 ZZXY=             19.6359
 N-N= 8.251976443047D+02 E-N=-4.874715736907D+03  KE= 1.351834982270D+03
 No NMR shielding tensors so no spin-rotation constants.
 Leave Link  601 at Sat Sep 14 17:53:36 2024, MaxMem=  4294967296 cpu:              54.0 elap:               3.3
 (Enter /home/appl/Gaussian/g16/l701.exe)
 ... and contract with generalized density number  0.
 Compute integral first derivatives.
 R6Disp: Adding Grimme-D2 dispersion energy 1st derivatives to the gradient.
 Leave Link  701 at Sat Sep 14 17:53:39 2024, MaxMem=  4294967296 cpu:              46.6 elap:               2.8
 (Enter /home/appl/Gaussian/g16/l702.exe)
 L702 exits ... SP integral derivatives will be done elsewhere.
 Leave Link  702 at Sat Sep 14 17:53:40 2024, MaxMem=  4294967296 cpu:               1.5 elap:               0.2
 (Enter /home/appl/Gaussian/g16/l703.exe)
 Integral derivatives from FoFJK, PRISM(SPDF).
 Compute integral first derivatives, UseDBF=F ICtDFT=           0.
 Calling FoFJK, ICntrl=      2127 FMM=F ISym2X=0 I1Cent= 0 IOpClX= 0 NMat=1 NMatS=1 NMatT=0.
 FoFJK:  IHMeth= 1 ICntrl=    2127 DoSepK=T KAlg= 0 I1Cent=           0 FoldK=F
 IRaf=         1 NMat=       1 IRICut=       1 DoRegI=T DoRafI=F ISym2E= 0 IDoP0=0 IntGTp=1.
 FoFCou: FMM=F IPFlag=           0 FMFlag=      100000 FMFlg1=         800
         NFxFlg=           0 DoJE=F BraDBF=F KetDBF=F FulRan=T
         wScrn=  0.000000 ICntrl=      2527 IOpCl=  0 I1Cent=           0 NGrid=           0
         NMat0=    1 NMatS0=      1 NMatT0=    0 NMatD0=    1 NMtDS0=    0 NMtDT0=    0
 Symmetry not used in FoFCou.
 Leave Link  703 at Sat Sep 14 17:53:47 2024, MaxMem=  4294967296 cpu:             105.4 elap:               6.6
 (Enter /home/appl/Gaussian/g16/l716.exe)
 Dipole        =-5.80085328D-02-1.18466667D+00-8.15283776D-02
 ***** Axes restored to original set *****
 -------------------------------------------------------------------
 Center     Atomic                   Forces (Hartrees/Bohr)
 Number     Number              X              Y              Z
 -------------------------------------------------------------------
      1       16          -0.297778454   -0.001219705   -0.096805370
      2        9           0.019730945    0.007656677   -0.027374919
      3        8          -0.063088902    0.059284831    0.053788104
      4        8           0.382754556    0.030877000    0.082537562
      5        7           0.027696412   -0.057434292    0.029261653
      6       16           0.068454341   -0.002024805   -0.375097020
      7        9          -0.090723149    0.016391625    0.284376982
      8        8          -0.014476843   -0.085555173    0.031544968
      9        8          -0.032568906    0.032023841    0.017768041
 -------------------------------------------------------------------
 Cartesian Forces:  Max     0.382754556 RMS     0.138042252
 Leave Link  716 at Sat Sep 14 17:53:48 2024, MaxMem=  4294967296 cpu:               2.5 elap:               0.2
 (Enter /home/appl/Gaussian/g16/l103.exe)

 GradGradGradGradGradGradGradGradGradGradGradGradGradGradGradGradGradGrad
 Berny optimization.
 FormGI is forming the generalized inverse of G from B-inverse, IUseBI=4.
 Internal  Forces:  Max     0.391816810 RMS     0.105387137
 Search for a local minimum.
 Step number   1 out of a maximum of  100
 All quantities printed in internal units (Hartrees-Bohrs-Radians)
 RMS Force = .10539D+00 SwitMx=.10000D-02 MixMth= 1
 Mixed Optimization -- RFO/linear search
 Second derivative matrix not updated -- first step.
 ITU=  0
     Eigenvalues ---    0.03482   0.04055   0.15185   0.16508   0.17787
     Eigenvalues ---    0.18138   0.25000   0.25000   0.25000   0.25000
     Eigenvalues ---    0.25000   0.25000   0.25000   0.51353   0.66235
     Eigenvalues ---    0.79596   0.98448   1.14717   1.28723   1.63679
     Eigenvalues ---    2.53498
 RFO step:  Lambda=-1.97588861D-01 EMin= 3.48229274D-02
 Linear search not attempted -- first point.
 Maximum step size (   0.300) exceeded in Quadratic search.
    -- Step size scaled by   0.681
 Iteration  1 RMS(Cart)=  0.11911090 RMS(Int)=  0.00522905
 Iteration  2 RMS(Cart)=  0.00502883 RMS(Int)=  0.00244342
 Iteration  3 RMS(Cart)=  0.00001989 RMS(Int)=  0.00244338
 Iteration  4 RMS(Cart)=  0.00000014 RMS(Int)=  0.00244338
 ITry= 1 IFail=0 DXMaxC= 2.94D-01 DCOld= 1.00D+10 DXMaxT= 3.00D-01 DXLimC= 3.00D+00 Rises=F
 Variable       Old X    -DE/DX   Delta X   Delta X   Delta X     New X
                                 (Linear)    (Quad)   (Total)
    R1        3.02224   0.02555   0.00000   0.02447   0.02447   3.04671
    R2        2.62641   0.10160   0.00000   0.04661   0.04661   2.67302
    R3        2.40310   0.39182   0.00000   0.09766   0.09766   2.50076
    R4        2.81834   0.10525   0.00000   0.07215   0.07215   2.89049
    R5        2.90023   0.07332   0.00000   0.05808   0.05808   2.95830
    R6        2.54142   0.29838   0.00000   0.11079   0.11079   2.65221
    R7        2.66964   0.06462   0.00000   0.03273   0.03273   2.70237
    R8        2.72967   0.02534   0.00000   0.01460   0.01460   2.74427
    A1        1.72819   0.01668   0.00000   0.03054   0.03023   1.75842
    A2        1.94465  -0.03941   0.00000  -0.06934  -0.06952   1.87513
    A3        1.75722   0.00776   0.00000   0.00968   0.00945   1.76667
    A4        2.05207   0.00421   0.00000   0.00937   0.00915   2.06121
    A5        1.99584   0.00833   0.00000   0.01616   0.01590   2.01174
    A6        1.94844   0.00027   0.00000  -0.00096  -0.00119   1.94724
    A7        2.10933   0.04604   0.00000   0.07007   0.07007   2.17939
    A8        1.94324  -0.04890   0.00000  -0.08312  -0.08371   1.85953
    A9        1.77725   0.05135   0.00000   0.07955   0.07478   1.85203
   A10        1.89764   0.05226   0.00000   0.08491   0.08112   1.97876
   A11        2.08109  -0.06387   0.00000  -0.11161  -0.11282   1.96827
   A12        1.90953  -0.02330   0.00000  -0.03928  -0.03938   1.87016
   A13        1.84441   0.04989   0.00000   0.09902   0.09136   1.93577
    D1       -1.48681  -0.01812   0.00000  -0.02812  -0.02823  -1.51504
    D2        0.34748   0.00762   0.00000   0.01695   0.01707   0.36455
    D3        2.73104   0.02311   0.00000   0.04723   0.04722   2.77826
    D4       -1.22625  -0.00936   0.00000  -0.01056  -0.00959  -1.23584
    D5        2.82048   0.06244   0.00000   0.12030   0.12538   2.94586
    D6        0.87873  -0.03466   0.00000  -0.05574  -0.06180   0.81693
         Item               Value     Threshold  Converged?
 Maximum Force            0.391817     0.000450     NO 
 RMS     Force            0.105387     0.000300     NO 
 Maximum Displacement     0.293745     0.001800     NO 
 RMS     Displacement     0.117987     0.001200     NO 
 Predicted change in Energy=-9.976845D-02
 Lowest energy point so far.  Saving SCF results.
 GradGradGradGradGradGradGradGradGradGradGradGradGradGradGradGradGradGrad

 Leave Link  103 at Sat Sep 14 17:54:08 2024, MaxMem=  4294967296 cpu:             249.2 elap:              19.8
 (Enter /home/appl/Gaussian/g16/l202.exe)
                          Input orientation:                          
 ---------------------------------------------------------------------
 Center     Atomic      Atomic             Coordinates (Angstroms)
 Number     Number       Type             X           Y           Z
 ---------------------------------------------------------------------
      1         16           0        0.985177    6.997341    5.159599
      2          9           0        0.874991    7.529121    3.641570
      3          8           0        0.086060    7.873101    5.811861
      4          8           0        2.261896    7.044444    5.504591
      5          7           0        0.496953    5.555902    5.006250
      6         16           0       -1.001526    5.107118    5.068229
      7          9           0       -1.404701    5.244002    6.405574
      8          8           0       -1.028339    3.750034    4.618117
      9          8           0       -1.884885    5.936313    4.267599
 ---------------------------------------------------------------------
                    Distance matrix (angstroms):
                    1          2          3          4          5
     1  S    0.000000
     2  F    1.612248   0.000000
     3  O    1.414501   2.334715   0.000000
     4  O    1.323347   2.372607   2.348478   0.000000
     5  N    1.529584   2.428756   2.487419   2.362017   0.000000
     6  S    2.743771   3.379758   3.063738   3.820152   1.565467
     7  F    3.215302   4.249527   3.080101   4.182977   2.381528
     8  O    3.859074   4.342557   4.434703   4.739685   2.395479
     9  O    3.187272   3.247439   3.165520   4.466978   2.522592
                    6          7          8          9
     6  S    0.000000
     7  F    1.403488   0.000000
     8  O    1.430034   2.359786   0.000000
     9  O    1.452204   2.298001   2.374100   0.000000
 Stoichiometry    F2NO4S2(1-)
 Framework group  C1[X(F2NO4S2)]
 Deg. of freedom    21
 Full point group                 C1      NOp   1
 RotChk:  IX=0 Diff= 1.70D-01
 Largest Abelian subgroup         C1      NOp   1
 Largest concise Abelian subgroup C1      NOp   1
                         Standard orientation:                         
 ---------------------------------------------------------------------
 Center     Atomic      Atomic             Coordinates (Angstroms)
 Number     Number       Type             X           Y           Z
 ---------------------------------------------------------------------
      1         16           0        1.365894   -0.148992   -0.084108
      2          9           0        1.699430    1.419631    0.081777
      3          8           0        1.322045   -0.554089    1.270435
      4          8           0        2.299934   -0.672969   -0.861454
      5          7           0        0.011504   -0.092045   -0.792634
      6         16           0       -1.372693    0.018981   -0.069890
      7          9           0       -1.598733   -1.218298    0.552865
      8          8           0       -2.331407    0.308205   -1.090779
      9          8           0       -1.400325    1.032915    0.969375
 ---------------------------------------------------------------------
 Rotational constants (GHZ):           2.7337175           0.9340242           0.9150677
 Leave Link  202 at Sat Sep 14 17:54:09 2024, MaxMem=  4294967296 cpu:               4.1 elap:               0.4
 (Enter /home/appl/Gaussian/g16/l301.exe)
 Standard basis: 6-311++G(d,p) (5D, 7F)
 Ernie: Thresh=  0.10000D-02 Tol=  0.10000D-05 Strict=F.
 There are   223 symmetry adapted cartesian basis functions of A   symmetry.
 There are   214 symmetry adapted basis functions of A   symmetry.
   214 basis functions,   352 primitive gaussians,   223 cartesian basis functions
    45 alpha electrons       45 beta electrons
       nuclear repulsion energy       800.7342559924 Hartrees.
 IExCor= 4639 DFT=T Ex+Corr=wB97XD ExCW=0 ScaHFX=  1.000000
 ScaDFX=  1.000000  1.000000  1.000000  1.000000 ScalE2=  1.000000  1.000000
 IRadAn=      5 IRanWt=     -1 IRanGd=            0 ICorTp=0 IEmpDi=121
 HFx  wShort=  0.000000 wLong=  0.200000 cFull=  0.222036 cShort=  0.000000 cLong=  0.777964
 DFx  wShort=  0.000000 wLong=  0.200000 cFull=  0.000000 cShort=  0.000000 cLong=  1.000000
 NAtoms=    9 NActive=    9 NUniq=    9 SFac= 1.00D+00 NAtFMM=   60 NAOKFM=F Big=F
 Integral buffers will be    131072 words long.
 Raffenetti 2 integral format.
 Two-electron integral symmetry is turned on.
 R6Disp:  Grimme-D2 Dispersion energy=       -0.0027113291 Hartrees.
 Nuclear repulsion after empirical dispersion term =      800.7315446633 Hartrees.
 Leave Link  301 at Sat Sep 14 17:54:10 2024, MaxMem=  4294967296 cpu:               4.2 elap:               0.3
 (Enter /home/appl/Gaussian/g16/l302.exe)
 NPDir=0 NMtPBC=     1 NCelOv=     1 NCel=       1 NClECP=     1 NCelD=      1
         NCelK=      1 NCelE2=     1 NClLst=     1 CellRange=     0.0.
 One-electron integrals computed using PRISM.
 One-electron integral symmetry used in STVInt
 NBasis=   214 RedAO= T EigKep=  2.06D-04  NBF=   214
 NBsUse=   214 1.00D-06 EigRej= -1.00D+00 NBFU=   214
 Precomputing XC quadrature grid using
 IXCGrd= 4 IRadAn=           5 IRanWt=          -1 IRanGd=           0 AccXCQ= 0.00D+00.
 Generated NRdTot=       0 NPtTot=           0 NUsed=           0 NTot=          32
 NSgBfM=   223   223   223   223   223 MxSgAt=     9 MxSgA2=     9.
 Leave Link  302 at Sat Sep 14 17:54:18 2024, MaxMem=  4294967296 cpu:             132.8 elap:               7.3
 (Enter /home/appl/Gaussian/g16/l303.exe)
 DipDrv:  MaxL=1.
 Leave Link  303 at Sat Sep 14 17:54:20 2024, MaxMem=  4294967296 cpu:              14.8 elap:               0.9
 (Enter /home/appl/Gaussian/g16/l401.exe)
 Initial guess from the checkpoint file:  "/scr/Gau-148765.chk"
 B after Tr=    -0.000000   -0.000000    0.000000
         Rot=    0.998209    0.059726   -0.001544   -0.002925 Ang=   6.86 deg.
 Guess basis will be translated and rotated to current coordinates.
 JPrj=2 DoOrth=T DoCkMO=T.
 Generating alternative initial guess.
 ExpMin= 4.05D-02 ExpMax= 9.34D+04 ExpMxC= 3.17D+03 IAcc=3 IRadAn=         5 AccDes= 0.00D+00
 Harris functional with IExCor= 4639 and IRadAn=       5 diagonalized for initial guess.
 HarFok:  IExCor= 4639 AccDes= 0.00D+00 IRadAn=         5 IDoV= 1 UseB2=F ITyADJ=14
 ICtDFT=  3500011 ScaDFX=  1.000000  1.000000  1.000000  1.000000
 FoFCou: FMM=F IPFlag=           0 FMFlag=      100000 FMFlg1=           0
         NFxFlg=           0 DoJE=T BraDBF=F KetDBF=T FulRan=T
         wScrn=  0.000000 ICntrl=       500 IOpCl=  0 I1Cent=   200000004 NGrid=           0
         NMat0=    1 NMatS0=      1 NMatT0=    0 NMatD0=    1 NMtDS0=    0 NMtDT0=    0
 Petite list used in FoFCou.
 Harris En= -1319.74973340322    
 Leave Link  401 at Sat Sep 14 17:54:31 2024, MaxMem=  4294967296 cpu:             175.2 elap:              10.2
 (Enter /home/appl/Gaussian/g16/l502.exe)
 Keep R1 ints in memory in canonical form, NReq=576265202.
 FoFCou: FMM=F IPFlag=           0 FMFlag=           0 FMFlg1=           0
         NFxFlg=           0 DoJE=F BraDBF=F KetDBF=F FulRan=T
         wScrn=  0.000000 ICntrl=       600 IOpCl=  0 I1Cent=           0 NGrid=           0
         NMat0=    1 NMatS0=  23005 NMatT0=    0 NMatD0=    1 NMtDS0=    0 NMtDT0=    0
 Symmetry not used in FoFCou.
 Two-electron integral symmetry not used.
 Closed shell SCF:
 Using DIIS extrapolation, IDIIS=  1040.
 NGot=  4294967296 LenX=  3765603616 LenY=  3765553446
 Requested convergence on RMS density matrix=1.00D-08 within 128 cycles.
 Requested convergence on MAX density matrix=1.00D-06.
 Requested convergence on             energy=1.00D-06.
 No special actions if energy rises.

 Cycle   1  Pass 1  IDiag  1:
 E= -1351.58463701736    
 DIIS: error= 6.35D-03 at cycle   1 NSaved=   1.
 NSaved= 1 IEnMin= 1 EnMin= -1351.58463701736     IErMin= 1 ErrMin= 6.35D-03
 ErrMax= 6.35D-03  0.00D+00 EMaxC= 1.00D-01 BMatC= 3.03D-02 BMatP= 3.03D-02
 IDIUse=3 WtCom= 9.36D-01 WtEn= 6.35D-02
 Coeff-Com:  0.100D+01
 Coeff-En:   0.100D+01
 Coeff:      0.100D+01
 Gap=     0.668 Goal=   None    Shift=    0.000
 GapD=    0.668 DampG=2.000 DampE=1.000 DampFc=2.0000 IDamp=-1.
 RMSDP=3.17D-03 MaxDP=1.64D-01              OVMax= 3.64D-02

 Cycle   2  Pass 1  IDiag  1:
 E= -1351.61994256577     Delta-E=       -0.035305548410 Rises=F Damp=F
 DIIS: error= 2.88D-03 at cycle   2 NSaved=   2.
 NSaved= 2 IEnMin= 2 EnMin= -1351.61994256577     IErMin= 2 ErrMin= 2.88D-03
 ErrMax= 2.88D-03  0.00D+00 EMaxC= 1.00D-01 BMatC= 4.06D-03 BMatP= 3.03D-02
 IDIUse=3 WtCom= 9.71D-01 WtEn= 2.88D-02
 Coeff-Com:  0.999D-01 0.900D+00
 Coeff-En:   0.000D+00 0.100D+01
 Coeff:      0.970D-01 0.903D+00
 Gap=     0.403 Goal=   None    Shift=    0.000
 RMSDP=7.42D-04 MaxDP=3.55D-02 DE=-3.53D-02 OVMax= 1.18D-02

 Cycle   3  Pass 1  IDiag  1:
 E= -1351.62116926104     Delta-E=       -0.001226695274 Rises=F Damp=F
 DIIS: error= 3.46D-03 at cycle   3 NSaved=   3.
 NSaved= 3 IEnMin= 3 EnMin= -1351.62116926104     IErMin= 2 ErrMin= 2.88D-03
 ErrMax= 3.46D-03  0.00D+00 EMaxC= 1.00D-01 BMatC= 3.49D-03 BMatP= 4.06D-03
 IDIUse=3 WtCom= 9.65D-01 WtEn= 3.46D-02
 Coeff-Com: -0.724D-01 0.499D+00 0.573D+00
 Coeff-En:   0.000D+00 0.350D+00 0.650D+00
 Coeff:     -0.699D-01 0.494D+00 0.576D+00
 Gap=     0.406 Goal=   None    Shift=    0.000
 RMSDP=4.40D-04 MaxDP=1.34D-02 DE=-1.23D-03 OVMax= 8.26D-03

 Cycle   4  Pass 1  IDiag  1:
 E= -1351.62336656700     Delta-E=       -0.002197305957 Rises=F Damp=F
 DIIS: error= 4.96D-04 at cycle   4 NSaved=   4.
 NSaved= 4 IEnMin= 4 EnMin= -1351.62336656700     IErMin= 4 ErrMin= 4.96D-04
 ErrMax= 4.96D-04  0.00D+00 EMaxC= 1.00D-01 BMatC= 1.03D-04 BMatP= 3.49D-03
 IDIUse=3 WtCom= 9.95D-01 WtEn= 4.96D-03
 Coeff-Com: -0.277D-01 0.996D-01 0.204D+00 0.724D+00
 Coeff-En:   0.000D+00 0.000D+00 0.000D+00 0.100D+01
 Coeff:     -0.276D-01 0.991D-01 0.203D+00 0.725D+00
 Gap=     0.403 Goal=   None    Shift=    0.000
 RMSDP=9.19D-05 MaxDP=3.19D-03 DE=-2.20D-03 OVMax= 1.86D-03

 Cycle   5  Pass 1  IDiag  1:
 E= -1351.62344089160     Delta-E=       -0.000074324605 Rises=F Damp=F
 DIIS: error= 1.99D-04 at cycle   5 NSaved=   5.
 NSaved= 5 IEnMin= 5 EnMin= -1351.62344089160     IErMin= 5 ErrMin= 1.99D-04
 ErrMax= 1.99D-04  0.00D+00 EMaxC= 1.00D-01 BMatC= 1.34D-05 BMatP= 1.03D-04
 IDIUse=3 WtCom= 9.98D-01 WtEn= 1.99D-03
 Coeff-Com: -0.201D-02-0.245D-01 0.134D-01 0.296D+00 0.717D+00
 Coeff-En:   0.000D+00 0.000D+00 0.000D+00 0.000D+00 0.100D+01
 Coeff:     -0.201D-02-0.245D-01 0.134D-01 0.295D+00 0.718D+00
 Gap=     0.403 Goal=   None    Shift=    0.000
 RMSDP=4.39D-05 MaxDP=1.54D-03 DE=-7.43D-05 OVMax= 7.81D-04

 Cycle   6  Pass 1  IDiag  1:
 E= -1351.62345039830     Delta-E=       -0.000009506694 Rises=F Damp=F
 DIIS: error= 7.46D-05 at cycle   6 NSaved=   6.
 NSaved= 6 IEnMin= 6 EnMin= -1351.62345039830     IErMin= 6 ErrMin= 7.46D-05
 ErrMax= 7.46D-05  0.00D+00 EMaxC= 1.00D-01 BMatC= 1.87D-06 BMatP= 1.34D-05
 IDIUse=1 WtCom= 1.00D+00 WtEn= 0.00D+00
 Coeff-Com:  0.198D-02-0.217D-01-0.163D-01 0.534D-01 0.332D+00 0.651D+00
 Coeff:      0.198D-02-0.217D-01-0.163D-01 0.534D-01 0.332D+00 0.651D+00
 Gap=     0.404 Goal=   None    Shift=    0.000
 RMSDP=1.36D-05 MaxDP=2.36D-04 DE=-9.51D-06 OVMax= 2.91D-04

 Cycle   7  Pass 1  IDiag  1:
 E= -1351.62345189491     Delta-E=       -0.000001496619 Rises=F Damp=F
 DIIS: error= 1.32D-05 at cycle   7 NSaved=   7.
 NSaved= 7 IEnMin= 7 EnMin= -1351.62345189491     IErMin= 7 ErrMin= 1.32D-05
 ErrMax= 1.32D-05  0.00D+00 EMaxC= 1.00D-01 BMatC= 1.02D-07 BMatP= 1.87D-06
 IDIUse=1 WtCom= 1.00D+00 WtEn= 0.00D+00
 Coeff-Com:  0.848D-03-0.512D-02-0.744D-02-0.107D-01 0.364D-01 0.207D+00
 Coeff-Com:  0.779D+00
 Coeff:      0.848D-03-0.512D-02-0.744D-02-0.107D-01 0.364D-01 0.207D+00
 Coeff:      0.779D+00
 Gap=     0.403 Goal=   None    Shift=    0.000
 RMSDP=5.61D-06 MaxDP=1.15D-04 DE=-1.50D-06 OVMax= 8.54D-05

 Cycle   8  Pass 1  IDiag  1:
 E= -1351.62345199322     Delta-E=       -0.000000098310 Rises=F Damp=F
 DIIS: error= 6.62D-06 at cycle   8 NSaved=   8.
 NSaved= 8 IEnMin= 8 EnMin= -1351.62345199322     IErMin= 8 ErrMin= 6.62D-06
 ErrMax= 6.62D-06  0.00D+00 EMaxC= 1.00D-01 BMatC= 1.78D-08 BMatP= 1.02D-07
 IDIUse=1 WtCom= 1.00D+00 WtEn= 0.00D+00
 Coeff-Com:  0.183D-03-0.114D-03-0.169D-02-0.953D-02-0.175D-01 0.218D-01
 Coeff-Com:  0.333D+00 0.673D+00
 Coeff:      0.183D-03-0.114D-03-0.169D-02-0.953D-02-0.175D-01 0.218D-01
 Coeff:      0.333D+00 0.673D+00
 Gap=     0.403 Goal=   None    Shift=    0.000
 RMSDP=2.13D-06 MaxDP=6.81D-05 DE=-9.83D-08 OVMax= 3.79D-05

 Cycle   9  Pass 1  IDiag  1:
 E= -1351.62345200781     Delta-E=       -0.000000014589 Rises=F Damp=F
 DIIS: error= 1.50D-06 at cycle   9 NSaved=   9.
 NSaved= 9 IEnMin= 9 EnMin= -1351.62345200781     IErMin= 9 ErrMin= 1.50D-06
 ErrMax= 1.50D-06  0.00D+00 EMaxC= 1.00D-01 BMatC= 1.26D-09 BMatP= 1.78D-08
 IDIUse=1 WtCom= 1.00D+00 WtEn= 0.00D+00
 Coeff-Com: -0.544D-04 0.680D-03 0.495D-03-0.165D-02-0.994D-02-0.189D-01
 Coeff-Com:  0.230D-02 0.207D+00 0.820D+00
 Coeff:     -0.544D-04 0.680D-03 0.495D-03-0.165D-02-0.994D-02-0.189D-01
 Coeff:      0.230D-02 0.207D+00 0.820D+00
 Gap=     0.403 Goal=   None    Shift=    0.000
 RMSDP=7.15D-07 MaxDP=1.66D-05 DE=-1.46D-08 OVMax= 1.31D-05

 Cycle  10  Pass 1  IDiag  1:
 E= -1351.62345200909     Delta-E=       -0.000000001279 Rises=F Damp=F
 DIIS: error= 8.46D-07 at cycle  10 NSaved=  10.
 NSaved=10 IEnMin=10 EnMin= -1351.62345200909     IErMin=10 ErrMin= 8.46D-07
 ErrMax= 8.46D-07  0.00D+00 EMaxC= 1.00D-01 BMatC= 1.82D-10 BMatP= 1.26D-09
 IDIUse=1 WtCom= 1.00D+00 WtEn= 0.00D+00
 Coeff-Com: -0.348D-04 0.300D-03 0.326D-03-0.127D-03-0.339D-02-0.999D-02
 Coeff-Com: -0.197D-01 0.487D-01 0.354D+00 0.629D+00
 Coeff:     -0.348D-04 0.300D-03 0.326D-03-0.127D-03-0.339D-02-0.999D-02
 Coeff:     -0.197D-01 0.487D-01 0.354D+00 0.629D+00
 Gap=     0.403 Goal=   None    Shift=    0.000
 RMSDP=1.84D-07 MaxDP=3.62D-06 DE=-1.28D-09 OVMax= 3.96D-06

 Cycle  11  Pass 1  IDiag  1:
 E= -1351.62345200925     Delta-E=       -0.000000000152 Rises=F Damp=F
 DIIS: error= 1.75D-07 at cycle  11 NSaved=  11.
 NSaved=11 IEnMin=11 EnMin= -1351.62345200925     IErMin=11 ErrMin= 1.75D-07
 ErrMax= 1.75D-07  0.00D+00 EMaxC= 1.00D-01 BMatC= 1.95D-11 BMatP= 1.82D-10
 IDIUse=1 WtCom= 1.00D+00 WtEn= 0.00D+00
 Coeff-Com:  0.669D-07-0.424D-04 0.474D-05 0.268D-03 0.849D-03 0.361D-03
 Coeff-Com: -0.729D-02-0.249D-01-0.449D-01 0.215D+00 0.861D+00
 Coeff:      0.669D-07-0.424D-04 0.474D-05 0.268D-03 0.849D-03 0.361D-03
 Coeff:     -0.729D-02-0.249D-01-0.449D-01 0.215D+00 0.861D+00
 Gap=     0.403 Goal=   None    Shift=    0.000
 RMSDP=8.82D-08 MaxDP=1.88D-06 DE=-1.52D-10 OVMax= 2.13D-06

 Cycle  12  Pass 1  IDiag  1:
 E= -1351.62345200927     Delta-E=       -0.000000000028 Rises=F Damp=F
 DIIS: error= 8.74D-08 at cycle  12 NSaved=  12.
 NSaved=12 IEnMin=12 EnMin= -1351.62345200927     IErMin=12 ErrMin= 8.74D-08
 ErrMax= 8.74D-08  0.00D+00 EMaxC= 1.00D-01 BMatC= 2.24D-12 BMatP= 1.95D-11
 IDIUse=1 WtCom= 1.00D+00 WtEn= 0.00D+00
 Coeff-Com:  0.192D-05-0.356D-04-0.169D-04 0.133D-03 0.581D-03 0.793D-03
 Coeff-Com: -0.195D-02-0.136D-01-0.419D-01 0.529D-01 0.371D+00 0.632D+00
 Coeff:      0.192D-05-0.356D-04-0.169D-04 0.133D-03 0.581D-03 0.793D-03
 Coeff:     -0.195D-02-0.136D-01-0.419D-01 0.529D-01 0.371D+00 0.632D+00
 Gap=     0.403 Goal=   None    Shift=    0.000
 RMSDP=1.93D-08 MaxDP=4.78D-07 DE=-2.77D-11 OVMax= 4.82D-07

 Cycle  13  Pass 1  IDiag  1:
 E= -1351.62345200927     Delta-E=        0.000000000003 Rises=F Damp=F
 DIIS: error= 2.45D-08 at cycle  13 NSaved=  13.
 NSaved=13 IEnMin=12 EnMin= -1351.62345200927     IErMin=13 ErrMin= 2.45D-08
 ErrMax= 2.45D-08  0.00D+00 EMaxC= 1.00D-01 BMatC= 2.18D-13 BMatP= 2.24D-12
 IDIUse=1 WtCom= 1.00D+00 WtEn= 0.00D+00
 Coeff-Com:  0.838D-06-0.745D-05-0.857D-05 0.954D-05 0.979D-04 0.300D-03
 Coeff-Com:  0.465D-03-0.145D-02-0.102D-01-0.145D-01 0.751D-02 0.222D+00
 Coeff-Com:  0.796D+00
 Coeff:      0.838D-06-0.745D-05-0.857D-05 0.954D-05 0.979D-04 0.300D-03
 Coeff:      0.465D-03-0.145D-02-0.102D-01-0.145D-01 0.751D-02 0.222D+00
 Coeff:      0.796D+00
 Gap=     0.403 Goal=   None    Shift=    0.000
 RMSDP=9.00D-09 MaxDP=2.14D-07 DE= 3.18D-12 OVMax= 1.94D-07

 SCF Done:  E(RwB97XD) =  -1351.62345201     A.U. after   13 cycles
            NFock= 13  Conv=0.90D-08     -V/T= 2.0006
 KE= 1.350751773934D+03 PE=-4.824621691017D+03 EE= 1.321514920411D+03
 Leave Link  502 at Sat Sep 14 17:55:52 2024, MaxMem=  4294967296 cpu:            1180.2 elap:              81.2
 (Enter /home/appl/Gaussian/g16/l701.exe)
 ... and contract with generalized density number  0.
 Compute integral first derivatives.
 R6Disp: Adding Grimme-D2 dispersion energy 1st derivatives to the gradient.
 Leave Link  701 at Sat Sep 14 17:55:57 2024, MaxMem=  4294967296 cpu:              48.0 elap:               2.7
 (Enter /home/appl/Gaussian/g16/l702.exe)
 L702 exits ... SP integral derivatives will be done elsewhere.
 Leave Link  702 at Sat Sep 14 17:55:58 2024, MaxMem=  4294967296 cpu:               2.5 elap:               0.2
 (Enter /home/appl/Gaussian/g16/l703.exe)
 Integral derivatives from FoFJK, PRISM(SPDF).
 Compute integral first derivatives, UseDBF=F ICtDFT=           0.
 Calling FoFJK, ICntrl=      2127 FMM=F ISym2X=0 I1Cent= 0 IOpClX= 0 NMat=1 NMatS=1 NMatT=0.
 FoFJK:  IHMeth= 1 ICntrl=    2127 DoSepK=T KAlg= 0 I1Cent=           0 FoldK=F
 IRaf=         1 NMat=       1 IRICut=       1 DoRegI=T DoRafI=F ISym2E= 0 IDoP0=0 IntGTp=1.
 FoFCou: FMM=F IPFlag=           0 FMFlag=      100000 FMFlg1=         800
         NFxFlg=           0 DoJE=F BraDBF=F KetDBF=F FulRan=T
         wScrn=  0.000000 ICntrl=      2527 IOpCl=  0 I1Cent=           0 NGrid=           0
         NMat0=    1 NMatS0=      1 NMatT0=    0 NMatD0=    1 NMtDS0=    0 NMtDT0=    0
 Symmetry not used in FoFCou.
 Leave Link  703 at Sat Sep 14 17:56:05 2024, MaxMem=  4294967296 cpu:             104.0 elap:               6.8
 (Enter /home/appl/Gaussian/g16/l716.exe)
 Dipole        =-1.88781287D-02-8.50034576D-01 6.40459073D-02
 ***** Axes restored to original set *****
 -------------------------------------------------------------------
 Center     Atomic                   Forces (Hartrees/Bohr)
 Number     Number              X              Y              Z
 -------------------------------------------------------------------
      1       16          -0.181349285    0.004323391   -0.050667781
      2        9           0.010170487    0.004335197   -0.017757256
      3        8          -0.032036624    0.028771734    0.027918323
      4        8           0.218092881    0.006660845    0.045436283
      5        7           0.008123988   -0.031631838    0.012689627
      6       16           0.036396768   -0.000350460   -0.244174391
      7        9          -0.052773061    0.009150176    0.187981695
      8        8          -0.001261088   -0.032661029    0.023587225
      9        8          -0.005364065    0.011401984    0.014986275
 -------------------------------------------------------------------
 Cartesian Forces:  Max     0.244174391 RMS     0.084020594
 Leave Link  716 at Sat Sep 14 17:56:06 2024, MaxMem=  4294967296 cpu:               3.7 elap:               0.3
 (Enter /home/appl/Gaussian/g16/l103.exe)

 GradGradGradGradGradGradGradGradGradGradGradGradGradGradGradGradGradGrad
 Berny optimization.
 Using GEDIIS/GDIIS optimizer.
 FormGI is forming the generalized inverse of G from B-inverse, IUseBI=4.
 Internal  Forces:  Max     0.222491318 RMS     0.060557166
 Search for a local minimum.
 Step number   2 out of a maximum of  100
 All quantities printed in internal units (Hartrees-Bohrs-Radians)
 RMS Force = .60557D-01 SwitMx=.10000D-02 MixMth= 1
 Mixed Optimization -- RFO/linear search
 Update second derivatives using D2CorX and points    1    2
 DE= -1.01D-01 DEPred=-9.98D-02 R= 1.02D+00
 TightC=F SS=  1.41D+00  RLast= 3.32D-01 DXNew= 5.0454D-01 9.9628D-01
 Trust test= 1.02D+00 RLast= 3.32D-01 DXMaxT set to 5.05D-01
 ITU=  1  0
 Use linear search instead of GDIIS.
     Eigenvalues ---    0.03496   0.04060   0.14957   0.16937   0.17932
     Eigenvalues ---    0.19766   0.24948   0.25000   0.25000   0.25000
     Eigenvalues ---    0.25000   0.25000   0.29823   0.51104   0.67918
     Eigenvalues ---    0.79450   0.99130   1.11119   1.17482   1.34164
     Eigenvalues ---    2.25714
 RFO step:  Lambda=-2.07296104D-02 EMin= 3.49589510D-02
 Quartic linear search produced a step of  1.60734.
 Iteration  1 RMS(Cart)=  0.12838613 RMS(Int)=  0.03391738
 Iteration  2 RMS(Cart)=  0.04204984 RMS(Int)=  0.01212028
 Iteration  3 RMS(Cart)=  0.00205145 RMS(Int)=  0.01196860
 Iteration  4 RMS(Cart)=  0.00005496 RMS(Int)=  0.01196856
 Iteration  5 RMS(Cart)=  0.00000269 RMS(Int)=  0.01196856
 Iteration  6 RMS(Cart)=  0.00000013 RMS(Int)=  0.01196856
 ITry= 1 IFail=0 DXMaxC= 4.28D-01 DCOld= 1.00D+10 DXMaxT= 5.05D-01 DXLimC= 3.00D+00 Rises=F
 Variable       Old X    -DE/DX   Delta X   Delta X   Delta X     New X
                                 (Linear)    (Quad)   (Total)
    R1        3.04671   0.01745   0.03933   0.02276   0.06209   3.10879
    R2        2.67302   0.05105   0.07491  -0.00989   0.06503   2.73805
    R3        2.50076   0.22249   0.15698  -0.00189   0.15509   2.65586
    R4        2.89049   0.04679   0.11597  -0.02809   0.08788   2.97837
    R5        2.95830   0.02489   0.09335  -0.04976   0.04359   3.00189
    R6        2.65221   0.19518   0.17808   0.04408   0.22215   2.87436
    R7        2.70237   0.02359   0.05261  -0.02614   0.02646   2.72884
    R8        2.74427   0.00151   0.02347  -0.03151  -0.00804   2.73623
    A1        1.75842   0.01074   0.04859   0.05027   0.09701   1.85543
    A2        1.87513  -0.01761  -0.11174  -0.01739  -0.13111   1.74402
    A3        1.76667   0.00383   0.01519   0.00478   0.01828   1.78494
    A4        2.06121   0.00606   0.01470   0.04193   0.05605   2.11727
    A5        2.01174   0.00143   0.02556  -0.01533   0.00911   2.02085
    A6        1.94724  -0.00525  -0.00192  -0.05631  -0.05921   1.88803
    A7        2.17939   0.01061   0.11262  -0.09434   0.01828   2.19767
    A8        1.85953  -0.01925  -0.13454   0.00718  -0.12997   1.72956
    A9        1.85203   0.01483   0.12020  -0.05053   0.03849   1.89051
   A10        1.97876   0.01518   0.13039  -0.04356   0.05807   2.03684
   A11        1.96827  -0.03237  -0.18134  -0.06997  -0.25833   1.70994
   A12        1.87016  -0.00837  -0.06329   0.01464  -0.04902   1.82114
   A13        1.93577   0.02753   0.14685   0.13363   0.24374   2.17951
    D1       -1.51504  -0.00922  -0.04537   0.02286  -0.02224  -1.53728
    D2        0.36455   0.00592   0.02744   0.07846   0.10707   0.47162
    D3        2.77826   0.01102   0.07590   0.06242   0.13688   2.91514
    D4       -1.23584  -0.00590  -0.01542   0.00375  -0.00548  -1.24132
    D5        2.94586   0.03386   0.20153   0.10729   0.32287  -3.01446
    D6        0.81693  -0.02002  -0.09933   0.00186  -0.11771   0.69922
         Item               Value     Threshold  Converged?
 Maximum Force            0.222491     0.000450     NO 
 RMS     Force            0.060557     0.000300     NO 
 Maximum Displacement     0.427731     0.001800     NO 
 RMS     Displacement     0.148524     0.001200     NO 
 Predicted change in Energy=-3.931445D-02
 Lowest energy point so far.  Saving SCF results.
 GradGradGradGradGradGradGradGradGradGradGradGradGradGradGradGradGradGrad

 Leave Link  103 at Sat Sep 14 17:56:33 2024, MaxMem=  4294967296 cpu:             323.4 elap:              26.4
 (Enter /home/appl/Gaussian/g16/l202.exe)
                          Input orientation:                          
 ---------------------------------------------------------------------
 Center     Atomic      Atomic             Coordinates (Angstroms)
 Number     Number       Type             X           Y           Z
 ---------------------------------------------------------------------
      1         16           0        0.962098    7.044297    5.177248
      2          9           0        0.987403    7.644221    3.645644
      3          8           0        0.063149    7.893667    5.932105
      4          8           0        2.340686    7.015871    5.449077
      5          7           0        0.475405    5.562770    4.948657
      6         16           0       -1.035714    5.075321    4.900214
      7          9           0       -1.386225    5.231973    6.372010
      8          8           0       -1.045582    3.632393    4.844463
      9          8           0       -1.975595    5.936862    4.213973
 ---------------------------------------------------------------------
                    Distance matrix (angstroms):
                    1          2          3          4          5
     1  S    0.000000
     2  F    1.645102   0.000000
     3  O    1.448912   2.478784   0.000000
     4  O    1.405419   2.340635   2.488175   0.000000
     5  N    1.576086   2.508471   2.563241   2.416857   0.000000
     6  S    2.818664   3.502313   3.196149   3.932819   1.588532
     7  F    3.197905   4.345817   3.062486   4.233671   2.366649
     8  O    3.972734   4.654564   4.535494   4.824966   2.459800
     9  O    3.283954   3.466616   3.307195   4.617362   2.585945
                    6          7          8          9
     6  S    0.000000
     7  F    1.521046   0.000000
     8  O    1.444039   2.237877   0.000000
     9  O    1.447950   2.345496   2.563791   0.000000
 Stoichiometry    F2NO4S2(1-)
 Framework group  C1[X(F2NO4S2)]
 Deg. of freedom    21
 Full point group                 C1      NOp   1
 RotChk:  IX=0 Diff= 7.65D-01
 Largest Abelian subgroup         C1      NOp   1
 Largest concise Abelian subgroup C1      NOp   1
                         Standard orientation:                         
 ---------------------------------------------------------------------
 Center     Atomic      Atomic             Coordinates (Angstroms)
 Number     Number       Type             X           Y           Z
 ---------------------------------------------------------------------
      1         16           0        1.382131   -0.168384    0.050424
      2          9           0        1.859938    1.231917   -0.668754
      3          8           0        1.328491    0.102437    1.472790
      4          8           0        2.330815   -1.053823   -0.489205
      5          7           0       -0.003380   -0.447368   -0.647124
      6         16           0       -1.415518    0.098399   -0.166042
      7          9           0       -1.587474   -0.749400    1.085057
      8          8           0       -2.440542   -0.522857   -0.971408
      9          8           0       -1.455554    1.462830    0.316952
 ---------------------------------------------------------------------
 Rotational constants (GHZ):           2.6197945           0.8779797           0.8662039
 Leave Link  202 at Sat Sep 14 17:56:34 2024, MaxMem=  4294967296 cpu:               4.1 elap:               0.4
 (Enter /home/appl/Gaussian/g16/l301.exe)
 Standard basis: 6-311++G(d,p) (5D, 7F)
 Ernie: Thresh=  0.10000D-02 Tol=  0.10000D-05 Strict=F.
 There are   223 symmetry adapted cartesian basis functions of A   symmetry.
 There are   214 symmetry adapted basis functions of A   symmetry.
   214 basis functions,   352 primitive gaussians,   223 cartesian basis functions
    45 alpha electrons       45 beta electrons
       nuclear repulsion energy       778.6893115257 Hartrees.
 IExCor= 4639 DFT=T Ex+Corr=wB97XD ExCW=0 ScaHFX=  1.000000
 ScaDFX=  1.000000  1.000000  1.000000  1.000000 ScalE2=  1.000000  1.000000
 IRadAn=      5 IRanWt=     -1 IRanGd=            0 ICorTp=0 IEmpDi=121
 HFx  wShort=  0.000000 wLong=  0.200000 cFull=  0.222036 cShort=  0.000000 cLong=  0.777964
 DFx  wShort=  0.000000 wLong=  0.200000 cFull=  0.000000 cShort=  0.000000 cLong=  1.000000
 NAtoms=    9 NActive=    9 NUniq=    9 SFac= 1.00D+00 NAtFMM=   60 NAOKFM=F Big=F
 Integral buffers will be    131072 words long.
 Raffenetti 2 integral format.
 Two-electron integral symmetry is turned on.
 R6Disp:  Grimme-D2 Dispersion energy=       -0.0027693171 Hartrees.
 Nuclear repulsion after empirical dispersion term =      778.6865422086 Hartrees.
 Leave Link  301 at Sat Sep 14 17:56:35 2024, MaxMem=  4294967296 cpu:               3.7 elap:               0.3
 (Enter /home/appl/Gaussian/g16/l302.exe)
 NPDir=0 NMtPBC=     1 NCelOv=     1 NCel=       1 NClECP=     1 NCelD=      1
         NCelK=      1 NCelE2=     1 NClLst=     1 CellRange=     0.0.
 One-electron integrals computed using PRISM.
 One-electron integral symmetry used in STVInt
 NBasis=   214 RedAO= T EigKep=  1.91D-04  NBF=   214
 NBsUse=   214 1.00D-06 EigRej= -1.00D+00 NBFU=   214
 Precomputing XC quadrature grid using
 IXCGrd= 4 IRadAn=           5 IRanWt=          -1 IRanGd=           0 AccXCQ= 0.00D+00.
 Generated NRdTot=       0 NPtTot=           0 NUsed=           0 NTot=          32
 NSgBfM=   223   223   223   223   223 MxSgAt=     9 MxSgA2=     9.
 Leave Link  302 at Sat Sep 14 17:56:44 2024, MaxMem=  4294967296 cpu:             136.2 elap:               7.6
 (Enter /home/appl/Gaussian/g16/l303.exe)
 DipDrv:  MaxL=1.
 Leave Link  303 at Sat Sep 14 17:56:45 2024, MaxMem=  4294967296 cpu:              10.3 elap:               0.7
 (Enter /home/appl/Gaussian/g16/l401.exe)
 Initial guess from the checkpoint file:  "/scr/Gau-148765.chk"
 B after Tr=    -0.000000   -0.000000   -0.000000
         Rot=    0.962827    0.270087   -0.001264    0.004047 Ang=  31.34 deg.
 Guess basis will be translated and rotated to current coordinates.
 JPrj=2 DoOrth=T DoCkMO=T.
 Generating alternative initial guess.
 ExpMin= 4.05D-02 ExpMax= 9.34D+04 ExpMxC= 3.17D+03 IAcc=3 IRadAn=         5 AccDes= 0.00D+00
 Harris functional with IExCor= 4639 and IRadAn=       5 diagonalized for initial guess.
 HarFok:  IExCor= 4639 AccDes= 0.00D+00 IRadAn=         5 IDoV= 1 UseB2=F ITyADJ=14
 ICtDFT=  3500011 ScaDFX=  1.000000  1.000000  1.000000  1.000000
 FoFCou: FMM=F IPFlag=           0 FMFlag=      100000 FMFlg1=           0
         NFxFlg=           0 DoJE=T BraDBF=F KetDBF=T FulRan=T
         wScrn=  0.000000 ICntrl=       500 IOpCl=  0 I1Cent=   200000004 NGrid=           0
         NMat0=    1 NMatS0=      1 NMatT0=    0 NMatD0=    1 NMtDS0=    0 NMtDT0=    0
 Petite list used in FoFCou.
 Harris En= -1319.86451447840    
 Leave Link  401 at Sat Sep 14 17:56:56 2024, MaxMem=  4294967296 cpu:             176.8 elap:              10.4
 (Enter /home/appl/Gaussian/g16/l502.exe)
 Keep R1 ints in memory in canonical form, NReq=576265202.
 FoFCou: FMM=F IPFlag=           0 FMFlag=           0 FMFlg1=           0
         NFxFlg=           0 DoJE=F BraDBF=F KetDBF=F FulRan=T
         wScrn=  0.000000 ICntrl=       600 IOpCl=  0 I1Cent=           0 NGrid=           0
         NMat0=    1 NMatS0=  23005 NMatT0=    0 NMatD0=    1 NMtDS0=    0 NMtDT0=    0
 Symmetry not used in FoFCou.
 Two-electron integral symmetry not used.
 Closed shell SCF:
 Using DIIS extrapolation, IDIIS=  1040.
 NGot=  4294967296 LenX=  3765603616 LenY=  3765553446
 Requested convergence on RMS density matrix=1.00D-08 within 128 cycles.
 Requested convergence on MAX density matrix=1.00D-06.
 Requested convergence on             energy=1.00D-06.
 No special actions if energy rises.

 Cycle   1  Pass 1  IDiag  1:
 E= -1351.54467807568    
 DIIS: error= 1.01D-02 at cycle   1 NSaved=   1.
 NSaved= 1 IEnMin= 1 EnMin= -1351.54467807568     IErMin= 1 ErrMin= 1.01D-02
 ErrMax= 1.01D-02  0.00D+00 EMaxC= 1.00D-01 BMatC= 9.39D-02 BMatP= 9.39D-02
 IDIUse=3 WtCom= 8.99D-01 WtEn= 1.01D-01
 Coeff-Com:  0.100D+01
 Coeff-En:   0.100D+01
 Coeff:      0.100D+01
 Recover alternate guess density for next cycle.
 RMSDP=6.37D-03 MaxDP=1.75D-01              OVMax= 0.00D+00

 Cycle   2  Pass 1  IDiag  1:
 E= -1351.07017345053     Delta-E=        0.474504625144 Rises=F Damp=F
 Switch densities from cycles 1 and 2 for lowest energy.
 DIIS: error= 1.09D-01 at cycle   2 NSaved=   2.
 NSaved= 2 IEnMin= 1 EnMin= -1351.54467807568     IErMin= 1 ErrMin= 1.01D-02
 ErrMax= 1.09D-01  0.00D+00 EMaxC= 1.00D+00 BMatC= 3.88D+00 BMatP= 9.39D-02
 IDIUse=1 WtCom= 1.00D+00 WtEn= 0.00D+00
 Coeff-Com:  0.972D+00 0.283D-01
 Coeff:      0.972D+00 0.283D-01
 Gap=     0.430 Goal=   None    Shift=    0.000
 RMSDP=4.26D-03 MaxDP=1.41D-01 DE= 4.75D-01 OVMax= 1.01D-01

 Cycle   3  Pass 1  IDiag  1:
 E= -1351.66354902471     Delta-E=       -0.593375574174 Rises=F Damp=F
 DIIS: error= 5.80D-03 at cycle   3 NSaved=   3.
 NSaved= 3 IEnMin= 3 EnMin= -1351.66354902471     IErMin= 3 ErrMin= 5.80D-03
 ErrMax= 5.80D-03  0.00D+00 EMaxC= 1.00D+00 BMatC= 1.70D-02 BMatP= 9.39D-02
 IDIUse=1 WtCom= 1.00D+00 WtEn= 0.00D+00
 Coeff-Com:  0.144D+00 0.871D-02 0.847D+00
 Coeff:      0.144D+00 0.871D-02 0.847D+00
 Gap=     0.429 Goal=   None    Shift=    0.000
 RMSDP=1.33D-03 MaxDP=3.55D-02 DE=-5.93D-01 OVMax= 3.20D-02

 Cycle   4  Pass 1  IDiag  1:
 E= -1351.66718697345     Delta-E=       -0.003637948739 Rises=F Damp=F
 DIIS: error= 7.08D-03 at cycle   4 NSaved=   4.
 NSaved= 4 IEnMin= 4 EnMin= -1351.66718697345     IErMin= 3 ErrMin= 5.80D-03
 ErrMax= 7.08D-03  0.00D+00 EMaxC= 1.00D+00 BMatC= 1.55D-02 BMatP= 1.70D-02
 IDIUse=1 WtCom= 1.00D+00 WtEn= 0.00D+00
 Coeff-Com: -0.834D-01 0.193D-02 0.510D+00 0.572D+00
 Coeff:     -0.834D-01 0.193D-02 0.510D+00 0.572D+00
 Gap=     0.425 Goal=   None    Shift=    0.000
 RMSDP=7.52D-04 MaxDP=1.71D-02 DE=-3.64D-03 OVMax= 2.16D-02

 Cycle   5  Pass 1  IDiag  1:
 E= -1351.67760164308     Delta-E=       -0.010414669634 Rises=F Damp=F
 DIIS: error= 8.89D-04 at cycle   5 NSaved=   5.
 NSaved= 5 IEnMin= 5 EnMin= -1351.67760164308     IErMin= 5 ErrMin= 8.89D-04
 ErrMax= 8.89D-04  0.00D+00 EMaxC= 1.00D+00 BMatC= 3.43D-04 BMatP= 1.55D-02
 IDIUse=1 WtCom= 1.00D+00 WtEn= 0.00D+00
 Coeff-Com: -0.328D-01 0.735D-03 0.120D+00 0.201D+00 0.711D+00
 Coeff:     -0.328D-01 0.735D-03 0.120D+00 0.201D+00 0.711D+00
 Gap=     0.421 Goal=   None    Shift=    0.000
 RMSDP=1.30D-04 MaxDP=2.72D-03 DE=-1.04D-02 OVMax= 3.82D-03

 Cycle   6  Pass 1  IDiag  1:
 E= -1351.67784445512     Delta-E=       -0.000242812036 Rises=F Damp=F
 DIIS: error= 4.10D-04 at cycle   6 NSaved=   6.
 NSaved= 6 IEnMin= 6 EnMin= -1351.67784445512     IErMin= 6 ErrMin= 4.10D-04
 ErrMax= 4.10D-04  0.00D+00 EMaxC= 1.00D+00 BMatC= 7.93D-05 BMatP= 3.43D-04
 IDIUse=1 WtCom= 1.00D+00 WtEn= 0.00D+00
 Coeff-Com: -0.100D-02 0.122D-04-0.317D-01 0.242D-02 0.351D+00 0.680D+00
 Coeff:     -0.100D-02 0.122D-04-0.317D-01 0.242D-02 0.351D+00 0.680D+00
 Gap=     0.421 Goal=   None    Shift=    0.000
 RMSDP=7.94D-05 MaxDP=2.29D-03 DE=-2.43D-04 OVMax= 1.56D-03

 Cycle   7  Pass 1  IDiag  1:
 E= -1351.67790234819     Delta-E=       -0.000057893071 Rises=F Damp=F
 DIIS: error= 8.54D-05 at cycle   7 NSaved=   7.
 NSaved= 7 IEnMin= 7 EnMin= -1351.67790234819     IErMin= 7 ErrMin= 8.54D-05
 ErrMax= 8.54D-05  0.00D+00 EMaxC= 1.00D+00 BMatC= 3.83D-06 BMatP= 7.93D-05
 IDIUse=1 WtCom= 1.00D+00 WtEn= 0.00D+00
 Coeff-Com:  0.243D-02-0.124D-03-0.216D-01-0.184D-01 0.471D-01 0.223D+00
 Coeff-Com:  0.768D+00
 Coeff:      0.243D-02-0.124D-03-0.216D-01-0.184D-01 0.471D-01 0.223D+00
 Coeff:      0.768D+00
 Gap=     0.421 Goal=   None    Shift=    0.000
 RMSDP=2.39D-05 MaxDP=6.26D-04 DE=-5.79D-05 OVMax= 5.70D-04

 Cycle   8  Pass 1  IDiag  1:
 E= -1351.67790598025     Delta-E=       -0.000003632063 Rises=F Damp=F
 DIIS: error= 3.92D-05 at cycle   8 NSaved=   8.
 NSaved= 8 IEnMin= 8 EnMin= -1351.67790598025     IErMin= 8 ErrMin= 3.92D-05
 ErrMax= 3.92D-05  0.00D+00 EMaxC= 1.00D+00 BMatC= 9.71D-07 BMatP= 3.83D-06
 IDIUse=1 WtCom= 1.00D+00 WtEn= 0.00D+00
 Coeff-Com:  0.125D-02-0.418D-04-0.681D-02-0.961D-02-0.193D-01 0.304D-01
 Coeff-Com:  0.389D+00 0.615D+00
 Coeff:      0.125D-02-0.418D-04-0.681D-02-0.961D-02-0.193D-01 0.304D-01
 Coeff:      0.389D+00 0.615D+00
 Gap=     0.421 Goal=   None    Shift=    0.000
 RMSDP=9.12D-06 MaxDP=2.35D-04 DE=-3.63D-06 OVMax= 2.02D-04

 Cycle   9  Pass 1  IDiag  1:
 E= -1351.67790680446     Delta-E=       -0.000000824207 Rises=F Damp=F
 DIIS: error= 9.10D-06 at cycle   9 NSaved=   9.
 NSaved= 9 IEnMin= 9 EnMin= -1351.67790680446     IErMin= 9 ErrMin= 9.10D-06
 ErrMax= 9.10D-06  0.00D+00 EMaxC= 1.00D+00 BMatC= 4.21D-08 BMatP= 9.71D-07
 IDIUse=1 WtCom= 1.00D+00 WtEn= 0.00D+00
 Coeff-Com:  0.112D-03 0.421D-05 0.429D-03-0.748D-03-0.105D-01-0.156D-01
 Coeff-Com:  0.169D-01 0.166D+00 0.843D+00
 Coeff:      0.112D-03 0.421D-05 0.429D-03-0.748D-03-0.105D-01-0.156D-01
 Coeff:      0.169D-01 0.166D+00 0.843D+00
 Gap=     0.421 Goal=   None    Shift=    0.000
 RMSDP=3.06D-06 MaxDP=6.54D-05 DE=-8.24D-07 OVMax= 7.73D-05

 Cycle  10  Pass 1  IDiag  1:
 E= -1351.67790685719     Delta-E=       -0.000000052735 Rises=F Damp=F
 DIIS: error= 4.09D-06 at cycle  10 NSaved=  10.
 NSaved=10 IEnMin=10 EnMin= -1351.67790685719     IErMin=10 ErrMin= 4.09D-06
 ErrMax= 4.09D-06  0.00D+00 EMaxC= 1.00D+00 BMatC= 7.78D-09 BMatP= 4.21D-08
 IDIUse=1 WtCom= 1.00D+00 WtEn= 0.00D+00
 Coeff-Com: -0.851D-04 0.797D-05 0.887D-03 0.710D-03-0.233D-02-0.916D-02
 Coeff-Com: -0.328D-01 0.740D-02 0.342D+00 0.694D+00
 Coeff:     -0.851D-04 0.797D-05 0.887D-03 0.710D-03-0.233D-02-0.916D-02
 Coeff:     -0.328D-01 0.740D-02 0.342D+00 0.694D+00
 Gap=     0.421 Goal=   None    Shift=    0.000
 RMSDP=1.06D-06 MaxDP=3.22D-05 DE=-5.27D-08 OVMax= 2.27D-05

 Cycle  11  Pass 1  IDiag  1:
 E= -1351.67790686413     Delta-E=       -0.000000006933 Rises=F Damp=F
 DIIS: error= 1.23D-06 at cycle  11 NSaved=  11.
 NSaved=11 IEnMin=11 EnMin= -1351.67790686413     IErMin=11 ErrMin= 1.23D-06
 ErrMax= 1.23D-06  0.00D+00 EMaxC= 1.00D+00 BMatC= 8.05D-10 BMatP= 7.78D-09
 IDIUse=1 WtCom= 1.00D+00 WtEn= 0.00D+00
 Coeff-Com: -0.343D-04-0.912D-06 0.237D-03 0.301D-03 0.221D-03-0.150D-02
 Coeff-Com: -0.130D-01-0.140D-01 0.301D-01 0.250D+00 0.748D+00
 Coeff:     -0.343D-04-0.912D-06 0.237D-03 0.301D-03 0.221D-03-0.150D-02
 Coeff:     -0.130D-01-0.140D-01 0.301D-01 0.250D+00 0.748D+00
 Gap=     0.421 Goal=   None    Shift=    0.000
 RMSDP=3.40D-07 MaxDP=8.14D-06 DE=-6.93D-09 OVMax= 9.31D-06

 Cycle  12  Pass 1  IDiag  1:
 E= -1351.67790686497     Delta-E=       -0.000000000848 Rises=F Damp=F
 DIIS: error= 4.27D-07 at cycle  12 NSaved=  12.
 NSaved=12 IEnMin=12 EnMin= -1351.67790686497     IErMin=12 ErrMin= 4.27D-07
 ErrMax= 4.27D-07  0.00D+00 EMaxC= 1.00D+00 BMatC= 1.29D-10 BMatP= 8.05D-10
 IDIUse=1 WtCom= 1.00D+00 WtEn= 0.00D+00
 Coeff-Com: -0.506D-05-0.721D-06-0.125D-04 0.411D-04 0.404D-03 0.510D-03
 Coeff-Com: -0.149D-02-0.719D-02-0.325D-01 0.595D-02 0.307D+00 0.727D+00
 Coeff:     -0.506D-05-0.721D-06-0.125D-04 0.411D-04 0.404D-03 0.510D-03
 Coeff:     -0.149D-02-0.719D-02-0.325D-01 0.595D-02 0.307D+00 0.727D+00
 Gap=     0.421 Goal=   None    Shift=    0.000
 RMSDP=1.58D-07 MaxDP=5.60D-06 DE=-8.48D-10 OVMax= 3.31D-06

 Cycle  13  Pass 1  IDiag  1:
 E= -1351.67790686510     Delta-E=       -0.000000000131 Rises=F Damp=F
 DIIS: error= 1.94D-07 at cycle  13 NSaved=  13.
 NSaved=13 IEnMin=13 EnMin= -1351.67790686510     IErMin=13 ErrMin= 1.94D-07
 ErrMax= 1.94D-07  0.00D+00 EMaxC= 1.00D+00 BMatC= 1.78D-11 BMatP= 1.29D-10
 IDIUse=1 WtCom= 1.00D+00 WtEn= 0.00D+00
 Coeff-Com:  0.268D-05 0.466D-07-0.406D-04-0.268D-04 0.144D-03 0.448D-03
 Coeff-Com:  0.135D-02-0.120D-02-0.184D-01-0.334D-01 0.302D-01 0.311D+00
 Coeff-Com:  0.709D+00
 Coeff:      0.268D-05 0.466D-07-0.406D-04-0.268D-04 0.144D-03 0.448D-03
 Coeff:      0.135D-02-0.120D-02-0.184D-01-0.334D-01 0.302D-01 0.311D+00
 Coeff:      0.709D+00
 Gap=     0.421 Goal=   None    Shift=    0.000
 RMSDP=4.80D-08 MaxDP=1.19D-06 DE=-1.31D-10 OVMax= 1.52D-06

 Cycle  14  Pass 1  IDiag  1:
 E= -1351.67790686514     Delta-E=       -0.000000000034 Rises=F Damp=F
 DIIS: error= 6.35D-08 at cycle  14 NSaved=  14.
 NSaved=14 IEnMin=14 EnMin= -1351.67790686514     IErMin=14 ErrMin= 6.35D-08
 ErrMax= 6.35D-08  0.00D+00 EMaxC= 1.00D+00 BMatC= 1.85D-12 BMatP= 1.78D-11
 IDIUse=1 WtCom= 1.00D+00 WtEn= 0.00D+00
 Coeff-Com:  0.172D-05 0.722D-08-0.145D-04-0.150D-04 0.160D-04 0.133D-03
 Coeff-Com:  0.745D-03 0.244D-03-0.383D-02-0.142D-01-0.209D-01 0.411D-01
 Coeff-Com:  0.273D+00 0.724D+00
 Coeff:      0.172D-05 0.722D-08-0.145D-04-0.150D-04 0.160D-04 0.133D-03
 Coeff:      0.745D-03 0.244D-03-0.383D-02-0.142D-01-0.209D-01 0.411D-01
 Coeff:      0.273D+00 0.724D+00
 Gap=     0.421 Goal=   None    Shift=    0.000
 RMSDP=2.01D-08 MaxDP=5.77D-07 DE=-3.37D-11 OVMax= 4.31D-07

 Cycle  15  Pass 1  IDiag  1:
 E= -1351.67790686514     Delta-E=       -0.000000000002 Rises=F Damp=F
 DIIS: error= 2.13D-08 at cycle  15 NSaved=  15.
 NSaved=15 IEnMin=15 EnMin= -1351.67790686514     IErMin=15 ErrMin= 2.13D-08
 ErrMax= 2.13D-08  0.00D+00 EMaxC= 1.00D+00 BMatC= 2.46D-13 BMatP= 1.85D-12
 IDIUse=1 WtCom= 1.00D+00 WtEn= 0.00D+00
 Coeff-Com:  0.224D-06-0.418D-08 0.470D-06-0.155D-05-0.138D-04-0.958D-05
 Coeff-Com:  0.933D-04 0.248D-03 0.114D-02-0.383D-03-0.118D-01-0.295D-01
 Coeff-Com: -0.108D-02 0.283D+00 0.759D+00
 Coeff:      0.224D-06-0.418D-08 0.470D-06-0.155D-05-0.138D-04-0.958D-05
 Coeff:      0.933D-04 0.248D-03 0.114D-02-0.383D-03-0.118D-01-0.295D-01
 Coeff:     -0.108D-02 0.283D+00 0.759D+00
 Gap=     0.421 Goal=   None    Shift=    0.000
 RMSDP=7.03D-09 MaxDP=1.84D-07 DE=-1.82D-12 OVMax= 2.27D-07

 SCF Done:  E(RwB97XD) =  -1351.67790687     A.U. after   15 cycles
            NFock= 15  Conv=0.70D-08     -V/T= 2.0015
 KE= 1.349701823739D+03 PE=-4.779720166562D+03 EE= 1.299653893749D+03
 Leave Link  502 at Sat Sep 14 17:58:32 2024, MaxMem=  4294967296 cpu:            1425.4 elap:              95.4
 (Enter /home/appl/Gaussian/g16/l701.exe)
 ... and contract with generalized density number  0.
 Compute integral first derivatives.
 R6Disp: Adding Grimme-D2 dispersion energy 1st derivatives to the gradient.
 Leave Link  701 at Sat Sep 14 17:58:37 2024, MaxMem=  4294967296 cpu:              52.3 elap:               3.1
 (Enter /home/appl/Gaussian/g16/l702.exe)
 L702 exits ... SP integral derivatives will be done elsewhere.
 Leave Link  702 at Sat Sep 14 17:58:38 2024, MaxMem=  4294967296 cpu:               3.2 elap:               0.2
 (Enter /home/appl/Gaussian/g16/l703.exe)
 Integral derivatives from FoFJK, PRISM(SPDF).
 Compute integral first derivatives, UseDBF=F ICtDFT=           0.
 Calling FoFJK, ICntrl=      2127 FMM=F ISym2X=0 I1Cent= 0 IOpClX= 0 NMat=1 NMatS=1 NMatT=0.
 FoFJK:  IHMeth= 1 ICntrl=    2127 DoSepK=T KAlg= 0 I1Cent=           0 FoldK=F
 IRaf=         1 NMat=       1 IRICut=       1 DoRegI=T DoRafI=F ISym2E= 0 IDoP0=0 IntGTp=1.
 FoFCou: FMM=F IPFlag=           0 FMFlag=      100000 FMFlg1=         800
         NFxFlg=           0 DoJE=F BraDBF=F KetDBF=F FulRan=T
         wScrn=  0.000000 ICntrl=      2527 IOpCl=  0 I1Cent=           0 NGrid=           0
         NMat0=    1 NMatS0=      1 NMatT0=    0 NMatD0=    1 NMtDS0=    0 NMtDT0=    0
 Symmetry not used in FoFCou.
 Leave Link  703 at Sat Sep 14 17:58:45 2024, MaxMem=  4294967296 cpu:             109.4 elap:               6.8
 (Enter /home/appl/Gaussian/g16/l716.exe)
 Dipole        =-6.82771084D-02 3.52694441D-02 2.16765641D-01
 ***** Axes restored to original set *****
 -------------------------------------------------------------------
 Center     Atomic                   Forces (Hartrees/Bohr)
 Number     Number              X              Y              Z
 -------------------------------------------------------------------
      1       16          -0.039467982   -0.004286426   -0.013019659
      2        9          -0.010179091    0.005688789   -0.001385826
      3        8           0.006859315   -0.001313844   -0.007590281
      4        8           0.045882226    0.002579476    0.019360620
      5        7           0.001914054   -0.003637518   -0.012243817
      6       16           0.020102702   -0.007684894   -0.023776641
      7        9          -0.027801622    0.020197641    0.074535244
      8        8          -0.002878734    0.001713032   -0.029739085
      9        8           0.005569131   -0.013256256   -0.006140555
 -------------------------------------------------------------------
 Cartesian Forces:  Max     0.074535244 RMS     0.022400671
 Leave Link  716 at Sat Sep 14 17:58:46 2024, MaxMem=  4294967296 cpu:               2.5 elap:               0.2
 (Enter /home/appl/Gaussian/g16/l103.exe)

 GradGradGradGradGradGradGradGradGradGradGradGradGradGradGradGradGradGrad
 Berny optimization.
 Using GEDIIS/GDIIS optimizer.
 FormGI is forming the generalized inverse of G from B-inverse, IUseBI=4.
 Internal  Forces:  Max     0.080611150 RMS     0.022560483
 Search for a local minimum.
 Step number   3 out of a maximum of  100
 All quantities printed in internal units (Hartrees-Bohrs-Radians)
 RMS Force = .22560D-01 SwitMx=.10000D-02 MixMth= 1
 Mixed Optimization -- RFO/linear search
 Update second derivatives using D2CorX and points    2    3
 DE= -5.45D-02 DEPred=-3.93D-02 R= 1.39D+00
 TightC=F SS=  1.41D+00  RLast= 6.52D-01 DXNew= 8.4853D-01 1.9558D+00
 Trust test= 1.39D+00 RLast= 6.52D-01 DXMaxT set to 8.49D-01
 ITU=  1  1  0
 Use linear search instead of GDIIS.
     Eigenvalues ---    0.03483   0.04030   0.15058   0.16548   0.18226
     Eigenvalues ---    0.22608   0.24713   0.25000   0.25000   0.25000
     Eigenvalues ---    0.25000   0.25892   0.28482   0.49642   0.63517
     Eigenvalues ---    0.71024   0.93797   0.99247   1.16462   1.32589
     Eigenvalues ---    2.24318
 RFO step:  Lambda=-2.67345591D-02 EMin= 3.48311345D-02
 Quartic linear search produced a step of -0.09345.
 Iteration  1 RMS(Cart)=  0.08282453 RMS(Int)=  0.00455640
 Iteration  2 RMS(Cart)=  0.00463196 RMS(Int)=  0.00152073
 Iteration  3 RMS(Cart)=  0.00001396 RMS(Int)=  0.00152070
 Iteration  4 RMS(Cart)=  0.00000007 RMS(Int)=  0.00152070
 ITry= 1 IFail=0 DXMaxC= 2.32D-01 DCOld= 1.00D+10 DXMaxT= 8.49D-01 DXLimC= 3.00D+00 Rises=F
 Variable       Old X    -DE/DX   Delta X   Delta X   Delta X     New X
                                 (Linear)    (Quad)   (Total)
    R1        3.10879   0.00321  -0.00580   0.02140   0.01560   3.12439
    R2        2.73805  -0.00898  -0.00608   0.01677   0.01069   2.74874
    R3        2.65586   0.04870  -0.01449   0.06948   0.05499   2.71084
    R4        2.97837   0.00308  -0.00821   0.03632   0.02810   3.00648
    R5        3.00189   0.00402  -0.00407   0.02719   0.02311   3.02500
    R6        2.87436   0.08061  -0.02076   0.11066   0.08990   2.96426
    R7        2.72884  -0.00055  -0.00247   0.01249   0.01002   2.73885
    R8        2.73623  -0.00859   0.00075  -0.00530  -0.00455   2.73168
    A1        1.85543  -0.01279  -0.00907  -0.03310  -0.04216   1.81327
    A2        1.74402   0.01322   0.01225   0.02664   0.03855   1.78257
    A3        1.78494   0.00224  -0.00171   0.01278   0.01093   1.79587
    A4        2.11727  -0.00909  -0.00524  -0.02238  -0.02765   2.08962
    A5        2.02085  -0.00009  -0.00085  -0.00156  -0.00244   2.01841
    A6        1.88803   0.00883   0.00553   0.02379   0.02918   1.91722
    A7        2.19767  -0.00524  -0.00171   0.00201   0.00030   2.19797
    A8        1.72956   0.02559   0.01215   0.07776   0.08900   1.81856
    A9        1.89051  -0.00145  -0.00360  -0.00754  -0.01488   1.87563
   A10        2.03684  -0.00912  -0.00543  -0.03142  -0.04000   1.99683
   A11        1.70994   0.03249   0.02414   0.09800   0.12042   1.83036
   A12        1.82114  -0.00158   0.00458   0.00351   0.00761   1.82874
   A13        2.17951  -0.02215  -0.02278  -0.06578  -0.09321   2.08631
    D1       -1.53728   0.01141   0.00208   0.03968   0.04206  -1.49521
    D2        0.47162  -0.00261  -0.01001   0.00720  -0.00283   0.46879
    D3        2.91514  -0.00675  -0.01279  -0.00208  -0.01516   2.89998
    D4       -1.24132   0.00972   0.00051   0.01247   0.01411  -1.22721
    D5       -3.01446  -0.03447  -0.03017  -0.12031  -0.14874   3.11999
    D6        0.69922   0.01991   0.01100   0.05186   0.05999   0.75922
         Item               Value     Threshold  Converged?
 Maximum Force            0.080611     0.000450     NO 
 RMS     Force            0.022560     0.000300     NO 
 Maximum Displacement     0.232068     0.001800     NO 
 RMS     Displacement     0.083648     0.001200     NO 
 Predicted change in Energy=-1.420890D-02
 Lowest energy point so far.  Saving SCF results.
 GradGradGradGradGradGradGradGradGradGradGradGradGradGradGradGradGradGrad

 Leave Link  103 at Sat Sep 14 17:59:07 2024, MaxMem=  4294967296 cpu:             249.3 elap:              20.7
 (Enter /home/appl/Gaussian/g16/l202.exe)
                          Input orientation:                          
 ---------------------------------------------------------------------
 Center     Atomic      Atomic             Coordinates (Angstroms)
 Number     Number       Type             X           Y           Z
 ---------------------------------------------------------------------
      1         16           0        0.989408    7.042666    5.166114
      2          9           0        0.932773    7.648915    3.628958
      3          8           0        0.101493    7.915129    5.918568
      4          8           0        2.397113    7.051432    5.442030
      5          7           0        0.485489    5.545625    4.976164
      6         16           0       -1.040553    5.062399    4.964703
      7          9           0       -1.509030    5.232264    6.452061
      8          8           0       -1.041973    3.631317    4.735383
      9          8           0       -1.929095    5.907628    4.199410
 ---------------------------------------------------------------------
                    Distance matrix (angstroms):
                    1          2          3          4          5
     1  S    0.000000
     2  F    1.653358   0.000000
     3  O    1.454569   2.450349   0.000000
     4  O    1.434517   2.405931   2.498586   0.000000
     5  N    1.590958   2.537490   2.578784   2.477658   0.000000
     6  S    2.843021   3.516858   3.217484   4.000205   1.600763
     7  F    3.342665   4.446629   3.174297   4.425775   2.500914
     8  O    3.993663   4.611387   4.588953   4.901413   2.460831
     9  O    3.277269   3.398203   3.332995   4.644186   2.562149
                    6          7          8          9
     6  S    0.000000
     7  F    1.568617   0.000000
     8  O    1.449339   2.393357   0.000000
     9  O    1.445542   2.388934   2.501168   0.000000
 Stoichiometry    F2NO4S2(1-)
 Framework group  C1[X(F2NO4S2)]
 Deg. of freedom    21
 Full point group                 C1      NOp   1
 RotChk:  IX=0 Diff= 9.11D-01
 Largest Abelian subgroup         C1      NOp   1
 Largest concise Abelian subgroup C1      NOp   1
                         Standard orientation:                         
 ---------------------------------------------------------------------
 Center     Atomic      Atomic             Coordinates (Angstroms)
 Number     Number       Type             X           Y           Z
 ---------------------------------------------------------------------
      1         16           0        1.401102   -0.157806   -0.075344
      2          9           0        1.832216    1.399983    0.272550
      3          8           0        1.360274   -0.807653    1.225349
      4          8           0        2.400125   -0.540919   -1.030863
      5          7           0       -0.003218    0.016367   -0.802460
      6         16           0       -1.427510    0.128015   -0.080402
      7          9           0       -1.685379   -1.311716    0.486376
      8          8           0       -2.426997    0.305056   -1.114938
      9          8           0       -1.442964    0.989477    1.080304
 ---------------------------------------------------------------------
 Rotational constants (GHZ):           2.5482677           0.8568112           0.8445044
 Leave Link  202 at Sat Sep 14 17:59:08 2024, MaxMem=  4294967296 cpu:               3.5 elap:               0.4
 (Enter /home/appl/Gaussian/g16/l301.exe)
 Standard basis: 6-311++G(d,p) (5D, 7F)
 Ernie: Thresh=  0.10000D-02 Tol=  0.10000D-05 Strict=F.
 There are   223 symmetry adapted cartesian basis functions of A   symmetry.
 There are   214 symmetry adapted basis functions of A   symmetry.
   214 basis functions,   352 primitive gaussians,   223 cartesian basis functions
    45 alpha electrons       45 beta electrons
       nuclear repulsion energy       769.3965780231 Hartrees.
 IExCor= 4639 DFT=T Ex+Corr=wB97XD ExCW=0 ScaHFX=  1.000000
 ScaDFX=  1.000000  1.000000  1.000000  1.000000 ScalE2=  1.000000  1.000000
 IRadAn=      5 IRanWt=     -1 IRanGd=            0 ICorTp=0 IEmpDi=121
 HFx  wShort=  0.000000 wLong=  0.200000 cFull=  0.222036 cShort=  0.000000 cLong=  0.777964
 DFx  wShort=  0.000000 wLong=  0.200000 cFull=  0.000000 cShort=  0.000000 cLong=  1.000000
 NAtoms=    9 NActive=    9 NUniq=    9 SFac= 1.00D+00 NAtFMM=   60 NAOKFM=F Big=F
 Integral buffers will be    131072 words long.
 Raffenetti 2 integral format.
 Two-electron integral symmetry is turned on.
 R6Disp:  Grimme-D2 Dispersion energy=       -0.0028332644 Hartrees.
 Nuclear repulsion after empirical dispersion term =      769.3937447587 Hartrees.
 Leave Link  301 at Sat Sep 14 17:59:09 2024, MaxMem=  4294967296 cpu:               3.8 elap:               0.3
 (Enter /home/appl/Gaussian/g16/l302.exe)
 NPDir=0 NMtPBC=     1 NCelOv=     1 NCel=       1 NClECP=     1 NCelD=      1
         NCelK=      1 NCelE2=     1 NClLst=     1 CellRange=     0.0.
 One-electron integrals computed using PRISM.
 One-electron integral symmetry used in STVInt
 NBasis=   214 RedAO= T EigKep=  2.57D-04  NBF=   214
 NBsUse=   214 1.00D-06 EigRej= -1.00D+00 NBFU=   214
 Precomputing XC quadrature grid using
 IXCGrd= 4 IRadAn=           5 IRanWt=          -1 IRanGd=           0 AccXCQ= 0.00D+00.
 Generated NRdTot=       0 NPtTot=           0 NUsed=           0 NTot=          32
 NSgBfM=   223   223   223   223   223 MxSgAt=     9 MxSgA2=     9.
 Leave Link  302 at Sat Sep 14 17:59:18 2024, MaxMem=  4294967296 cpu:             142.2 elap:               8.0
 (Enter /home/appl/Gaussian/g16/l303.exe)
 DipDrv:  MaxL=1.
 Leave Link  303 at Sat Sep 14 17:59:19 2024, MaxMem=  4294967296 cpu:              12.8 elap:               0.8
 (Enter /home/appl/Gaussian/g16/l401.exe)
 Initial guess from the checkpoint file:  "/scr/Gau-148765.chk"
 B after Tr=    -0.000000    0.000000   -0.000000
         Rot=    0.946773   -0.321890    0.002753    0.000253 Ang= -37.56 deg.
 Guess basis will be translated and rotated to current coordinates.
 JPrj=2 DoOrth=T DoCkMO=T.
 Generating alternative initial guess.
 ExpMin= 4.05D-02 ExpMax= 9.34D+04 ExpMxC= 3.17D+03 IAcc=3 IRadAn=         5 AccDes= 0.00D+00
 Harris functional with IExCor= 4639 and IRadAn=       5 diagonalized for initial guess.
 HarFok:  IExCor= 4639 AccDes= 0.00D+00 IRadAn=         5 IDoV= 1 UseB2=F ITyADJ=14
 ICtDFT=  3500011 ScaDFX=  1.000000  1.000000  1.000000  1.000000
 FoFCou: FMM=F IPFlag=           0 FMFlag=      100000 FMFlg1=           0
         NFxFlg=           0 DoJE=T BraDBF=F KetDBF=T FulRan=T
         wScrn=  0.000000 ICntrl=       500 IOpCl=  0 I1Cent=   200000004 NGrid=           0
         NMat0=    1 NMatS0=      1 NMatT0=    0 NMatD0=    1 NMtDS0=    0 NMtDT0=    0
 Petite list used in FoFCou.
 Harris En= -1319.91173641898    
 Leave Link  401 at Sat Sep 14 17:59:30 2024, MaxMem=  4294967296 cpu:             172.3 elap:              10.3
 (Enter /home/appl/Gaussian/g16/l502.exe)
 Keep R1 ints in memory in canonical form, NReq=576265202.
 FoFCou: FMM=F IPFlag=           0 FMFlag=           0 FMFlg1=           0
         NFxFlg=           0 DoJE=F BraDBF=F KetDBF=F FulRan=T
         wScrn=  0.000000 ICntrl=       600 IOpCl=  0 I1Cent=           0 NGrid=           0
         NMat0=    1 NMatS0=  23005 NMatT0=    0 NMatD0=    1 NMtDS0=    0 NMtDT0=    0
 Symmetry not used in FoFCou.
 Two-electron integral symmetry not used.
 Closed shell SCF:
 Using DIIS extrapolation, IDIIS=  1040.
 NGot=  4294967296 LenX=  3765603616 LenY=  3765553446
 Requested convergence on RMS density matrix=1.00D-08 within 128 cycles.
 Requested convergence on MAX density matrix=1.00D-06.
 Requested convergence on             energy=1.00D-06.
 No special actions if energy rises.

 Cycle   1  Pass 1  IDiag  1:
 E= -1351.66579702645    
 DIIS: error= 4.64D-03 at cycle   1 NSaved=   1.
 NSaved= 1 IEnMin= 1 EnMin= -1351.66579702645     IErMin= 1 ErrMin= 4.64D-03
 ErrMax= 4.64D-03  0.00D+00 EMaxC= 1.00D-01 BMatC= 1.62D-02 BMatP= 1.62D-02
 IDIUse=3 WtCom= 9.54D-01 WtEn= 4.64D-02
 Coeff-Com:  0.100D+01
 Coeff-En:   0.100D+01
 Coeff:      0.100D+01
 Gap=     0.662 Goal=   None    Shift=    0.000
 GapD=    0.662 DampG=2.000 DampE=1.000 DampFc=2.0000 IDamp=-1.
 RMSDP=1.99D-03 MaxDP=4.88D-02              OVMax= 3.36D-02

 Cycle   2  Pass 1  IDiag  1:
 E= -1351.68970033064     Delta-E=       -0.023903304189 Rises=F Damp=F
 DIIS: error= 1.10D-03 at cycle   2 NSaved=   2.
 NSaved= 2 IEnMin= 2 EnMin= -1351.68970033064     IErMin= 2 ErrMin= 1.10D-03
 ErrMax= 1.10D-03  0.00D+00 EMaxC= 1.00D-01 BMatC= 8.10D-04 BMatP= 1.62D-02
 IDIUse=3 WtCom= 9.89D-01 WtEn= 1.10D-02
 Coeff-Com: -0.116D+00 0.112D+01
 Coeff-En:   0.000D+00 0.100D+01
 Coeff:     -0.115D+00 0.112D+01
 Gap=     0.422 Goal=   None    Shift=    0.000
 RMSDP=4.69D-04 MaxDP=1.48D-02 DE=-2.39D-02 OVMax= 1.10D-02

 Cycle   3  Pass 1  IDiag  1:
 E= -1351.69095781146     Delta-E=       -0.001257480815 Rises=F Damp=F
 DIIS: error= 1.44D-03 at cycle   3 NSaved=   3.
 NSaved= 3 IEnMin= 3 EnMin= -1351.69095781146     IErMin= 2 ErrMin= 1.10D-03
 ErrMax= 1.44D-03  0.00D+00 EMaxC= 1.00D-01 BMatC= 4.83D-04 BMatP= 8.10D-04
 IDIUse=3 WtCom= 9.86D-01 WtEn= 1.44D-02
 Coeff-Com: -0.859D-01 0.526D+00 0.560D+00
 Coeff-En:   0.000D+00 0.000D+00 0.100D+01
 Coeff:     -0.846D-01 0.519D+00 0.566D+00
 Gap=     0.420 Goal=   None    Shift=    0.000
 RMSDP=1.42D-04 MaxDP=2.42D-03 DE=-1.26D-03 OVMax= 4.06D-03

 Cycle   4  Pass 1  IDiag  1:
 E= -1351.69125622888     Delta-E=       -0.000298417421 Rises=F Damp=F
 DIIS: error= 4.06D-04 at cycle   4 NSaved=   4.
 NSaved= 4 IEnMin= 4 EnMin= -1351.69125622888     IErMin= 4 ErrMin= 4.06D-04
 ErrMax= 4.06D-04  0.00D+00 EMaxC= 1.00D-01 BMatC= 5.28D-05 BMatP= 4.83D-04
 IDIUse=3 WtCom= 9.96D-01 WtEn= 4.06D-03
 Coeff-Com: -0.132D-01 0.678D-02 0.237D+00 0.769D+00
 Coeff-En:   0.000D+00 0.000D+00 0.000D+00 0.100D+01
 Coeff:     -0.132D-01 0.675D-02 0.236D+00 0.770D+00
 Gap=     0.420 Goal=   None    Shift=    0.000
 RMSDP=7.34D-05 MaxDP=2.30D-03 DE=-2.98D-04 OVMax= 1.35D-03

 Cycle   5  Pass 1  IDiag  1:
 E= -1351.69129974693     Delta-E=       -0.000043518052 Rises=F Damp=F
 DIIS: error= 8.68D-05 at cycle   5 NSaved=   5.
 NSaved= 5 IEnMin= 5 EnMin= -1351.69129974693     IErMin= 5 ErrMin= 8.68D-05
 ErrMax= 8.68D-05  0.00D+00 EMaxC= 1.00D-01 BMatC= 3.87D-06 BMatP= 5.28D-05
 IDIUse=1 WtCom= 1.00D+00 WtEn= 0.00D+00
 Coeff-Com:  0.313D-02-0.481D-01 0.271D-01 0.268D+00 0.749D+00
 Coeff:      0.313D-02-0.481D-01 0.271D-01 0.268D+00 0.749D+00
 Gap=     0.420 Goal=   None    Shift=    0.000
 RMSDP=2.65D-05 MaxDP=6.92D-04 DE=-4.35D-05 OVMax= 5.31D-04

 Cycle   6  Pass 1  IDiag  1:
 E= -1351.69130318621     Delta-E=       -0.000003439279 Rises=F Damp=F
 DIIS: error= 5.91D-05 at cycle   6 NSaved=   6.
 NSaved= 6 IEnMin= 6 EnMin= -1351.69130318621     IErMin= 6 ErrMin= 5.91D-05
 ErrMax= 5.91D-05  0.00D+00 EMaxC= 1.00D-01 BMatC= 1.02D-06 BMatP= 3.87D-06
 IDIUse=1 WtCom= 1.00D+00 WtEn= 0.00D+00
 Coeff-Com:  0.308D-02-0.264D-01-0.120D-01 0.569D-01 0.391D+00 0.588D+00
 Coeff:      0.308D-02-0.264D-01-0.120D-01 0.569D-01 0.391D+00 0.588D+00
 Gap=     0.420 Goal=   None    Shift=    0.000
 RMSDP=7.42D-06 MaxDP=1.46D-04 DE=-3.44D-06 OVMax= 1.89D-04

 Cycle   7  Pass 1  IDiag  1:
 E= -1351.69130393631     Delta-E=       -0.000000750103 Rises=F Damp=F
 DIIS: error= 1.09D-05 at cycle   7 NSaved=   7.
 NSaved= 7 IEnMin= 7 EnMin= -1351.69130393631     IErMin= 7 ErrMin= 1.09D-05
 ErrMax= 1.09D-05  0.00D+00 EMaxC= 1.00D-01 BMatC= 5.19D-08 BMatP= 1.02D-06
 IDIUse=1 WtCom= 1.00D+00 WtEn= 0.00D+00
 Coeff-Com:  0.636D-03-0.301D-02-0.737D-02-0.126D-01 0.408D-01 0.198D+00
 Coeff-Com:  0.784D+00
 Coeff:      0.636D-03-0.301D-02-0.737D-02-0.126D-01 0.408D-01 0.198D+00
 Coeff:      0.784D+00
 Gap=     0.420 Goal=   None    Shift=    0.000
 RMSDP=3.12D-06 MaxDP=7.95D-05 DE=-7.50D-07 OVMax= 6.17D-05

 Cycle   8  Pass 1  IDiag  1:
 E= -1351.69130398701     Delta-E=       -0.000000050698 Rises=F Damp=F
 DIIS: error= 3.90D-06 at cycle   8 NSaved=   8.
 NSaved= 8 IEnMin= 8 EnMin= -1351.69130398701     IErMin= 8 ErrMin= 3.90D-06
 ErrMax= 3.90D-06  0.00D+00 EMaxC= 1.00D-01 BMatC= 6.99D-09 BMatP= 5.19D-08
 IDIUse=1 WtCom= 1.00D+00 WtEn= 0.00D+00
 Coeff-Com: -0.339D-04 0.135D-02-0.186D-02-0.108D-01-0.215D-01 0.225D-01
 Coeff-Com:  0.307D+00 0.704D+00
 Coeff:     -0.339D-04 0.135D-02-0.186D-02-0.108D-01-0.215D-01 0.225D-01
 Coeff:      0.307D+00 0.704D+00
 Gap=     0.420 Goal=   None    Shift=    0.000
 RMSDP=1.09D-06 MaxDP=2.79D-05 DE=-5.07D-08 OVMax= 2.72D-05

 Cycle   9  Pass 1  IDiag  1:
 E= -1351.69130399322     Delta-E=       -0.000000006208 Rises=F Damp=F
 DIIS: error= 1.92D-06 at cycle   9 NSaved=   9.
 NSaved= 9 IEnMin= 9 EnMin= -1351.69130399322     IErMin= 9 ErrMin= 1.92D-06
 ErrMax= 1.92D-06  0.00D+00 EMaxC= 1.00D-01 BMatC= 1.50D-09 BMatP= 6.99D-09
 IDIUse=1 WtCom= 1.00D+00 WtEn= 0.00D+00
 Coeff-Com: -0.992D-04 0.106D-02 0.102D-03-0.352D-02-0.163D-01-0.166D-01
 Coeff-Com:  0.356D-01 0.350D+00 0.649D+00
 Coeff:     -0.992D-04 0.106D-02 0.102D-03-0.352D-02-0.163D-01-0.166D-01
 Coeff:      0.356D-01 0.350D+00 0.649D+00
 Gap=     0.420 Goal=   None    Shift=    0.000
 RMSDP=3.53D-07 MaxDP=6.85D-06 DE=-6.21D-09 OVMax= 1.04D-05

 Cycle  10  Pass 1  IDiag  1:
 E= -1351.69130399454     Delta-E=       -0.000000001322 Rises=F Damp=F
 DIIS: error= 5.05D-07 at cycle  10 NSaved=  10.
 NSaved=10 IEnMin=10 EnMin= -1351.69130399454     IErMin=10 ErrMin= 5.05D-07
 ErrMax= 5.05D-07  0.00D+00 EMaxC= 1.00D-01 BMatC= 9.36D-11 BMatP= 1.50D-09
 IDIUse=1 WtCom= 1.00D+00 WtEn= 0.00D+00
 Coeff-Com: -0.258D-04 0.158D-03 0.208D-03 0.125D-03-0.244D-02-0.757D-02
 Coeff-Com: -0.256D-01 0.267D-01 0.198D+00 0.811D+00
 Coeff:     -0.258D-04 0.158D-03 0.208D-03 0.125D-03-0.244D-02-0.757D-02
 Coeff:     -0.256D-01 0.267D-01 0.198D+00 0.811D+00
 Gap=     0.420 Goal=   None    Shift=    0.000
 RMSDP=1.62D-07 MaxDP=3.24D-06 DE=-1.32D-09 OVMax= 5.13D-06

 Cycle  11  Pass 1  IDiag  1:
 E= -1351.69130399468     Delta-E=       -0.000000000138 Rises=F Damp=F
 DIIS: error= 2.75D-07 at cycle  11 NSaved=  11.
 NSaved=11 IEnMin=11 EnMin= -1351.69130399468     IErMin=11 ErrMin= 2.75D-07
 ErrMax= 2.75D-07  0.00D+00 EMaxC= 1.00D-01 BMatC= 2.73D-11 BMatP= 9.36D-11
 IDIUse=1 WtCom= 1.00D+00 WtEn= 0.00D+00
 Coeff-Com:  0.404D-05-0.102D-03 0.858D-04 0.673D-03 0.157D-02-0.824D-03
 Coeff-Com: -0.181D-01-0.455D-01-0.142D-01 0.402D+00 0.674D+00
 Coeff:      0.404D-05-0.102D-03 0.858D-04 0.673D-03 0.157D-02-0.824D-03
 Coeff:     -0.181D-01-0.455D-01-0.142D-01 0.402D+00 0.674D+00
 Gap=     0.420 Goal=   None    Shift=    0.000
 RMSDP=5.55D-08 MaxDP=9.58D-07 DE=-1.38D-10 OVMax= 2.50D-06

 Cycle  12  Pass 1  IDiag  1:
 E= -1351.69130399470     Delta-E=       -0.000000000023 Rises=F Damp=F
 DIIS: error= 5.31D-08 at cycle  12 NSaved=  12.
 NSaved=12 IEnMin=12 EnMin= -1351.69130399470     IErMin=12 ErrMin= 5.31D-08
 ErrMax= 5.31D-08  0.00D+00 EMaxC= 1.00D-01 BMatC= 1.64D-12 BMatP= 2.73D-11
 IDIUse=1 WtCom= 1.00D+00 WtEn= 0.00D+00
 Coeff-Com:  0.395D-05-0.472D-04 0.664D-05 0.205D-03 0.788D-03 0.646D-03
 Coeff-Com: -0.321D-02-0.173D-01-0.261D-01 0.321D-01 0.209D+00 0.804D+00
 Coeff:      0.395D-05-0.472D-04 0.664D-05 0.205D-03 0.788D-03 0.646D-03
 Coeff:     -0.321D-02-0.173D-01-0.261D-01 0.321D-01 0.209D+00 0.804D+00
 Gap=     0.420 Goal=   None    Shift=    0.000
 RMSDP=2.32D-08 MaxDP=5.32D-07 DE=-2.27D-11 OVMax= 8.55D-07

 Cycle  13  Pass 1  IDiag  1:
 E= -1351.69130399470     Delta-E=        0.000000000004 Rises=F Damp=F
 DIIS: error= 2.26D-08 at cycle  13 NSaved=  13.
 NSaved=13 IEnMin=12 EnMin= -1351.69130399470     IErMin=13 ErrMin= 2.26D-08
 ErrMax= 2.26D-08  0.00D+00 EMaxC= 1.00D-01 BMatC= 2.41D-13 BMatP= 1.64D-12
 IDIUse=1 WtCom= 1.00D+00 WtEn= 0.00D+00
 Coeff-Com:  0.785D-06-0.276D-05-0.752D-05-0.153D-04 0.788D-04 0.363D-03
 Coeff-Com:  0.121D-02-0.138D-03-0.748D-02-0.433D-01-0.134D-01 0.294D+00
 Coeff-Com:  0.769D+00
 Coeff:      0.785D-06-0.276D-05-0.752D-05-0.153D-04 0.788D-04 0.363D-03
 Coeff:      0.121D-02-0.138D-03-0.748D-02-0.433D-01-0.134D-01 0.294D+00
 Coeff:      0.769D+00
 Gap=     0.420 Goal=   None    Shift=    0.000
 RMSDP=8.15D-09 MaxDP=2.16D-07 DE= 3.64D-12 OVMax= 3.00D-07

 SCF Done:  E(RwB97XD) =  -1351.69130399     A.U. after   13 cycles
            NFock= 13  Conv=0.82D-08     -V/T= 2.0017
 KE= 1.349343874629D+03 PE=-4.760728501320D+03 EE= 1.290299577938D+03
 Leave Link  502 at Sat Sep 14 18:00:52 2024, MaxMem=  4294967296 cpu:            1328.6 elap:              82.5
 (Enter /home/appl/Gaussian/g16/l701.exe)
 ... and contract with generalized density number  0.
 Compute integral first derivatives.
 R6Disp: Adding Grimme-D2 dispersion energy 1st derivatives to the gradient.
 Leave Link  701 at Sat Sep 14 18:00:58 2024, MaxMem=  4294967296 cpu:              45.9 elap:               2.8
 (Enter /home/appl/Gaussian/g16/l702.exe)
 L702 exits ... SP integral derivatives will be done elsewhere.
 Leave Link  702 at Sat Sep 14 18:00:59 2024, MaxMem=  4294967296 cpu:               2.1 elap:               0.2
 (Enter /home/appl/Gaussian/g16/l703.exe)
 Integral derivatives from FoFJK, PRISM(SPDF).
 Compute integral first derivatives, UseDBF=F ICtDFT=           0.
 Calling FoFJK, ICntrl=      2127 FMM=F ISym2X=0 I1Cent= 0 IOpClX= 0 NMat=1 NMatS=1 NMatT=0.
 FoFJK:  IHMeth= 1 ICntrl=    2127 DoSepK=T KAlg= 0 I1Cent=           0 FoldK=F
 IRaf=         1 NMat=       1 IRICut=       1 DoRegI=T DoRafI=F ISym2E= 0 IDoP0=0 IntGTp=1.
 FoFCou: FMM=F IPFlag=           0 FMFlag=      100000 FMFlg1=         800
         NFxFlg=           0 DoJE=F BraDBF=F KetDBF=F FulRan=T
         wScrn=  0.000000 ICntrl=      2527 IOpCl=  0 I1Cent=           0 NGrid=           0
         NMat0=    1 NMatS0=      1 NMatT0=    0 NMatD0=    1 NMtDS0=    0 NMtDT0=    0
 Symmetry not used in FoFCou.
 Leave Link  703 at Sat Sep 14 18:01:06 2024, MaxMem=  4294967296 cpu:             106.1 elap:               6.6
 (Enter /home/appl/Gaussian/g16/l716.exe)
 Dipole        =-1.32507572D-01-2.24555697D-01 1.46373058D-01
 ***** Axes restored to original set *****
 -------------------------------------------------------------------
 Center     Atomic                   Forces (Hartrees/Bohr)
 Number     Number              X              Y              Z
 -------------------------------------------------------------------
      1       16          -0.019476921    0.003708030    0.001272974
      2        9          -0.002512112   -0.001932417    0.003358610
      3        8           0.009305152   -0.007496639   -0.007214159
      4        8           0.004308548   -0.001911349    0.002324630
      5        7           0.001714664    0.000778881    0.005226075
      6       16           0.018564151   -0.004521468   -0.044860725
      7        9          -0.008718286    0.003065997    0.031208894
      8        8          -0.002337811    0.012509570    0.004495507
      9        8          -0.000847385   -0.004200605    0.004188193
 -------------------------------------------------------------------
 Cartesian Forces:  Max     0.044860725 RMS     0.012655526
 Leave Link  716 at Sat Sep 14 18:01:07 2024, MaxMem=  4294967296 cpu:               2.0 elap:               0.2
 (Enter /home/appl/Gaussian/g16/l103.exe)

 GradGradGradGradGradGradGradGradGradGradGradGradGradGradGradGradGradGrad
 Berny optimization.
 Using GEDIIS/GDIIS optimizer.
 FormGI is forming the generalized inverse of G from B-inverse, IUseBI=4.
 Internal  Forces:  Max     0.032528114 RMS     0.008601935
 Search for a local minimum.
 Step number   4 out of a maximum of  100
 All quantities printed in internal units (Hartrees-Bohrs-Radians)
 RMS Force = .86019D-02 SwitMx=.10000D-02 MixMth= 1
 Mixed Optimization -- RFO/linear search
 Update second derivatives using D2CorX and points    2    3    4
 DE= -1.34D-02 DEPred=-1.42D-02 R= 9.43D-01
 TightC=F SS=  1.41D+00  RLast= 2.81D-01 DXNew= 1.4270D+00 8.4231D-01
 Trust test= 9.43D-01 RLast= 2.81D-01 DXMaxT set to 8.49D-01
 ITU=  1  1  1  0
 Use linear search instead of GDIIS.
     Eigenvalues ---    0.03488   0.04019   0.14982   0.17006   0.18018
     Eigenvalues ---    0.23150   0.24509   0.24996   0.25000   0.25000
     Eigenvalues ---    0.25006   0.26970   0.31847   0.49914   0.59078
     Eigenvalues ---    0.68406   0.85180   0.99298   1.16509   1.30297
     Eigenvalues ---    2.27270
 RFO step:  Lambda=-3.56069188D-03 EMin= 3.48792848D-02
 Quartic linear search produced a step of  0.02461.
 Iteration  1 RMS(Cart)=  0.04022066 RMS(Int)=  0.00077927
 Iteration  2 RMS(Cart)=  0.00118759 RMS(Int)=  0.00021095
 Iteration  3 RMS(Cart)=  0.00000050 RMS(Int)=  0.00021095
 ITry= 1 IFail=0 DXMaxC= 1.08D-01 DCOld= 1.00D+10 DXMaxT= 8.49D-01 DXLimC= 3.00D+00 Rises=F
 Variable       Old X    -DE/DX   Delta X   Delta X   Delta X     New X
                                 (Linear)    (Quad)   (Total)
    R1        3.12439  -0.00375   0.00038  -0.00232  -0.00194   3.12246
    R2        2.74874  -0.01391   0.00026  -0.00706  -0.00680   2.74194
    R3        2.71084   0.00466   0.00135   0.01849   0.01984   2.73069
    R4        3.00648  -0.00987   0.00069  -0.00475  -0.00406   3.00242
    R5        3.02500  -0.00838   0.00057  -0.00791  -0.00734   3.01766
    R6        2.96426   0.03253   0.00221   0.04746   0.04967   3.01393
    R7        2.73885  -0.01306   0.00025  -0.00956  -0.00932   2.72954
    R8        2.73168  -0.00415  -0.00011  -0.00589  -0.00600   2.72568
    A1        1.81327  -0.00075  -0.00104  -0.00785  -0.00886   1.80440
    A2        1.78257   0.00448   0.00095   0.02352   0.02446   1.80703
    A3        1.79587  -0.00299   0.00027  -0.00965  -0.00937   1.78650
    A4        2.08962  -0.00002  -0.00068  -0.00328  -0.00395   2.08567
    A5        2.01841   0.00292  -0.00006   0.01125   0.01121   2.02962
    A6        1.91722  -0.00360   0.00072  -0.01258  -0.01186   1.90536
    A7        2.19797  -0.01117   0.00001  -0.04719  -0.04719   2.15079
    A8        1.81856  -0.00528   0.00219  -0.01795  -0.01574   1.80282
    A9        1.87563   0.00355  -0.00037   0.01498   0.01414   1.88977
   A10        1.99683   0.00860  -0.00098   0.03431   0.03293   2.02976
   A11        1.83036  -0.00395   0.00296  -0.01529  -0.01238   1.81799
   A12        1.82874  -0.00249   0.00019  -0.01533  -0.01506   1.81368
   A13        2.08631  -0.00266  -0.00229  -0.00950  -0.01244   2.07387
    D1       -1.49521   0.00239   0.00103   0.04053   0.04160  -1.45361
    D2        0.46879   0.00095  -0.00007   0.03024   0.03016   0.49895
    D3        2.89998   0.00001  -0.00037   0.02306   0.02267   2.92265
    D4       -1.22721  -0.00083   0.00035   0.00297   0.00343  -1.22378
    D5        3.11999   0.00450  -0.00366   0.02200   0.01872   3.13871
    D6        0.75922  -0.00292   0.00148  -0.00993  -0.00895   0.75027
         Item               Value     Threshold  Converged?
 Maximum Force            0.032528     0.000450     NO 
 RMS     Force            0.008602     0.000300     NO 
 Maximum Displacement     0.107653     0.001800     NO 
 RMS     Displacement     0.040480     0.001200     NO 
 Predicted change in Energy=-1.812562D-03
 Lowest energy point so far.  Saving SCF results.
 GradGradGradGradGradGradGradGradGradGradGradGradGradGradGradGradGradGrad

 Leave Link  103 at Sat Sep 14 18:01:25 2024, MaxMem=  4294967296 cpu:             207.9 elap:              17.3
 (Enter /home/appl/Gaussian/g16/l202.exe)
                          Input orientation:                          
 ---------------------------------------------------------------------
 Center     Atomic      Atomic             Coordinates (Angstroms)
 Number     Number       Type             X           Y           Z
 ---------------------------------------------------------------------
      1         16           0        0.981253    7.029442    5.171249
      2          9           0        0.875805    7.633936    3.637080
      3          8           0        0.086821    7.882926    5.930772
      4          8           0        2.398976    7.058033    5.449316
      5          7           0        0.518312    5.522234    4.975456
      6         16           0       -1.014240    5.074819    4.941937
      7          9           0       -1.488742    5.278126    6.450985
      8          8           0       -1.064404    3.644736    4.745307
      9          8           0       -1.908157    5.913123    4.181290
 ---------------------------------------------------------------------
                    Distance matrix (angstroms):
                    1          2          3          4          5
     1  S    0.000000
     2  F    1.652334   0.000000
     3  O    1.450972   2.438342   0.000000
     4  O    1.445018   2.436373   2.501662   0.000000
     5  N    1.588812   2.525537   2.582960   2.473887   0.000000
     6  S    2.802700   3.438605   3.174208   3.980027   1.596878
     7  F    3.287204   4.365659   3.088365   4.391555   2.503006
     8  O    3.977735   4.572340   4.548945   4.913372   2.466365
     9  O    3.251904   3.317802   3.304655   4.633584   2.582875
                    6          7          8          9
     6  S    0.000000
     7  F    1.594902   0.000000
     8  O    1.444408   2.399450   0.000000
     9  O    1.442368   2.393876   2.485078   0.000000
 Stoichiometry    F2NO4S2(1-)
 Framework group  C1[X(F2NO4S2)]
 Deg. of freedom    21
 Full point group                 C1      NOp   1
 RotChk:  IX=0 Diff= 1.31D-01
 Largest Abelian subgroup         C1      NOp   1
 Largest concise Abelian subgroup C1      NOp   1
                         Standard orientation:                         
 ---------------------------------------------------------------------
 Center     Atomic      Atomic             Coordinates (Angstroms)
 Number     Number       Type             X           Y           Z
 ---------------------------------------------------------------------
      1         16           0        1.386362   -0.157819   -0.062923
      2          9           0        1.766656    1.432754    0.173005
      3          8           0        1.332410   -0.693691    1.284390
      4          8           0        2.410671   -0.619249   -0.971741
      5          7           0        0.003255   -0.065239   -0.839304
      6         16           0       -1.401663    0.125578   -0.104582
      7          9           0       -1.627895   -1.275171    0.623725
      8          8           0       -2.436601    0.171802   -1.111102
      9          8           0       -1.434832    1.085422    0.971533
 ---------------------------------------------------------------------
 Rotational constants (GHZ):           2.5399627           0.8746569           0.8601080
 Leave Link  202 at Sat Sep 14 18:01:26 2024, MaxMem=  4294967296 cpu:               3.2 elap:               0.4
 (Enter /home/appl/Gaussian/g16/l301.exe)
 Standard basis: 6-311++G(d,p) (5D, 7F)
 Ernie: Thresh=  0.10000D-02 Tol=  0.10000D-05 Strict=F.
 There are   223 symmetry adapted cartesian basis functions of A   symmetry.
 There are   214 symmetry adapted basis functions of A   symmetry.
   214 basis functions,   352 primitive gaussians,   223 cartesian basis functions
    45 alpha electrons       45 beta electrons
       nuclear repulsion energy       771.8463737484 Hartrees.
 IExCor= 4639 DFT=T Ex+Corr=wB97XD ExCW=0 ScaHFX=  1.000000
 ScaDFX=  1.000000  1.000000  1.000000  1.000000 ScalE2=  1.000000  1.000000
 IRadAn=      5 IRanWt=     -1 IRanGd=            0 ICorTp=0 IEmpDi=121
 HFx  wShort=  0.000000 wLong=  0.200000 cFull=  0.222036 cShort=  0.000000 cLong=  0.777964
 DFx  wShort=  0.000000 wLong=  0.200000 cFull=  0.000000 cShort=  0.000000 cLong=  1.000000
 NAtoms=    9 NActive=    9 NUniq=    9 SFac= 1.00D+00 NAtFMM=   60 NAOKFM=F Big=F
 Integral buffers will be    131072 words long.
 Raffenetti 2 integral format.
 Two-electron integral symmetry is turned on.
 R6Disp:  Grimme-D2 Dispersion energy=       -0.0028498616 Hartrees.
 Nuclear repulsion after empirical dispersion term =      771.8435238868 Hartrees.
 Leave Link  301 at Sat Sep 14 18:01:27 2024, MaxMem=  4294967296 cpu:               4.4 elap:               0.3
 (Enter /home/appl/Gaussian/g16/l302.exe)
 NPDir=0 NMtPBC=     1 NCelOv=     1 NCel=       1 NClECP=     1 NCelD=      1
         NCelK=      1 NCelE2=     1 NClLst=     1 CellRange=     0.0.
 One-electron integrals computed using PRISM.
 One-electron integral symmetry used in STVInt
 NBasis=   214 RedAO= T EigKep=  2.33D-04  NBF=   214
 NBsUse=   214 1.00D-06 EigRej= -1.00D+00 NBFU=   214
 Precomputing XC quadrature grid using
 IXCGrd= 4 IRadAn=           5 IRanWt=          -1 IRanGd=           0 AccXCQ= 0.00D+00.
 Generated NRdTot=       0 NPtTot=           0 NUsed=           0 NTot=          32
 NSgBfM=   223   223   223   223   223 MxSgAt=     9 MxSgA2=     9.
 Leave Link  302 at Sat Sep 14 18:01:35 2024, MaxMem=  4294967296 cpu:             127.6 elap:               7.1
 (Enter /home/appl/Gaussian/g16/l303.exe)
 DipDrv:  MaxL=1.
 Leave Link  303 at Sat Sep 14 18:01:36 2024, MaxMem=  4294967296 cpu:              11.6 elap:               0.8
 (Enter /home/appl/Gaussian/g16/l401.exe)
 Initial guess from the checkpoint file:  "/scr/Gau-148765.chk"
 B after Tr=     0.000000    0.000000    0.000000
         Rot=    0.998935    0.045936    0.000401   -0.004284 Ang=   5.29 deg.
 Guess basis will be translated and rotated to current coordinates.
 JPrj=2 DoOrth=T DoCkMO=T.
 Generating alternative initial guess.
 ExpMin= 4.05D-02 ExpMax= 9.34D+04 ExpMxC= 3.17D+03 IAcc=3 IRadAn=         5 AccDes= 0.00D+00
 Harris functional with IExCor= 4639 and IRadAn=       5 diagonalized for initial guess.
 HarFok:  IExCor= 4639 AccDes= 0.00D+00 IRadAn=         5 IDoV= 1 UseB2=F ITyADJ=14
 ICtDFT=  3500011 ScaDFX=  1.000000  1.000000  1.000000  1.000000
 FoFCou: FMM=F IPFlag=           0 FMFlag=      100000 FMFlg1=           0
         NFxFlg=           0 DoJE=T BraDBF=F KetDBF=T FulRan=T
         wScrn=  0.000000 ICntrl=       500 IOpCl=  0 I1Cent=   200000004 NGrid=           0
         NMat0=    1 NMatS0=      1 NMatT0=    0 NMatD0=    1 NMtDS0=    0 NMtDT0=    0
 Petite list used in FoFCou.
 Harris En= -1319.91475803598    
 Leave Link  401 at Sat Sep 14 18:01:47 2024, MaxMem=  4294967296 cpu:             168.1 elap:               9.9
 (Enter /home/appl/Gaussian/g16/l502.exe)
 Keep R1 ints in memory in canonical form, NReq=576265202.
 FoFCou: FMM=F IPFlag=           0 FMFlag=           0 FMFlg1=           0
         NFxFlg=           0 DoJE=F BraDBF=F KetDBF=F FulRan=T
         wScrn=  0.000000 ICntrl=       600 IOpCl=  0 I1Cent=           0 NGrid=           0
         NMat0=    1 NMatS0=  23005 NMatT0=    0 NMatD0=    1 NMtDS0=    0 NMtDT0=    0
 Symmetry not used in FoFCou.
 Two-electron integral symmetry not used.
 Closed shell SCF:
 Using DIIS extrapolation, IDIIS=  1040.
 NGot=  4294967296 LenX=  3765603616 LenY=  3765553446
 Requested convergence on RMS density matrix=1.00D-08 within 128 cycles.
 Requested convergence on MAX density matrix=1.00D-06.
 Requested convergence on             energy=1.00D-06.
 No special actions if energy rises.

 Cycle   1  Pass 1  IDiag  1:
 E= -1351.68950802280    
 DIIS: error= 1.65D-03 at cycle   1 NSaved=   1.
 NSaved= 1 IEnMin= 1 EnMin= -1351.68950802280     IErMin= 1 ErrMin= 1.65D-03
 ErrMax= 1.65D-03  0.00D+00 EMaxC= 1.00D-01 BMatC= 2.79D-03 BMatP= 2.79D-03
 IDIUse=3 WtCom= 9.83D-01 WtEn= 1.65D-02
 Coeff-Com:  0.100D+01
 Coeff-En:   0.100D+01
 Coeff:      0.100D+01
 Gap=     0.673 Goal=   None    Shift=    0.000
 GapD=    0.673 DampG=2.000 DampE=1.000 DampFc=2.0000 IDamp=-1.
 RMSDP=6.96D-04 MaxDP=1.37D-02              OVMax= 1.04D-02

 Cycle   2  Pass 1  IDiag  1:
 E= -1351.69322899782     Delta-E=       -0.003720975026 Rises=F Damp=F
 DIIS: error= 9.16D-04 at cycle   2 NSaved=   2.
 NSaved= 2 IEnMin= 2 EnMin= -1351.69322899782     IErMin= 2 ErrMin= 9.16D-04
 ErrMax= 9.16D-04  0.00D+00 EMaxC= 1.00D-01 BMatC= 3.57D-04 BMatP= 2.79D-03
 IDIUse=3 WtCom= 9.91D-01 WtEn= 9.16D-03
 Coeff-Com:  0.698D-01 0.930D+00
 Coeff-En:   0.000D+00 0.100D+01
 Coeff:      0.692D-01 0.931D+00
 Gap=     0.424 Goal=   None    Shift=    0.000
 RMSDP=1.95D-04 MaxDP=4.07D-03 DE=-3.72D-03 OVMax= 4.19D-03

 Cycle   3  Pass 1  IDiag  1:
 E= -1351.69333161943     Delta-E=       -0.000102621610 Rises=F Damp=F
 DIIS: error= 1.03D-03 at cycle   3 NSaved=   3.
 NSaved= 3 IEnMin= 3 EnMin= -1351.69333161943     IErMin= 2 ErrMin= 9.16D-04
 ErrMax= 1.03D-03  0.00D+00 EMaxC= 1.00D-01 BMatC= 3.83D-04 BMatP= 3.57D-04
 IDIUse=3 WtCom= 9.90D-01 WtEn= 1.03D-02
 Coeff-Com: -0.923D-01 0.544D+00 0.548D+00
 Coeff-En:   0.000D+00 0.374D+00 0.626D+00
 Coeff:     -0.914D-01 0.542D+00 0.549D+00
 Gap=     0.426 Goal=   None    Shift=    0.000
 RMSDP=1.15D-04 MaxDP=3.42D-03 DE=-1.03D-04 OVMax= 2.49D-03

 Cycle   4  Pass 1  IDiag  1:
 E= -1351.69357446183     Delta-E=       -0.000242842396 Rises=F Damp=F
 DIIS: error= 9.42D-05 at cycle   4 NSaved=   4.
 NSaved= 4 IEnMin= 4 EnMin= -1351.69357446183     IErMin= 4 ErrMin= 9.42D-05
 ErrMax= 9.42D-05  0.00D+00 EMaxC= 1.00D-01 BMatC= 3.77D-06 BMatP= 3.57D-04
 IDIUse=1 WtCom= 1.00D+00 WtEn= 0.00D+00
 Coeff-Com: -0.154D-01 0.307D-01 0.956D-01 0.889D+00
 Coeff:     -0.154D-01 0.307D-01 0.956D-01 0.889D+00
 Gap=     0.425 Goal=   None    Shift=    0.000
 RMSDP=2.40D-05 MaxDP=4.49D-04 DE=-2.43D-04 OVMax= 5.53D-04

 Cycle   5  Pass 1  IDiag  1:
 E= -1351.69357797530     Delta-E=       -0.000003513474 Rises=F Damp=F
 DIIS: error= 6.26D-05 at cycle   5 NSaved=   5.
 NSaved= 5 IEnMin= 5 EnMin= -1351.69357797530     IErMin= 5 ErrMin= 6.26D-05
 ErrMax= 6.26D-05  0.00D+00 EMaxC= 1.00D-01 BMatC= 1.68D-06 BMatP= 3.77D-06
 IDIUse=1 WtCom= 1.00D+00 WtEn= 0.00D+00
 Coeff-Com:  0.109D-02-0.407D-01-0.532D-02 0.480D+00 0.565D+00
 Coeff:      0.109D-02-0.407D-01-0.532D-02 0.480D+00 0.565D+00
 Gap=     0.425 Goal=   None    Shift=    0.000
 RMSDP=8.31D-06 MaxDP=1.69D-04 DE=-3.51D-06 OVMax= 2.15D-04

 Cycle   6  Pass 1  IDiag  1:
 E= -1351.69357919080     Delta-E=       -0.000001215494 Rises=F Damp=F
 DIIS: error= 1.43D-05 at cycle   6 NSaved=   6.
 NSaved= 6 IEnMin= 6 EnMin= -1351.69357919080     IErMin= 6 ErrMin= 1.43D-05
 ErrMax= 1.43D-05  0.00D+00 EMaxC= 1.00D-01 BMatC= 8.88D-08 BMatP= 1.68D-06
 IDIUse=1 WtCom= 1.00D+00 WtEn= 0.00D+00
 Coeff-Com:  0.269D-02-0.181D-01-0.184D-01 0.112D-01 0.185D+00 0.837D+00
 Coeff:      0.269D-02-0.181D-01-0.184D-01 0.112D-01 0.185D+00 0.837D+00
 Gap=     0.425 Goal=   None    Shift=    0.000
 RMSDP=3.82D-06 MaxDP=8.81D-05 DE=-1.22D-06 OVMax= 1.06D-04

 Cycle   7  Pass 1  IDiag  1:
 E= -1351.69357929176     Delta-E=       -0.000000100958 Rises=F Damp=F
 DIIS: error= 4.01D-06 at cycle   7 NSaved=   7.
 NSaved= 7 IEnMin= 7 EnMin= -1351.69357929176     IErMin= 7 ErrMin= 4.01D-06
 ErrMax= 4.01D-06  0.00D+00 EMaxC= 1.00D-01 BMatC= 1.11D-08 BMatP= 8.88D-08
 IDIUse=1 WtCom= 1.00D+00 WtEn= 0.00D+00
 Coeff-Com:  0.106D-02-0.510D-02-0.757D-02-0.225D-01 0.439D-01 0.349D+00
 Coeff-Com:  0.642D+00
 Coeff:      0.106D-02-0.510D-02-0.757D-02-0.225D-01 0.439D-01 0.349D+00
 Coeff:      0.642D+00
 Gap=     0.425 Goal=   None    Shift=    0.000
 RMSDP=1.04D-06 MaxDP=2.78D-05 DE=-1.01D-07 OVMax= 2.93D-05

 Cycle   8  Pass 1  IDiag  1:
 E= -1351.69357930138     Delta-E=       -0.000000009627 Rises=F Damp=F
 DIIS: error= 2.66D-06 at cycle   8 NSaved=   8.
 NSaved= 8 IEnMin= 8 EnMin= -1351.69357930138     IErMin= 8 ErrMin= 2.66D-06
 ErrMax= 2.66D-06  0.00D+00 EMaxC= 1.00D-01 BMatC= 2.01D-09 BMatP= 1.11D-08
 IDIUse=1 WtCom= 1.00D+00 WtEn= 0.00D+00
 Coeff-Com: -0.162D-03 0.213D-02 0.881D-03-0.134D-01-0.258D-01-0.469D-01
 Coeff-Com:  0.287D+00 0.796D+00
 Coeff:     -0.162D-03 0.213D-02 0.881D-03-0.134D-01-0.258D-01-0.469D-01
 Coeff:      0.287D+00 0.796D+00
 Gap=     0.425 Goal=   None    Shift=    0.000
 RMSDP=6.08D-07 MaxDP=1.00D-05 DE=-9.63D-09 OVMax= 1.93D-05

 Cycle   9  Pass 1  IDiag  1:
 E= -1351.69357930366     Delta-E=       -0.000000002279 Rises=F Damp=F
 DIIS: error= 8.23D-07 at cycle   9 NSaved=   9.
 NSaved= 9 IEnMin= 9 EnMin= -1351.69357930366     IErMin= 9 ErrMin= 8.23D-07
 ErrMax= 8.23D-07  0.00D+00 EMaxC= 1.00D-01 BMatC= 1.44D-10 BMatP= 2.01D-09
 IDIUse=1 WtCom= 1.00D+00 WtEn= 0.00D+00
 Coeff-Com: -0.126D-03 0.113D-02 0.791D-03-0.411D-02-0.127D-01-0.387D-01
 Coeff-Com:  0.738D-01 0.306D+00 0.674D+00
 Coeff:     -0.126D-03 0.113D-02 0.791D-03-0.411D-02-0.127D-01-0.387D-01
 Coeff:      0.738D-01 0.306D+00 0.674D+00
 Gap=     0.425 Goal=   None    Shift=    0.000
 RMSDP=1.31D-07 MaxDP=2.62D-06 DE=-2.28D-09 OVMax= 4.62D-06

 Cycle  10  Pass 1  IDiag  1:
 E= -1351.69357930379     Delta-E=       -0.000000000130 Rises=F Damp=F
 DIIS: error= 4.07D-07 at cycle  10 NSaved=  10.
 NSaved=10 IEnMin=10 EnMin= -1351.69357930379     IErMin=10 ErrMin= 4.07D-07
 ErrMax= 4.07D-07  0.00D+00 EMaxC= 1.00D-01 BMatC= 3.83D-11 BMatP= 1.44D-10
 IDIUse=1 WtCom= 1.00D+00 WtEn= 0.00D+00
 Coeff-Com: -0.225D-04 0.440D-04 0.179D-03 0.109D-02-0.762D-04-0.739D-02
 Coeff-Com: -0.323D-01-0.406D-01 0.341D+00 0.738D+00
 Coeff:     -0.225D-04 0.440D-04 0.179D-03 0.109D-02-0.762D-04-0.739D-02
 Coeff:     -0.323D-01-0.406D-01 0.341D+00 0.738D+00
 Gap=     0.425 Goal=   None    Shift=    0.000
 RMSDP=7.50D-08 MaxDP=1.48D-06 DE=-1.30D-10 OVMax= 2.58D-06

 Cycle  11  Pass 1  IDiag  1:
 E= -1351.69357930384     Delta-E=       -0.000000000043 Rises=F Damp=F
 DIIS: error= 6.60D-08 at cycle  11 NSaved=  11.
 NSaved=11 IEnMin=11 EnMin= -1351.69357930384     IErMin=11 ErrMin= 6.60D-08
 ErrMax= 6.60D-08  0.00D+00 EMaxC= 1.00D-01 BMatC= 1.75D-12 BMatP= 3.83D-11
 IDIUse=1 WtCom= 1.00D+00 WtEn= 0.00D+00
 Coeff-Com:  0.680D-05-0.102D-03-0.362D-04 0.736D-03 0.128D-02 0.214D-02
 Coeff-Com: -0.162D-01-0.418D-01 0.224D-01 0.205D+00 0.827D+00
 Coeff:      0.680D-05-0.102D-03-0.362D-04 0.736D-03 0.128D-02 0.214D-02
 Coeff:     -0.162D-01-0.418D-01 0.224D-01 0.205D+00 0.827D+00
 Gap=     0.425 Goal=   None    Shift=    0.000
 RMSDP=2.24D-08 MaxDP=4.55D-07 DE=-4.27D-11 OVMax= 8.14D-07

 Cycle  12  Pass 1  IDiag  1:
 E= -1351.69357930385     Delta-E=       -0.000000000010 Rises=F Damp=F
 DIIS: error= 3.60D-08 at cycle  12 NSaved=  12.
 NSaved=12 IEnMin=12 EnMin= -1351.69357930385     IErMin=12 ErrMin= 3.60D-08
 ErrMax= 3.60D-08  0.00D+00 EMaxC= 1.00D-01 BMatC= 3.17D-13 BMatP= 1.75D-12
 IDIUse=1 WtCom= 1.00D+00 WtEn= 0.00D+00
 Coeff-Com:  0.502D-05-0.495D-04-0.322D-04 0.246D-03 0.589D-03 0.162D-02
 Coeff-Com: -0.466D-02-0.153D-01-0.201D-01 0.273D-01 0.349D+00 0.661D+00
 Coeff:      0.502D-05-0.495D-04-0.322D-04 0.246D-03 0.589D-03 0.162D-02
 Coeff:     -0.466D-02-0.153D-01-0.201D-01 0.273D-01 0.349D+00 0.661D+00
 Gap=     0.425 Goal=   None    Shift=    0.000
 RMSDP=6.33D-09 MaxDP=1.30D-07 DE=-1.00D-11 OVMax= 2.06D-07

 SCF Done:  E(RwB97XD) =  -1351.69357930     A.U. after   12 cycles
            NFock= 12  Conv=0.63D-08     -V/T= 2.0017
 KE= 1.349342488147D+03 PE=-4.765664777792D+03 EE= 1.292785186455D+03
 Leave Link  502 at Sat Sep 14 18:03:04 2024, MaxMem=  4294967296 cpu:            1216.3 elap:              77.6
 (Enter /home/appl/Gaussian/g16/l701.exe)
 ... and contract with generalized density number  0.
 Compute integral first derivatives.
 R6Disp: Adding Grimme-D2 dispersion energy 1st derivatives to the gradient.
 Leave Link  701 at Sat Sep 14 18:03:10 2024, MaxMem=  4294967296 cpu:              48.2 elap:               2.9
 (Enter /home/appl/Gaussian/g16/l702.exe)
 L702 exits ... SP integral derivatives will be done elsewhere.
 Leave Link  702 at Sat Sep 14 18:03:11 2024, MaxMem=  4294967296 cpu:               2.5 elap:               0.2
 (Enter /home/appl/Gaussian/g16/l703.exe)
 Integral derivatives from FoFJK, PRISM(SPDF).
 Compute integral first derivatives, UseDBF=F ICtDFT=           0.
 Calling FoFJK, ICntrl=      2127 FMM=F ISym2X=0 I1Cent= 0 IOpClX= 0 NMat=1 NMatS=1 NMatT=0.
 FoFJK:  IHMeth= 1 ICntrl=    2127 DoSepK=T KAlg= 0 I1Cent=           0 FoldK=F
 IRaf=         1 NMat=       1 IRICut=       1 DoRegI=T DoRafI=F ISym2E= 0 IDoP0=0 IntGTp=1.
 FoFCou: FMM=F IPFlag=           0 FMFlag=      100000 FMFlg1=         800
         NFxFlg=           0 DoJE=F BraDBF=F KetDBF=F FulRan=T
         wScrn=  0.000000 ICntrl=      2527 IOpCl=  0 I1Cent=           0 NGrid=           0
         NMat0=    1 NMatS0=      1 NMatT0=    0 NMatD0=    1 NMtDS0=    0 NMtDT0=    0
 Symmetry not used in FoFCou.
 Leave Link  703 at Sat Sep 14 18:03:18 2024, MaxMem=  4294967296 cpu:             106.0 elap:               6.4
 (Enter /home/appl/Gaussian/g16/l716.exe)
 Dipole        =-5.05352209D-02-1.09946629D-01 1.30042931D-01
 ***** Axes restored to original set *****
 -------------------------------------------------------------------
 Center     Atomic                   Forces (Hartrees/Bohr)
 Number     Number              X              Y              Z
 -------------------------------------------------------------------
      1       16          -0.001794254    0.006289091    0.003456012
      2        9           0.000823415   -0.001568204    0.003594324
      3        8           0.007468513   -0.006384916   -0.005428675
      4        8          -0.008281727   -0.000535009   -0.002697803
      5        7          -0.001867020    0.000992464    0.002771457
      6       16           0.005224120   -0.007959990   -0.023119518
      7        9          -0.004664767    0.002125569    0.019151641
      8        8           0.001497436    0.006654356    0.001718487
      9        8           0.001594284    0.000386639    0.000554074
 -------------------------------------------------------------------
 Cartesian Forces:  Max     0.023119518 RMS     0.007086227
 Leave Link  716 at Sat Sep 14 18:03:18 2024, MaxMem=  4294967296 cpu:               2.4 elap:               0.2
 (Enter /home/appl/Gaussian/g16/l103.exe)

 GradGradGradGradGradGradGradGradGradGradGradGradGradGradGradGradGradGrad
 Berny optimization.
 Using GEDIIS/GDIIS optimizer.
 FormGI is forming the generalized inverse of G from B-inverse, IUseBI=4.
 Internal  Forces:  Max     0.019777992 RMS     0.005120473
 Search for a local minimum.
 Step number   5 out of a maximum of  100
 All quantities printed in internal units (Hartrees-Bohrs-Radians)
 RMS Force = .51205D-02 SwitMx=.10000D-02 MixMth= 1
 Mixed Optimization -- RFO/linear search
 Update second derivatives using D2CorX and points    2    3    4    5
 DE= -2.28D-03 DEPred=-1.81D-03 R= 1.26D+00
 TightC=F SS=  1.41D+00  RLast= 1.10D-01 DXNew= 1.4270D+00 3.2918D-01
 Trust test= 1.26D+00 RLast= 1.10D-01 DXMaxT set to 8.49D-01
 ITU=  1  1  1  1  0
 Use linear search instead of GDIIS.
     Eigenvalues ---    0.03489   0.03807   0.15019   0.16961   0.18449
     Eigenvalues ---    0.22997   0.23368   0.24985   0.24997   0.25000
     Eigenvalues ---    0.26235   0.29266   0.31284   0.44862   0.51315
     Eigenvalues ---    0.67181   0.80469   0.99319   1.13838   1.25987
     Eigenvalues ---    2.32467
 RFO step:  Lambda=-9.11443594D-04 EMin= 3.48902489D-02
 Quartic linear search produced a step of  0.38164.
 Iteration  1 RMS(Cart)=  0.02082976 RMS(Int)=  0.00019869
 Iteration  2 RMS(Cart)=  0.00026546 RMS(Int)=  0.00006371
 Iteration  3 RMS(Cart)=  0.00000005 RMS(Int)=  0.00006371
 ITry= 1 IFail=0 DXMaxC= 5.42D-02 DCOld= 1.00D+10 DXMaxT= 8.49D-01 DXLimC= 3.00D+00 Rises=F
 Variable       Old X    -DE/DX   Delta X   Delta X   Delta X     New X
                                 (Linear)    (Quad)   (Total)
    R1        3.12246  -0.00396  -0.00074  -0.00739  -0.00813   3.11433
    R2        2.74194  -0.01120  -0.00259  -0.00866  -0.01125   2.73069
    R3        2.73069  -0.00865   0.00757   0.00275   0.01032   2.74101
    R4        3.00242  -0.00274  -0.00155   0.00095  -0.00060   3.00183
    R5        3.01766  -0.00381  -0.00280  -0.00343  -0.00623   3.01143
    R6        3.01393   0.01978   0.01896   0.02653   0.04548   3.05941
    R7        2.72954  -0.00687  -0.00356  -0.00560  -0.00916   2.72038
    R8        2.72568  -0.00105  -0.00229  -0.00142  -0.00371   2.72197
    A1        1.80440   0.00057  -0.00338   0.00420   0.00081   1.80522
    A2        1.80703  -0.00114   0.00933  -0.01213  -0.00282   1.80421
    A3        1.78650  -0.00001  -0.00358   0.00219  -0.00140   1.78510
    A4        2.08567   0.00019  -0.00151   0.00041  -0.00109   2.08458
    A5        2.02962   0.00159   0.00428   0.00905   0.01334   2.04296
    A6        1.90536  -0.00141  -0.00453  -0.00551  -0.01004   1.89532
    A7        2.15079   0.00016  -0.01801   0.00732  -0.01069   2.14010
    A8        1.80282  -0.00229  -0.00601  -0.00729  -0.01330   1.78952
    A9        1.88977  -0.00149   0.00539  -0.01001  -0.00477   1.88500
   A10        2.02976  -0.00113   0.01257  -0.01090   0.00154   2.03130
   A11        1.81799   0.00013  -0.00472   0.00408  -0.00069   1.81729
   A12        1.81368   0.00183  -0.00575   0.01083   0.00511   1.81878
   A13        2.07387   0.00262  -0.00475   0.01382   0.00888   2.08275
    D1       -1.45361  -0.00028   0.01588   0.01678   0.03267  -1.42095
    D2        0.49895   0.00109   0.01151   0.02709   0.03861   0.53756
    D3        2.92265   0.00150   0.00865   0.03130   0.03992   2.96257
    D4       -1.22378  -0.00093   0.00131  -0.01764  -0.01627  -1.24005
    D5        3.13871   0.00048   0.00715  -0.01527  -0.00804   3.13067
    D6        0.75027  -0.00071  -0.00342  -0.01429  -0.01785   0.73241
         Item               Value     Threshold  Converged?
 Maximum Force            0.019778     0.000450     NO 
 RMS     Force            0.005120     0.000300     NO 
 Maximum Displacement     0.054188     0.001800     NO 
 RMS     Displacement     0.020872     0.001200     NO 
 Predicted change in Energy=-6.408311D-04
 Lowest energy point so far.  Saving SCF results.
 GradGradGradGradGradGradGradGradGradGradGradGradGradGradGradGradGradGrad

 Leave Link  103 at Sat Sep 14 18:03:35 2024, MaxMem=  4294967296 cpu:             202.8 elap:              16.1
 (Enter /home/appl/Gaussian/g16/l202.exe)
                          Input orientation:                          
 ---------------------------------------------------------------------
 Center     Atomic      Atomic             Coordinates (Angstroms)
 Number     Number       Type             X           Y           Z
 ---------------------------------------------------------------------
      1         16           0        0.971996    7.026828    5.176916
      2          9           0        0.847130    7.620941    3.644779
      3          8           0        0.096086    7.884515    5.941917
      4          8           0        2.399475    7.055544    5.432589
      5          7           0        0.521070    5.515086    4.990839
      6         16           0       -1.009788    5.076407    4.931391
      7          9           0       -1.495591    5.288281    6.461152
      8          8           0       -1.056868    3.650102    4.742234
      9          8           0       -1.887885    5.919671    4.161576
 ---------------------------------------------------------------------
                    Distance matrix (angstroms):
                    1          2          3          4          5
     1  S    0.000000
     2  F    1.648031   0.000000
     3  O    1.445017   2.431129   0.000000
     4  O    1.450479   2.434279   2.500442   0.000000
     5  N    1.588497   2.520480   2.588312   2.469122   0.000000
     6  S    2.791397   3.402671   3.182702   3.973822   1.593581
     7  F    3.280365   4.342995   3.089251   4.399170   2.506029
     8  O    3.963271   4.538411   4.549593   4.901014   2.455577
     9  O    3.230423   3.262163   3.311551   4.613799   2.579618
                    6          7          8          9
     6  S    0.000000
     7  F    1.618970   0.000000
     8  O    1.439563   2.414702   0.000000
     9  O    1.440404   2.416733   2.485697   0.000000
 Stoichiometry    F2NO4S2(1-)
 Framework group  C1[X(F2NO4S2)]
 Deg. of freedom    21
 Full point group                 C1      NOp   1
 RotChk:  IX=0 Diff= 7.94D-02
 Largest Abelian subgroup         C1      NOp   1
 Largest concise Abelian subgroup C1      NOp   1
                         Standard orientation:                         
 ---------------------------------------------------------------------
 Center     Atomic      Atomic             Coordinates (Angstroms)
 Number     Number       Type             X           Y           Z
 ---------------------------------------------------------------------
      1         16           0        1.378839   -0.154983   -0.069488
      2          9           0        1.733477    1.420179    0.260816
      3          8           0        1.345333   -0.772475    1.236520
      4          8           0        2.410155   -0.540156   -1.013902
      5          7           0       -0.000926   -0.034672   -0.847368
      6         16           0       -1.397159    0.136371   -0.098518
      7          9           0       -1.619894   -1.322586    0.566986
      8          8           0       -2.429553    0.228059   -1.097567
      9          8           0       -1.416264    1.042342    1.021131
 ---------------------------------------------------------------------
 Rotational constants (GHZ):           2.5262173           0.8815252           0.8655803
 Leave Link  202 at Sat Sep 14 18:03:36 2024, MaxMem=  4294967296 cpu:               4.0 elap:               0.4
 (Enter /home/appl/Gaussian/g16/l301.exe)
 Standard basis: 6-311++G(d,p) (5D, 7F)
 Ernie: Thresh=  0.10000D-02 Tol=  0.10000D-05 Strict=F.
 There are   223 symmetry adapted cartesian basis functions of A   symmetry.
 There are   214 symmetry adapted basis functions of A   symmetry.
   214 basis functions,   352 primitive gaussians,   223 cartesian basis functions
    45 alpha electrons       45 beta electrons
       nuclear repulsion energy       772.4332716167 Hartrees.
 IExCor= 4639 DFT=T Ex+Corr=wB97XD ExCW=0 ScaHFX=  1.000000
 ScaDFX=  1.000000  1.000000  1.000000  1.000000 ScalE2=  1.000000  1.000000
 IRadAn=      5 IRanWt=     -1 IRanGd=            0 ICorTp=0 IEmpDi=121
 HFx  wShort=  0.000000 wLong=  0.200000 cFull=  0.222036 cShort=  0.000000 cLong=  0.777964
 DFx  wShort=  0.000000 wLong=  0.200000 cFull=  0.000000 cShort=  0.000000 cLong=  1.000000
 NAtoms=    9 NActive=    9 NUniq=    9 SFac= 1.00D+00 NAtFMM=   60 NAOKFM=F Big=F
 Integral buffers will be    131072 words long.
 Raffenetti 2 integral format.
 Two-electron integral symmetry is turned on.
 R6Disp:  Grimme-D2 Dispersion energy=       -0.0028595584 Hartrees.
 Nuclear repulsion after empirical dispersion term =      772.4304120583 Hartrees.
 Leave Link  301 at Sat Sep 14 18:03:37 2024, MaxMem=  4294967296 cpu:               3.1 elap:               0.5
 (Enter /home/appl/Gaussian/g16/l302.exe)
 NPDir=0 NMtPBC=     1 NCelOv=     1 NCel=       1 NClECP=     1 NCelD=      1
         NCelK=      1 NCelE2=     1 NClLst=     1 CellRange=     0.0.
 One-electron integrals computed using PRISM.
 One-electron integral symmetry used in STVInt
 NBasis=   214 RedAO= T EigKep=  2.25D-04  NBF=   214
 NBsUse=   214 1.00D-06 EigRej= -1.00D+00 NBFU=   214
 Precomputing XC quadrature grid using
 IXCGrd= 4 IRadAn=           5 IRanWt=          -1 IRanGd=           0 AccXCQ= 0.00D+00.
 Generated NRdTot=       0 NPtTot=           0 NUsed=           0 NTot=          32
 NSgBfM=   223   223   223   223   223 MxSgAt=     9 MxSgA2=     9.
 Leave Link  302 at Sat Sep 14 18:03:45 2024, MaxMem=  4294967296 cpu:             128.7 elap:               7.3
 (Enter /home/appl/Gaussian/g16/l303.exe)
 DipDrv:  MaxL=1.
 Leave Link  303 at Sat Sep 14 18:03:47 2024, MaxMem=  4294967296 cpu:              11.5 elap:               0.8
 (Enter /home/appl/Gaussian/g16/l401.exe)
 Initial guess from the checkpoint file:  "/scr/Gau-148765.chk"
 B after Tr=    -0.000000    0.000000   -0.000000
         Rot=    0.999605   -0.028072   -0.000785   -0.001367 Ang=  -3.22 deg.
 Guess basis will be translated and rotated to current coordinates.
 JPrj=2 DoOrth=T DoCkMO=T.
 Generating alternative initial guess.
 ExpMin= 4.05D-02 ExpMax= 9.34D+04 ExpMxC= 3.17D+03 IAcc=3 IRadAn=         5 AccDes= 0.00D+00
 Harris functional with IExCor= 4639 and IRadAn=       5 diagonalized for initial guess.
 HarFok:  IExCor= 4639 AccDes= 0.00D+00 IRadAn=         5 IDoV= 1 UseB2=F ITyADJ=14
 ICtDFT=  3500011 ScaDFX=  1.000000  1.000000  1.000000  1.000000
 FoFCou: FMM=F IPFlag=           0 FMFlag=      100000 FMFlg1=           0
         NFxFlg=           0 DoJE=T BraDBF=F KetDBF=T FulRan=T
         wScrn=  0.000000 ICntrl=       500 IOpCl=  0 I1Cent=   200000004 NGrid=           0
         NMat0=    1 NMatS0=      1 NMatT0=    0 NMatD0=    1 NMtDS0=    0 NMtDT0=    0
 Petite list used in FoFCou.
 Harris En= -1319.91482074996    
 Leave Link  401 at Sat Sep 14 18:03:58 2024, MaxMem=  4294967296 cpu:             170.0 elap:              10.1
 (Enter /home/appl/Gaussian/g16/l502.exe)
 Keep R1 ints in memory in canonical form, NReq=576265202.
 FoFCou: FMM=F IPFlag=           0 FMFlag=           0 FMFlg1=           0
         NFxFlg=           0 DoJE=F BraDBF=F KetDBF=F FulRan=T
         wScrn=  0.000000 ICntrl=       600 IOpCl=  0 I1Cent=           0 NGrid=           0
         NMat0=    1 NMatS0=  23005 NMatT0=    0 NMatD0=    1 NMtDS0=    0 NMtDT0=    0
 Symmetry not used in FoFCou.
 Two-electron integral symmetry not used.
 Closed shell SCF:
 Using DIIS extrapolation, IDIIS=  1040.
 NGot=  4294967296 LenX=  3765603616 LenY=  3765553446
 Requested convergence on RMS density matrix=1.00D-08 within 128 cycles.
 Requested convergence on MAX density matrix=1.00D-06.
 Requested convergence on             energy=1.00D-06.
 No special actions if energy rises.

 Cycle   1  Pass 1  IDiag  1:
 E= -1351.69293042078    
 DIIS: error= 1.19D-03 at cycle   1 NSaved=   1.
 NSaved= 1 IEnMin= 1 EnMin= -1351.69293042078     IErMin= 1 ErrMin= 1.19D-03
 ErrMax= 1.19D-03  0.00D+00 EMaxC= 1.00D-01 BMatC= 1.06D-03 BMatP= 1.06D-03
 IDIUse=3 WtCom= 9.88D-01 WtEn= 1.19D-02
 Coeff-Com:  0.100D+01
 Coeff-En:   0.100D+01
 Coeff:      0.100D+01
 Gap=     0.673 Goal=   None    Shift=    0.000
 GapD=    0.673 DampG=2.000 DampE=1.000 DampFc=2.0000 IDamp=-1.
 RMSDP=4.21D-04 MaxDP=9.78D-03              OVMax= 5.89D-03

 Cycle   2  Pass 1  IDiag  1:
 E= -1351.69419029574     Delta-E=       -0.001259874958 Rises=F Damp=F
 DIIS: error= 6.27D-04 at cycle   2 NSaved=   2.
 NSaved= 2 IEnMin= 2 EnMin= -1351.69419029574     IErMin= 2 ErrMin= 6.27D-04
 ErrMax= 6.27D-04  0.00D+00 EMaxC= 1.00D-01 BMatC= 2.08D-04 BMatP= 1.06D-03
 IDIUse=3 WtCom= 9.94D-01 WtEn= 6.27D-03
 Coeff-Com:  0.172D+00 0.828D+00
 Coeff-En:   0.000D+00 0.100D+01
 Coeff:      0.171D+00 0.829D+00
 Gap=     0.427 Goal=   None    Shift=    0.000
 RMSDP=1.15D-04 MaxDP=2.47D-03 DE=-1.26D-03 OVMax= 3.52D-03

 Cycle   3  Pass 1  IDiag  1:
 E= -1351.69423680254     Delta-E=       -0.000046506796 Rises=F Damp=F
 DIIS: error= 6.75D-04 at cycle   3 NSaved=   3.
 NSaved= 3 IEnMin= 3 EnMin= -1351.69423680254     IErMin= 2 ErrMin= 6.27D-04
 ErrMax= 6.75D-04  0.00D+00 EMaxC= 1.00D-01 BMatC= 1.86D-04 BMatP= 2.08D-04
 IDIUse=3 WtCom= 9.93D-01 WtEn= 6.75D-03
 Coeff-Com: -0.833D-01 0.503D+00 0.580D+00
 Coeff-En:   0.000D+00 0.407D+00 0.593D+00
 Coeff:     -0.828D-01 0.503D+00 0.580D+00
 Gap=     0.427 Goal=   None    Shift=    0.000
 RMSDP=8.28D-05 MaxDP=1.75D-03 DE=-4.65D-05 OVMax= 1.90D-03

 Cycle   4  Pass 1  IDiag  1:
 E= -1351.69435820294     Delta-E=       -0.000121400408 Rises=F Damp=F
 DIIS: error= 8.97D-05 at cycle   4 NSaved=   4.
 NSaved= 4 IEnMin= 4 EnMin= -1351.69435820294     IErMin= 4 ErrMin= 8.97D-05
 ErrMax= 8.97D-05  0.00D+00 EMaxC= 1.00D-01 BMatC= 2.40D-06 BMatP= 1.86D-04
 IDIUse=1 WtCom= 1.00D+00 WtEn= 0.00D+00
 Coeff-Com: -0.252D-01 0.781D-01 0.151D+00 0.796D+00
 Coeff:     -0.252D-01 0.781D-01 0.151D+00 0.796D+00
 Gap=     0.427 Goal=   None    Shift=    0.000
 RMSDP=1.54D-05 MaxDP=2.90D-04 DE=-1.21D-04 OVMax= 4.31D-04

 Cycle   5  Pass 1  IDiag  1:
 E= -1351.69435998294     Delta-E=       -0.000001779992 Rises=F Damp=F
 DIIS: error= 4.92D-05 at cycle   5 NSaved=   5.
 NSaved= 5 IEnMin= 5 EnMin= -1351.69435998294     IErMin= 5 ErrMin= 4.92D-05
 ErrMax= 4.92D-05  0.00D+00 EMaxC= 1.00D-01 BMatC= 1.06D-06 BMatP= 2.40D-06
 IDIUse=1 WtCom= 1.00D+00 WtEn= 0.00D+00
 Coeff-Com: -0.264D-02-0.259D-01 0.714D-02 0.451D+00 0.570D+00
 Coeff:     -0.264D-02-0.259D-01 0.714D-02 0.451D+00 0.570D+00
 Gap=     0.427 Goal=   None    Shift=    0.000
 RMSDP=6.92D-06 MaxDP=1.19D-04 DE=-1.78D-06 OVMax= 1.66D-04

 Cycle   6  Pass 1  IDiag  1:
 E= -1351.69436075636     Delta-E=       -0.000000773420 Rises=F Damp=F
 DIIS: error= 8.51D-06 at cycle   6 NSaved=   6.
 NSaved= 6 IEnMin= 6 EnMin= -1351.69436075636     IErMin= 6 ErrMin= 8.51D-06
 ErrMax= 8.51D-06  0.00D+00 EMaxC= 1.00D-01 BMatC= 3.33D-08 BMatP= 1.06D-06
 IDIUse=1 WtCom= 1.00D+00 WtEn= 0.00D+00
 Coeff-Com:  0.264D-02-0.172D-01-0.206D-01-0.499D-02 0.131D+00 0.910D+00
 Coeff:      0.264D-02-0.172D-01-0.206D-01-0.499D-02 0.131D+00 0.910D+00
 Gap=     0.427 Goal=   None    Shift=    0.000
 RMSDP=3.04D-06 MaxDP=6.08D-05 DE=-7.73D-07 OVMax= 7.67D-05

 Cycle   7  Pass 1  IDiag  1:
 E= -1351.69436080532     Delta-E=       -0.000000048968 Rises=F Damp=F
 DIIS: error= 3.32D-06 at cycle   7 NSaved=   7.
 NSaved= 7 IEnMin= 7 EnMin= -1351.69436080532     IErMin= 7 ErrMin= 3.32D-06
 ErrMax= 3.32D-06  0.00D+00 EMaxC= 1.00D-01 BMatC= 6.39D-09 BMatP= 3.33D-08
 IDIUse=1 WtCom= 1.00D+00 WtEn= 0.00D+00
 Coeff-Com:  0.139D-02-0.612D-02-0.102D-01-0.292D-01 0.249D-01 0.402D+00
 Coeff-Com:  0.617D+00
 Coeff:      0.139D-02-0.612D-02-0.102D-01-0.292D-01 0.249D-01 0.402D+00
 Coeff:      0.617D+00
 Gap=     0.427 Goal=   None    Shift=    0.000
 RMSDP=7.19D-07 MaxDP=1.49D-05 DE=-4.90D-08 OVMax= 1.77D-05

 Cycle   8  Pass 1  IDiag  1:
 E= -1351.69436081097     Delta-E=       -0.000000005646 Rises=F Damp=F
 DIIS: error= 1.26D-06 at cycle   8 NSaved=   8.
 NSaved= 8 IEnMin= 8 EnMin= -1351.69436081097     IErMin= 8 ErrMin= 1.26D-06
 ErrMax= 1.26D-06  0.00D+00 EMaxC= 1.00D-01 BMatC= 7.83D-10 BMatP= 6.39D-09
 IDIUse=1 WtCom= 1.00D+00 WtEn= 0.00D+00
 Coeff-Com: -0.917D-04 0.166D-02 0.656D-03-0.952D-02-0.195D-01-0.590D-01
 Coeff-Com:  0.225D+00 0.861D+00
 Coeff:     -0.917D-04 0.166D-02 0.656D-03-0.952D-02-0.195D-01-0.590D-01
 Coeff:      0.225D+00 0.861D+00
 Gap=     0.427 Goal=   None    Shift=    0.000
 RMSDP=4.59D-07 MaxDP=7.68D-06 DE=-5.65D-09 OVMax= 1.20D-05

 Cycle   9  Pass 1  IDiag  1:
 E= -1351.69436081200     Delta-E=       -0.000000001026 Rises=F Damp=F
 DIIS: error= 4.32D-07 at cycle   9 NSaved=   9.
 NSaved= 9 IEnMin= 9 EnMin= -1351.69436081200     IErMin= 9 ErrMin= 4.32D-07
 ErrMax= 4.32D-07  0.00D+00 EMaxC= 1.00D-01 BMatC= 7.90D-11 BMatP= 7.83D-10
 IDIUse=1 WtCom= 1.00D+00 WtEn= 0.00D+00
 Coeff-Com: -0.130D-03 0.107D-02 0.984D-03-0.181D-02-0.991D-02-0.518D-01
 Coeff-Com:  0.458D-01 0.348D+00 0.668D+00
 Coeff:     -0.130D-03 0.107D-02 0.984D-03-0.181D-02-0.991D-02-0.518D-01
 Coeff:      0.458D-01 0.348D+00 0.668D+00
 Gap=     0.427 Goal=   None    Shift=    0.000
 RMSDP=9.94D-08 MaxDP=2.49D-06 DE=-1.03D-09 OVMax= 2.66D-06

 Cycle  10  Pass 1  IDiag  1:
 E= -1351.69436081207     Delta-E=       -0.000000000079 Rises=F Damp=F
 DIIS: error= 1.66D-07 at cycle  10 NSaved=  10.
 NSaved=10 IEnMin=10 EnMin= -1351.69436081207     IErMin=10 ErrMin= 1.66D-07
 ErrMax= 1.66D-07  0.00D+00 EMaxC= 1.00D-01 BMatC= 1.32D-11 BMatP= 7.90D-11
 IDIUse=1 WtCom= 1.00D+00 WtEn= 0.00D+00
 Coeff-Com: -0.403D-04 0.192D-03 0.334D-03 0.788D-03-0.131D-02-0.128D-01
 Coeff-Com: -0.169D-01 0.141D-01 0.289D+00 0.727D+00
 Coeff:     -0.403D-04 0.192D-03 0.334D-03 0.788D-03-0.131D-02-0.128D-01
 Coeff:     -0.169D-01 0.141D-01 0.289D+00 0.727D+00
 Gap=     0.427 Goal=   None    Shift=    0.000
 RMSDP=4.08D-08 MaxDP=7.99D-07 DE=-7.91D-11 OVMax= 1.17D-06

 Cycle  11  Pass 1  IDiag  1:
 E= -1351.69436081209     Delta-E=       -0.000000000011 Rises=F Damp=F
 DIIS: error= 6.49D-08 at cycle  11 NSaved=  11.
 NSaved=11 IEnMin=11 EnMin= -1351.69436081209     IErMin=11 ErrMin= 6.49D-08
 ErrMax= 6.49D-08  0.00D+00 EMaxC= 1.00D-01 BMatC= 1.46D-12 BMatP= 1.32D-11
 IDIUse=1 WtCom= 1.00D+00 WtEn= 0.00D+00
 Coeff-Com:  0.457D-05-0.936D-04-0.290D-04 0.599D-03 0.105D-02 0.321D-02
 Coeff-Com: -0.135D-01-0.484D-01 0.268D-02 0.273D+00 0.781D+00
 Coeff:      0.457D-05-0.936D-04-0.290D-04 0.599D-03 0.105D-02 0.321D-02
 Coeff:     -0.135D-01-0.484D-01 0.268D-02 0.273D+00 0.781D+00
 Gap=     0.427 Goal=   None    Shift=    0.000
 RMSDP=1.70D-08 MaxDP=3.38D-07 DE=-1.14D-11 OVMax= 4.78D-07

 Cycle  12  Pass 1  IDiag  1:
 E= -1351.69436081209     Delta-E=       -0.000000000003 Rises=F Damp=F
 DIIS: error= 2.17D-08 at cycle  12 NSaved=  12.
 NSaved=12 IEnMin=12 EnMin= -1351.69436081209     IErMin=12 ErrMin= 2.17D-08
 ErrMax= 2.17D-08  0.00D+00 EMaxC= 1.00D-01 BMatC= 1.89D-13 BMatP= 1.46D-12
 IDIUse=1 WtCom= 1.00D+00 WtEn= 0.00D+00
 Coeff-Com:  0.487D-05-0.547D-04-0.402D-04 0.210D-03 0.554D-03 0.234D-02
 Coeff-Com: -0.455D-02-0.222D-01-0.202D-01 0.630D-01 0.334D+00 0.647D+00
 Coeff:      0.487D-05-0.547D-04-0.402D-04 0.210D-03 0.554D-03 0.234D-02
 Coeff:     -0.455D-02-0.222D-01-0.202D-01 0.630D-01 0.334D+00 0.647D+00
 Gap=     0.427 Goal=   None    Shift=    0.000
 RMSDP=4.81D-09 MaxDP=1.39D-07 DE=-3.18D-12 OVMax= 1.48D-07

 SCF Done:  E(RwB97XD) =  -1351.69436081     A.U. after   12 cycles
            NFock= 12  Conv=0.48D-08     -V/T= 2.0017
 KE= 1.349352772171D+03 PE=-4.766886894630D+03 EE= 1.293409349588D+03
 Leave Link  502 at Sat Sep 14 18:05:43 2024, MaxMem=  4294967296 cpu:            1358.8 elap:             105.8
 (Enter /home/appl/Gaussian/g16/l701.exe)
 ... and contract with generalized density number  0.
 Compute integral first derivatives.
 R6Disp: Adding Grimme-D2 dispersion energy 1st derivatives to the gradient.
 Leave Link  701 at Sat Sep 14 18:06:06 2024, MaxMem=  4294967296 cpu:              54.0 elap:               3.1
 (Enter /home/appl/Gaussian/g16/l702.exe)
 L702 exits ... SP integral derivatives will be done elsewhere.
 Leave Link  702 at Sat Sep 14 18:06:07 2024, MaxMem=  4294967296 cpu:               1.2 elap:               0.1
 (Enter /home/appl/Gaussian/g16/l703.exe)
 Integral derivatives from FoFJK, PRISM(SPDF).
 Compute integral first derivatives, UseDBF=F ICtDFT=           0.
 Calling FoFJK, ICntrl=      2127 FMM=F ISym2X=0 I1Cent= 0 IOpClX= 0 NMat=1 NMatS=1 NMatT=0.
 FoFJK:  IHMeth= 1 ICntrl=    2127 DoSepK=T KAlg= 0 I1Cent=           0 FoldK=F
 IRaf=         1 NMat=       1 IRICut=       1 DoRegI=T DoRafI=F ISym2E= 0 IDoP0=0 IntGTp=1.
 FoFCou: FMM=F IPFlag=           0 FMFlag=      100000 FMFlg1=         800
         NFxFlg=           0 DoJE=F BraDBF=F KetDBF=F FulRan=T
         wScrn=  0.000000 ICntrl=      2527 IOpCl=  0 I1Cent=           0 NGrid=           0
         NMat0=    1 NMatS0=      1 NMatT0=    0 NMatD0=    1 NMtDS0=    0 NMtDT0=    0
 Symmetry not used in FoFCou.
 Leave Link  703 at Sat Sep 14 18:06:15 2024, MaxMem=  4294967296 cpu:             106.9 elap:               6.7
 (Enter /home/appl/Gaussian/g16/l716.exe)
 Dipole        =-7.72320050D-02-4.88900783D-02 1.38561101D-01
 ***** Axes restored to original set *****
 -------------------------------------------------------------------
 Center     Atomic                   Forces (Hartrees/Bohr)
 Number     Number              X              Y              Z
 -------------------------------------------------------------------
      1       16           0.012707134    0.003468558    0.001295090
      2        9           0.000222708   -0.000635761    0.001849297
      3        8           0.002614928   -0.003761033   -0.002141097
      4        8          -0.014098376   -0.000174945   -0.002692690
      5        7          -0.002187539    0.002648085    0.002286243
      6       16           0.005396169   -0.004394010   -0.009693486
      7        9          -0.003378524    0.000662301    0.007872606
      8        8          -0.000767366    0.001287352    0.000698802
      9        8          -0.000509134    0.000899453    0.000525235
 -------------------------------------------------------------------
 Cartesian Forces:  Max     0.014098376 RMS     0.004898941
 Leave Link  716 at Sat Sep 14 18:06:15 2024, MaxMem=  4294967296 cpu:               2.1 elap:               0.2
 (Enter /home/appl/Gaussian/g16/l103.exe)

 GradGradGradGradGradGradGradGradGradGradGradGradGradGradGradGradGradGrad
 Berny optimization.
 Using GEDIIS/GDIIS optimizer.
 FormGI is forming the generalized inverse of G from B-inverse, IUseBI=4.
 Internal  Forces:  Max     0.014351773 RMS     0.003540287
 Search for a local minimum.
 Step number   6 out of a maximum of  100
 All quantities printed in internal units (Hartrees-Bohrs-Radians)
 RMS Force = .35403D-02 SwitMx=.10000D-02 MixMth= 1
 Mixed Optimization -- RFO/linear search
 Update second derivatives using D2CorX and points    3    4    5    6
 DE= -7.82D-04 DEPred=-6.41D-04 R= 1.22D+00
 TightC=F SS=  1.41D+00  RLast= 8.95D-02 DXNew= 1.4270D+00 2.6860D-01
 Trust test= 1.22D+00 RLast= 8.95D-02 DXMaxT set to 8.49D-01
 ITU=  1  1  1  1  1  0
 Use linear search instead of GDIIS.
     Eigenvalues ---    0.03071   0.03701   0.14883   0.16859   0.18511
     Eigenvalues ---    0.22850   0.24488   0.24990   0.25001   0.25750
     Eigenvalues ---    0.27820   0.29001   0.31675   0.40184   0.50744
     Eigenvalues ---    0.67158   0.78856   0.99452   1.11248   1.23235
     Eigenvalues ---    2.32770
 RFO step:  Lambda=-4.07552670D-04 EMin= 3.07132201D-02
 Quartic linear search produced a step of  0.32469.
 Iteration  1 RMS(Cart)=  0.01508183 RMS(Int)=  0.00013860
 Iteration  2 RMS(Cart)=  0.00026299 RMS(Int)=  0.00002066
 Iteration  3 RMS(Cart)=  0.00000005 RMS(Int)=  0.00002066
 ITry= 1 IFail=0 DXMaxC= 4.37D-02 DCOld= 1.00D+10 DXMaxT= 8.49D-01 DXLimC= 3.00D+00 Rises=F
 Variable       Old X    -DE/DX   Delta X   Delta X   Delta X     New X
                                 (Linear)    (Quad)   (Total)
    R1        3.11433  -0.00197  -0.00264  -0.00472  -0.00736   3.10696
    R2        2.73069  -0.00495  -0.00365  -0.00557  -0.00923   2.72146
    R3        2.74101  -0.01435   0.00335  -0.00441  -0.00106   2.73995
    R4        3.00183  -0.00084  -0.00019  -0.00173  -0.00193   2.99990
    R5        3.01143  -0.00026  -0.00202  -0.00123  -0.00325   3.00818
    R6        3.05941   0.00854   0.01477   0.01315   0.02791   3.08732
    R7        2.72038  -0.00134  -0.00297  -0.00252  -0.00549   2.71489
    R8        2.72197   0.00056  -0.00121  -0.00018  -0.00138   2.72058
    A1        1.80522   0.00066   0.00026   0.00223   0.00249   1.80770
    A2        1.80421  -0.00007  -0.00092   0.00454   0.00362   1.80783
    A3        1.78510   0.00062  -0.00045   0.00286   0.00240   1.78750
    A4        2.08458   0.00049  -0.00035   0.00057   0.00020   2.08479
    A5        2.04296  -0.00198   0.00433  -0.00922  -0.00490   2.03806
    A6        1.89532   0.00060  -0.00326   0.00167  -0.00160   1.89372
    A7        2.14010   0.00319  -0.00347   0.00985   0.00638   2.14648
    A8        1.78952   0.00157  -0.00432   0.00636   0.00203   1.79154
    A9        1.88500   0.00176  -0.00155   0.01159   0.00999   1.89500
   A10        2.03130  -0.00060   0.00050   0.00096   0.00142   2.03272
   A11        1.81729  -0.00148  -0.00022  -0.00805  -0.00830   1.80899
   A12        1.81878  -0.00140   0.00166  -0.01127  -0.00963   1.80916
   A13        2.08275   0.00001   0.00288  -0.00153   0.00130   2.08405
    D1       -1.42095   0.00046   0.01061   0.02187   0.03248  -1.38847
    D2        0.53756   0.00078   0.01254   0.02230   0.03483   0.57239
    D3        2.96257   0.00007   0.01296   0.01502   0.02798   2.99055
    D4       -1.24005  -0.00034  -0.00528  -0.01757  -0.02283  -1.26288
    D5        3.13067   0.00001  -0.00261  -0.01541  -0.01801   3.11266
    D6        0.73241  -0.00131  -0.00580  -0.02668  -0.03251   0.69991
         Item               Value     Threshold  Converged?
 Maximum Force            0.014352     0.000450     NO 
 RMS     Force            0.003540     0.000300     NO 
 Maximum Displacement     0.043675     0.001800     NO 
 RMS     Displacement     0.015114     0.001200     NO 
 Predicted change in Energy=-2.401488D-04
 Lowest energy point so far.  Saving SCF results.
 GradGradGradGradGradGradGradGradGradGradGradGradGradGradGradGradGradGrad

 Leave Link  103 at Sat Sep 14 18:06:33 2024, MaxMem=  4294967296 cpu:             210.6 elap:              17.4
 (Enter /home/appl/Gaussian/g16/l202.exe)
                          Input orientation:                          
 ---------------------------------------------------------------------
 Center     Atomic      Atomic             Coordinates (Angstroms)
 Number     Number       Type             X           Y           Z
 ---------------------------------------------------------------------
      1         16           0        0.975099    7.031042    5.176138
      2          9           0        0.833580    7.614097    3.645387
      3          8           0        0.108053    7.886068    5.944999
      4          8           0        2.403983    7.059520    5.420576
      5          7           0        0.522725    5.518645    5.008510
      6         16           0       -1.003775    5.074659    4.926699
      7          9           0       -1.518703    5.279294    6.463606
      8          8           0       -1.056962    3.651436    4.738044
      9          8           0       -1.878376    5.922615    4.159433
 ---------------------------------------------------------------------
                    Distance matrix (angstroms):
                    1          2          3          4          5
     1  S    0.000000
     2  F    1.644134   0.000000
     3  O    1.440133   2.426638   0.000000
     4  O    1.449921   2.434135   2.495895   0.000000
     5  N    1.587478   2.519058   2.579468   2.466419   0.000000
     6  S    2.793850   3.386204   3.190159   3.974468   1.591860
     7  F    3.308359   4.350505   3.116177   4.432220   2.518337
     8  O    3.967737   4.524460   4.554790   4.905000   2.460698
     9  O    3.225619   3.237292   3.315011   4.606694   2.578644
                    6          7          8          9
     6  S    0.000000
     7  F    1.633741   0.000000
     8  O    1.436658   2.416752   0.000000
     9  O    1.439671   2.419182   2.483499   0.000000
 Stoichiometry    F2NO4S2(1-)
 Framework group  C1[X(F2NO4S2)]
 Deg. of freedom    21
 Full point group                 C1      NOp   1
 RotChk:  IX=0 Diff= 5.08D-02
 Largest Abelian subgroup         C1      NOp   1
 Largest concise Abelian subgroup C1      NOp   1
                         Standard orientation:                         
 ---------------------------------------------------------------------
 Center     Atomic      Atomic             Coordinates (Angstroms)
 Number     Number       Type             X           Y           Z
 ---------------------------------------------------------------------
      1         16           0        1.383670   -0.153010   -0.073496
      2          9           0        1.719393    1.408340    0.317212
      3          8           0        1.353772   -0.821593    1.201685
      4          8           0        2.416126   -0.493464   -1.032868
      5          7           0        0.002415   -0.022390   -0.844961
      6         16           0       -1.394211    0.144139   -0.099493
      7          9           0       -1.643877   -1.343116    0.528876
      8          8           0       -2.428414    0.272287   -1.088425
      9          8           0       -1.407470    1.006727    1.053078
 ---------------------------------------------------------------------
 Rotational constants (GHZ):           2.5273953           0.8801898           0.8638492
 Leave Link  202 at Sat Sep 14 18:06:34 2024, MaxMem=  4294967296 cpu:               3.0 elap:               0.4
 (Enter /home/appl/Gaussian/g16/l301.exe)
 Standard basis: 6-311++G(d,p) (5D, 7F)
 Ernie: Thresh=  0.10000D-02 Tol=  0.10000D-05 Strict=F.
 There are   223 symmetry adapted cartesian basis functions of A   symmetry.
 There are   214 symmetry adapted basis functions of A   symmetry.
   214 basis functions,   352 primitive gaussians,   223 cartesian basis functions
    45 alpha electrons       45 beta electrons
       nuclear repulsion energy       772.2320689353 Hartrees.
 IExCor= 4639 DFT=T Ex+Corr=wB97XD ExCW=0 ScaHFX=  1.000000
 ScaDFX=  1.000000  1.000000  1.000000  1.000000 ScalE2=  1.000000  1.000000
 IRadAn=      5 IRanWt=     -1 IRanGd=            0 ICorTp=0 IEmpDi=121
 HFx  wShort=  0.000000 wLong=  0.200000 cFull=  0.222036 cShort=  0.000000 cLong=  0.777964
 DFx  wShort=  0.000000 wLong=  0.200000 cFull=  0.000000 cShort=  0.000000 cLong=  1.000000
 NAtoms=    9 NActive=    9 NUniq=    9 SFac= 1.00D+00 NAtFMM=   60 NAOKFM=F Big=F
 Integral buffers will be    131072 words long.
 Raffenetti 2 integral format.
 Two-electron integral symmetry is turned on.
 R6Disp:  Grimme-D2 Dispersion energy=       -0.0028620195 Hartrees.
 Nuclear repulsion after empirical dispersion term =      772.2292069158 Hartrees.
 Leave Link  301 at Sat Sep 14 18:06:35 2024, MaxMem=  4294967296 cpu:               3.1 elap:               0.2
 (Enter /home/appl/Gaussian/g16/l302.exe)
 NPDir=0 NMtPBC=     1 NCelOv=     1 NCel=       1 NClECP=     1 NCelD=      1
         NCelK=      1 NCelE2=     1 NClLst=     1 CellRange=     0.0.
 One-electron integrals computed using PRISM.
 One-electron integral symmetry used in STVInt
 NBasis=   214 RedAO= T EigKep=  2.24D-04  NBF=   214
 NBsUse=   214 1.00D-06 EigRej= -1.00D+00 NBFU=   214
 Precomputing XC quadrature grid using
 IXCGrd= 4 IRadAn=           5 IRanWt=          -1 IRanGd=           0 AccXCQ= 0.00D+00.
 Generated NRdTot=       0 NPtTot=           0 NUsed=           0 NTot=          32
 NSgBfM=   223   223   223   223   223 MxSgAt=     9 MxSgA2=     9.
 Leave Link  302 at Sat Sep 14 18:06:44 2024, MaxMem=  4294967296 cpu:             135.9 elap:               7.7
 (Enter /home/appl/Gaussian/g16/l303.exe)
 DipDrv:  MaxL=1.
 Leave Link  303 at Sat Sep 14 18:06:45 2024, MaxMem=  4294967296 cpu:              11.7 elap:               0.7
 (Enter /home/appl/Gaussian/g16/l401.exe)
 Initial guess from the checkpoint file:  "/scr/Gau-148765.chk"
 B after Tr=    -0.000000   -0.000000    0.000000
         Rot=    0.999838   -0.017997    0.000312    0.000342 Ang=  -2.06 deg.
 Guess basis will be translated and rotated to current coordinates.
 JPrj=2 DoOrth=T DoCkMO=T.
 Generating alternative initial guess.
 ExpMin= 4.05D-02 ExpMax= 9.34D+04 ExpMxC= 3.17D+03 IAcc=3 IRadAn=         5 AccDes= 0.00D+00
 Harris functional with IExCor= 4639 and IRadAn=       5 diagonalized for initial guess.
 HarFok:  IExCor= 4639 AccDes= 0.00D+00 IRadAn=         5 IDoV= 1 UseB2=F ITyADJ=14
 ICtDFT=  3500011 ScaDFX=  1.000000  1.000000  1.000000  1.000000
 FoFCou: FMM=F IPFlag=           0 FMFlag=      100000 FMFlg1=           0
         NFxFlg=           0 DoJE=T BraDBF=F KetDBF=T FulRan=T
         wScrn=  0.000000 ICntrl=       500 IOpCl=  0 I1Cent=   200000004 NGrid=           0
         NMat0=    1 NMatS0=      1 NMatT0=    0 NMatD0=    1 NMtDS0=    0 NMtDT0=    0
 Petite list used in FoFCou.
 Harris En= -1319.91339633059    
 Leave Link  401 at Sat Sep 14 18:06:55 2024, MaxMem=  4294967296 cpu:             156.7 elap:               9.2
 (Enter /home/appl/Gaussian/g16/l502.exe)
 Keep R1 ints in memory in canonical form, NReq=576265202.
 FoFCou: FMM=F IPFlag=           0 FMFlag=           0 FMFlg1=           0
         NFxFlg=           0 DoJE=F BraDBF=F KetDBF=F FulRan=T
         wScrn=  0.000000 ICntrl=       600 IOpCl=  0 I1Cent=           0 NGrid=           0
         NMat0=    1 NMatS0=  23005 NMatT0=    0 NMatD0=    1 NMtDS0=    0 NMtDT0=    0
 Symmetry not used in FoFCou.
 Two-electron integral symmetry not used.
 Closed shell SCF:
 Using DIIS extrapolation, IDIIS=  1040.
 NGot=  4294967296 LenX=  3765603616 LenY=  3765553446
 Requested convergence on RMS density matrix=1.00D-08 within 128 cycles.
 Requested convergence on MAX density matrix=1.00D-06.
 Requested convergence on             energy=1.00D-06.
 No special actions if energy rises.

 Cycle   1  Pass 1  IDiag  1:
 E= -1351.69394758031    
 DIIS: error= 1.10D-03 at cycle   1 NSaved=   1.
 NSaved= 1 IEnMin= 1 EnMin= -1351.69394758031     IErMin= 1 ErrMin= 1.10D-03
 ErrMax= 1.10D-03  0.00D+00 EMaxC= 1.00D-01 BMatC= 5.01D-04 BMatP= 5.01D-04
 IDIUse=3 WtCom= 9.89D-01 WtEn= 1.10D-02
 Coeff-Com:  0.100D+01
 Coeff-En:   0.100D+01
 Coeff:      0.100D+01
 Gap=     0.674 Goal=   None    Shift=    0.000
 GapD=    0.674 DampG=2.000 DampE=1.000 DampFc=2.0000 IDamp=-1.
 RMSDP=2.97D-04 MaxDP=6.36D-03              OVMax= 5.35D-03

 Cycle   2  Pass 1  IDiag  1:
 E= -1351.69461391231     Delta-E=       -0.000666332008 Rises=F Damp=F
 DIIS: error= 4.18D-04 at cycle   2 NSaved=   2.
 NSaved= 2 IEnMin= 2 EnMin= -1351.69461391231     IErMin= 2 ErrMin= 4.18D-04
 ErrMax= 4.18D-04  0.00D+00 EMaxC= 1.00D-01 BMatC= 6.20D-05 BMatP= 5.01D-04
 IDIUse=3 WtCom= 9.96D-01 WtEn= 4.18D-03
 Coeff-Com:  0.689D-01 0.931D+00
 Coeff-En:   0.000D+00 0.100D+01
 Coeff:      0.686D-01 0.931D+00
 Gap=     0.428 Goal=   None    Shift=    0.000
 RMSDP=7.01D-05 MaxDP=1.82D-03 DE=-6.66D-04 OVMax= 2.25D-03

 Cycle   3  Pass 1  IDiag  1:
 E= -1351.69463468325     Delta-E=       -0.000020770937 Rises=F Damp=F
 DIIS: error= 3.85D-04 at cycle   3 NSaved=   3.
 NSaved= 3 IEnMin= 3 EnMin= -1351.69463468325     IErMin= 3 ErrMin= 3.85D-04
 ErrMax= 3.85D-04  0.00D+00 EMaxC= 1.00D-01 BMatC= 6.56D-05 BMatP= 6.20D-05
 IDIUse=3 WtCom= 9.96D-01 WtEn= 3.85D-03
 Coeff-Com: -0.899D-01 0.540D+00 0.550D+00
 Coeff-En:   0.000D+00 0.341D+00 0.659D+00
 Coeff:     -0.895D-01 0.539D+00 0.551D+00
 Gap=     0.428 Goal=   None    Shift=    0.000
 RMSDP=4.25D-05 MaxDP=8.71D-04 DE=-2.08D-05 OVMax= 1.06D-03

 Cycle   4  Pass 1  IDiag  1:
 E= -1351.69467459960     Delta-E=       -0.000039916354 Rises=F Damp=F
 DIIS: error= 4.65D-05 at cycle   4 NSaved=   4.
 NSaved= 4 IEnMin= 4 EnMin= -1351.69467459960     IErMin= 4 ErrMin= 4.65D-05
 ErrMax= 4.65D-05  0.00D+00 EMaxC= 1.00D-01 BMatC= 8.30D-07 BMatP= 6.20D-05
 IDIUse=1 WtCom= 1.00D+00 WtEn= 0.00D+00
 Coeff-Com: -0.184D-01 0.411D-01 0.114D+00 0.863D+00
 Coeff:     -0.184D-01 0.411D-01 0.114D+00 0.863D+00
 Gap=     0.428 Goal=   None    Shift=    0.000
 RMSDP=8.93D-06 MaxDP=1.46D-04 DE=-3.99D-05 OVMax= 2.66D-04

 Cycle   5  Pass 1  IDiag  1:
 E= -1351.69467537007     Delta-E=       -0.000000770468 Rises=F Damp=F
 DIIS: error= 2.55D-05 at cycle   5 NSaved=   5.
 NSaved= 5 IEnMin= 5 EnMin= -1351.69467537007     IErMin= 5 ErrMin= 2.55D-05
 ErrMax= 2.55D-05  0.00D+00 EMaxC= 1.00D-01 BMatC= 2.72D-07 BMatP= 8.30D-07
 IDIUse=1 WtCom= 1.00D+00 WtEn= 0.00D+00
 Coeff-Com:  0.347D-03-0.381D-01-0.211D-02 0.430D+00 0.610D+00
 Coeff:      0.347D-03-0.381D-01-0.211D-02 0.430D+00 0.610D+00
 Gap=     0.428 Goal=   None    Shift=    0.000
 RMSDP=3.71D-06 MaxDP=7.03D-05 DE=-7.70D-07 OVMax= 1.21D-04

 Cycle   6  Pass 1  IDiag  1:
 E= -1351.69467557823     Delta-E=       -0.000000208158 Rises=F Damp=F
 DIIS: error= 7.30D-06 at cycle   6 NSaved=   6.
 NSaved= 6 IEnMin= 6 EnMin= -1351.69467557823     IErMin= 6 ErrMin= 7.30D-06
 ErrMax= 7.30D-06  0.00D+00 EMaxC= 1.00D-01 BMatC= 1.95D-08 BMatP= 2.72D-07
 IDIUse=1 WtCom= 1.00D+00 WtEn= 0.00D+00
 Coeff-Com:  0.273D-02-0.198D-01-0.185D-01 0.319D-01 0.222D+00 0.782D+00
 Coeff:      0.273D-02-0.198D-01-0.185D-01 0.319D-01 0.222D+00 0.782D+00
 Gap=     0.428 Goal=   None    Shift=    0.000
 RMSDP=1.56D-06 MaxDP=2.96D-05 DE=-2.08D-07 OVMax= 5.55D-05

 Cycle   7  Pass 1  IDiag  1:
 E= -1351.69467559839     Delta-E=       -0.000000020163 Rises=F Damp=F
 DIIS: error= 2.50D-06 at cycle   7 NSaved=   7.
 NSaved= 7 IEnMin= 7 EnMin= -1351.69467559839     IErMin= 7 ErrMin= 2.50D-06
 ErrMax= 2.50D-06  0.00D+00 EMaxC= 1.00D-01 BMatC= 2.72D-09 BMatP= 1.95D-08
 IDIUse=1 WtCom= 1.00D+00 WtEn= 0.00D+00
 Coeff-Com:  0.114D-02-0.521D-02-0.825D-02-0.238D-01 0.414D-01 0.333D+00
 Coeff-Com:  0.661D+00
 Coeff:      0.114D-02-0.521D-02-0.825D-02-0.238D-01 0.414D-01 0.333D+00
 Coeff:      0.661D+00
 Gap=     0.428 Goal=   None    Shift=    0.000
 RMSDP=5.07D-07 MaxDP=1.06D-05 DE=-2.02D-08 OVMax= 1.72D-05

 Cycle   8  Pass 1  IDiag  1:
 E= -1351.69467560089     Delta-E=       -0.000000002501 Rises=F Damp=F
 DIIS: error= 1.27D-06 at cycle   8 NSaved=   8.
 NSaved= 8 IEnMin= 8 EnMin= -1351.69467560089     IErMin= 8 ErrMin= 1.27D-06
 ErrMax= 1.27D-06  0.00D+00 EMaxC= 1.00D-01 BMatC= 3.73D-10 BMatP= 2.72D-09
 IDIUse=1 WtCom= 1.00D+00 WtEn= 0.00D+00
 Coeff-Com:  0.466D-05 0.121D-02-0.427D-03-0.150D-01-0.204D-01 0.317D-02
 Coeff-Com:  0.268D+00 0.764D+00
 Coeff:      0.466D-05 0.121D-02-0.427D-03-0.150D-01-0.204D-01 0.317D-02
 Coeff:      0.268D+00 0.764D+00
 Gap=     0.428 Goal=   None    Shift=    0.000
 RMSDP=2.70D-07 MaxDP=6.23D-06 DE=-2.50D-09 OVMax= 9.25D-06

 Cycle   9  Pass 1  IDiag  1:
 E= -1351.69467560130     Delta-E=       -0.000000000407 Rises=F Damp=F
 DIIS: error= 3.51D-07 at cycle   9 NSaved=   9.
 NSaved= 9 IEnMin= 9 EnMin= -1351.69467560130     IErMin= 9 ErrMin= 3.51D-07
 ErrMax= 3.51D-07  0.00D+00 EMaxC= 1.00D-01 BMatC= 5.52D-11 BMatP= 3.73D-10
 IDIUse=1 WtCom= 1.00D+00 WtEn= 0.00D+00
 Coeff-Com: -0.135D-03 0.118D-02 0.894D-03-0.325D-02-0.141D-01-0.422D-01
 Coeff-Com:  0.285D-01 0.340D+00 0.689D+00
 Coeff:     -0.135D-03 0.118D-02 0.894D-03-0.325D-02-0.141D-01-0.422D-01
 Coeff:      0.285D-01 0.340D+00 0.689D+00
 Gap=     0.428 Goal=   None    Shift=    0.000
 RMSDP=7.40D-08 MaxDP=1.52D-06 DE=-4.07D-10 OVMax= 3.09D-06

 Cycle  10  Pass 1  IDiag  1:
 E= -1351.69467560135     Delta-E=       -0.000000000048 Rises=F Damp=F
 DIIS: error= 9.17D-08 at cycle  10 NSaved=  10.
 NSaved=10 IEnMin=10 EnMin= -1351.69467560135     IErMin=10 ErrMin= 9.17D-08
 ErrMax= 9.17D-08  0.00D+00 EMaxC= 1.00D-01 BMatC= 3.06D-12 BMatP= 5.52D-11
 IDIUse=1 WtCom= 1.00D+00 WtEn= 0.00D+00
 Coeff-Com: -0.359D-04 0.188D-03 0.280D-03 0.431D-03-0.175D-02-0.109D-01
 Coeff-Com: -0.182D-01 0.167D-01 0.177D+00 0.837D+00
 Coeff:     -0.359D-04 0.188D-03 0.280D-03 0.431D-03-0.175D-02-0.109D-01
 Coeff:     -0.182D-01 0.167D-01 0.177D+00 0.837D+00
 Gap=     0.428 Goal=   None    Shift=    0.000
 RMSDP=2.92D-08 MaxDP=5.08D-07 DE=-4.77D-11 OVMax= 1.07D-06

 Cycle  11  Pass 1  IDiag  1:
 E= -1351.69467560136     Delta-E=       -0.000000000006 Rises=F Damp=F
 DIIS: error= 6.24D-08 at cycle  11 NSaved=  11.
 NSaved=11 IEnMin=11 EnMin= -1351.69467560136     IErMin=11 ErrMin= 6.24D-08
 ErrMax= 6.24D-08  0.00D+00 EMaxC= 1.00D-01 BMatC= 1.10D-12 BMatP= 3.06D-12
 IDIUse=1 WtCom= 1.00D+00 WtEn= 0.00D+00
 Coeff-Com:  0.274D-05-0.904D-04 0.417D-05 0.765D-03 0.128D-02 0.890D-03
 Coeff-Com: -0.132D-01-0.435D-01-0.193D-01 0.424D+00 0.649D+00
 Coeff:      0.274D-05-0.904D-04 0.417D-05 0.765D-03 0.128D-02 0.890D-03
 Coeff:     -0.132D-01-0.435D-01-0.193D-01 0.424D+00 0.649D+00
 Gap=     0.428 Goal=   None    Shift=    0.000
 RMSDP=1.11D-08 MaxDP=2.12D-07 DE=-6.37D-12 OVMax= 4.03D-07

 Cycle  12  Pass 1  IDiag  1:
 E= -1351.69467560136     Delta-E=       -0.000000000001 Rises=F Damp=F
 DIIS: error= 1.46D-08 at cycle  12 NSaved=  12.
 NSaved=12 IEnMin=12 EnMin= -1351.69467560136     IErMin=12 ErrMin= 1.46D-08
 ErrMax= 1.46D-08  0.00D+00 EMaxC= 1.00D-01 BMatC= 8.92D-14 BMatP= 1.10D-12
 IDIUse=1 WtCom= 1.00D+00 WtEn= 0.00D+00
 Coeff-Com:  0.552D-05-0.606D-04-0.333D-04 0.288D-03 0.770D-03 0.169D-02
 Coeff-Com: -0.362D-02-0.210D-01-0.288D-01 0.834D-01 0.268D+00 0.699D+00
 Coeff:      0.552D-05-0.606D-04-0.333D-04 0.288D-03 0.770D-03 0.169D-02
 Coeff:     -0.362D-02-0.210D-01-0.288D-01 0.834D-01 0.268D+00 0.699D+00
 Gap=     0.428 Goal=   None    Shift=    0.000
 RMSDP=3.57D-09 MaxDP=6.77D-08 DE=-9.09D-13 OVMax= 1.13D-07

 SCF Done:  E(RwB97XD) =  -1351.69467560     A.U. after   12 cycles
            NFock= 12  Conv=0.36D-08     -V/T= 2.0017
 KE= 1.349366998857D+03 PE=-4.766510202115D+03 EE= 1.293219320741D+03
 Leave Link  502 at Sat Sep 14 18:08:22 2024, MaxMem=  4294967296 cpu:             927.3 elap:              86.5
 (Enter /home/appl/Gaussian/g16/l701.exe)
 ... and contract with generalized density number  0.
 Compute integral first derivatives.
 R6Disp: Adding Grimme-D2 dispersion energy 1st derivatives to the gradient.
 Leave Link  701 at Sat Sep 14 18:08:27 2024, MaxMem=  4294967296 cpu:              54.4 elap:               3.2
 (Enter /home/appl/Gaussian/g16/l702.exe)
 L702 exits ... SP integral derivatives will be done elsewhere.
 Leave Link  702 at Sat Sep 14 18:08:27 2024, MaxMem=  4294967296 cpu:               1.3 elap:               0.1
 (Enter /home/appl/Gaussian/g16/l703.exe)
 Integral derivatives from FoFJK, PRISM(SPDF).
 Compute integral first derivatives, UseDBF=F ICtDFT=           0.
 Calling FoFJK, ICntrl=      2127 FMM=F ISym2X=0 I1Cent= 0 IOpClX= 0 NMat=1 NMatS=1 NMatT=0.
 FoFJK:  IHMeth= 1 ICntrl=    2127 DoSepK=T KAlg= 0 I1Cent=           0 FoldK=F
 IRaf=         1 NMat=       1 IRICut=       1 DoRegI=T DoRafI=F ISym2E= 0 IDoP0=0 IntGTp=1.
 FoFCou: FMM=F IPFlag=           0 FMFlag=      100000 FMFlg1=         800
         NFxFlg=           0 DoJE=F BraDBF=F KetDBF=F FulRan=T
         wScrn=  0.000000 ICntrl=      2527 IOpCl=  0 I1Cent=           0 NGrid=           0
         NMat0=    1 NMatS0=      1 NMatT0=    0 NMatD0=    1 NMtDS0=    0 NMtDT0=    0
 Symmetry not used in FoFCou.
 Leave Link  703 at Sat Sep 14 18:08:35 2024, MaxMem=  4294967296 cpu:             103.0 elap:               6.6
 (Enter /home/appl/Gaussian/g16/l716.exe)
 Dipole        =-4.00927999D-02-3.78950549D-03 1.18640184D-01
 ***** Axes restored to original set *****
 -------------------------------------------------------------------
 Center     Atomic                   Forces (Hartrees/Bohr)
 Number     Number              X              Y              Z
 -------------------------------------------------------------------
      1       16           0.014885149    0.000223993    0.000863172
      2        9           0.000394965   -0.000300661    0.000739197
      3        8          -0.000653114    0.000096620    0.000547370
      4        8          -0.013573467   -0.000056776   -0.002958690
      5        7          -0.002421849    0.000254444    0.001122745
      6       16           0.001799457    0.000082890   -0.001734552
      7        9          -0.000673180    0.000182257    0.002933330
      8        8           0.000626961   -0.001939342   -0.000456550
      9        8          -0.000384921    0.001456575   -0.001056021
 -------------------------------------------------------------------
 Cartesian Forces:  Max     0.014885149 RMS     0.004069625
 Leave Link  716 at Sat Sep 14 18:08:35 2024, MaxMem=  4294967296 cpu:               1.8 elap:               0.2
 (Enter /home/appl/Gaussian/g16/l103.exe)

 GradGradGradGradGradGradGradGradGradGradGradGradGradGradGradGradGradGrad
 Berny optimization.
 Using GEDIIS/GDIIS optimizer.
 FormGI is forming the generalized inverse of G from B-inverse, IUseBI=4.
 Internal  Forces:  Max     0.013876282 RMS     0.002871329
 Search for a local minimum.
 Step number   7 out of a maximum of  100
 All quantities printed in internal units (Hartrees-Bohrs-Radians)
 RMS Force = .28713D-02 SwitMx=.10000D-02 MixMth= 1
 Mixed Optimization -- RFO/linear search
 Update second derivatives using D2CorX and points    3    4    5    6    7
 DE= -3.15D-04 DEPred=-2.40D-04 R= 1.31D+00
 TightC=F SS=  1.41D+00  RLast= 7.93D-02 DXNew= 1.4270D+00 2.3776D-01
 Trust test= 1.31D+00 RLast= 7.93D-02 DXMaxT set to 8.49D-01
 ITU=  1  1  1  1  1  1  0
 Use linear search instead of GDIIS.
     Eigenvalues ---    0.02264   0.03708   0.15165   0.17185   0.18598
     Eigenvalues ---    0.22681   0.24906   0.24980   0.25084   0.25213
     Eigenvalues ---    0.27383   0.32028   0.34853   0.37660   0.50119
     Eigenvalues ---    0.67491   0.78282   0.99450   1.11924   1.20920
     Eigenvalues ---    2.11358
 RFO step:  Lambda=-1.82522031D-04 EMin= 2.26414692D-02
 Quartic linear search produced a step of  0.36561.
 Iteration  1 RMS(Cart)=  0.01285745 RMS(Int)=  0.00009518
 Iteration  2 RMS(Cart)=  0.00018216 RMS(Int)=  0.00000729
 Iteration  3 RMS(Cart)=  0.00000002 RMS(Int)=  0.00000729
 ITry= 1 IFail=0 DXMaxC= 3.14D-02 DCOld= 1.00D+10 DXMaxT= 8.49D-01 DXLimC= 3.00D+00 Rises=F
 Variable       Old X    -DE/DX   Delta X   Delta X   Delta X     New X
                                 (Linear)    (Quad)   (Total)
    R1        3.10696  -0.00083  -0.00269  -0.00302  -0.00571   3.10125
    R2        2.72146   0.00074  -0.00337  -0.00068  -0.00405   2.71740
    R3        2.73995  -0.01388  -0.00039  -0.00718  -0.00756   2.73239
    R4        2.99990   0.00018  -0.00070  -0.00122  -0.00193   2.99797
    R5        3.00818  -0.00123  -0.00119  -0.00376  -0.00495   3.00323
    R6        3.08732   0.00299   0.01021   0.00317   0.01337   3.10069
    R7        2.71489   0.00196  -0.00201   0.00080  -0.00121   2.71368
    R8        2.72058   0.00165  -0.00051   0.00171   0.00120   2.72178
    A1        1.80770   0.00035   0.00091   0.00117   0.00208   1.80978
    A2        1.80783  -0.00079   0.00132  -0.00359  -0.00227   1.80556
    A3        1.78750   0.00013   0.00088  -0.00108  -0.00020   1.78730
    A4        2.08479   0.00040   0.00007   0.00227   0.00234   2.08713
    A5        2.03806  -0.00072  -0.00179  -0.00109  -0.00289   2.03517
    A6        1.89372   0.00053  -0.00058   0.00125   0.00066   1.89438
    A7        2.14648   0.00206   0.00233   0.00572   0.00806   2.15454
    A8        1.79154  -0.00001   0.00074  -0.00317  -0.00244   1.78911
    A9        1.89500  -0.00098   0.00365  -0.00398  -0.00035   1.89465
   A10        2.03272  -0.00116   0.00052  -0.00200  -0.00150   2.03122
   A11        1.80899   0.00050  -0.00304   0.00086  -0.00218   1.80681
   A12        1.80916   0.00087  -0.00352   0.00427   0.00074   1.80990
   A13        2.08405   0.00104   0.00047   0.00402   0.00447   2.08852
    D1       -1.38847   0.00003   0.01187   0.01119   0.02307  -1.36540
    D2        0.57239   0.00022   0.01273   0.01144   0.02417   0.59656
    D3        2.99055   0.00067   0.01023   0.01521   0.02545   3.01600
    D4       -1.26288  -0.00054  -0.00835  -0.01493  -0.02328  -1.28616
    D5        3.11266  -0.00075  -0.00658  -0.01310  -0.01967   3.09298
    D6        0.69991  -0.00002  -0.01188  -0.01270  -0.02459   0.67532
         Item               Value     Threshold  Converged?
 Maximum Force            0.013876     0.000450     NO 
 RMS     Force            0.002871     0.000300     NO 
 Maximum Displacement     0.031436     0.001800     NO 
 RMS     Displacement     0.012883     0.001200     NO 
 Predicted change in Energy=-1.167565D-04
 Lowest energy point so far.  Saving SCF results.
 GradGradGradGradGradGradGradGradGradGradGradGradGradGradGradGradGradGrad

 Leave Link  103 at Sat Sep 14 18:08:54 2024, MaxMem=  4294967296 cpu:             209.2 elap:              18.1
 (Enter /home/appl/Gaussian/g16/l202.exe)
                          Input orientation:                          
 ---------------------------------------------------------------------
 Center     Atomic      Atomic             Coordinates (Angstroms)
 Number     Number       Type             X           Y           Z
 ---------------------------------------------------------------------
      1         16           0        0.976772    7.033702    5.177647
      2          9           0        0.827292    7.603778    3.646008
      3          8           0        0.117332    7.893124    5.946131
      4          8           0        2.403895    7.059988    5.408536
      5          7           0        0.518194    5.522644    5.025145
      6         16           0       -1.003402    5.074851    4.925562
      7          9           0       -1.532351    5.268265    6.466691
      8          8           0       -1.049462    3.652860    4.730716
      9          8           0       -1.872645    5.928165    4.156956
 ---------------------------------------------------------------------
                    Distance matrix (angstroms):
                    1          2          3          4          5
     1  S    0.000000
     2  F    1.641112   0.000000
     3  O    1.437989   2.424527   0.000000
     4  O    1.445918   2.426498   2.492286   0.000000
     5  N    1.586457   2.515687   2.574506   2.462983   0.000000
     6  S    2.796736   3.374043   3.200042   3.972871   1.589241
     7  F    3.327777   4.356466   3.143616   4.452415   2.519424
     8  O    3.966795   4.506500   4.562727   4.898329   2.457707
     9  O    3.222297   3.218447   3.319972   4.597419   2.575715
                    6          7          8          9
     6  S    0.000000
     7  F    1.640816   0.000000
     8  O    1.436017   2.419985   0.000000
     9  O    1.440306   2.426138   2.486734   0.000000
 Stoichiometry    F2NO4S2(1-)
 Framework group  C1[X(F2NO4S2)]
 Deg. of freedom    21
 Full point group                 C1      NOp   1
 RotChk:  IX=0 Diff= 5.13D-02
 Largest Abelian subgroup         C1      NOp   1
 Largest concise Abelian subgroup C1      NOp   1
                         Standard orientation:                         
 ---------------------------------------------------------------------
 Center     Atomic      Atomic             Coordinates (Angstroms)
 Number     Number       Type             X           Y           Z
 ---------------------------------------------------------------------
      1         16           0        1.386632   -0.152524   -0.078355
      2          9           0        1.708358    1.394480    0.364952
      3          8           0        1.365074   -0.866743    1.169538
      4          8           0        2.416274   -0.444889   -1.050487
      5          7           0        0.001604   -0.008209   -0.838434
      6         16           0       -1.393724    0.149304   -0.094165
      7          9           0       -1.661944   -1.363448    0.481958
      8          8           0       -2.421931    0.319581   -1.082063
      9          8           0       -1.398852    0.970763    1.088908
 ---------------------------------------------------------------------
 Rotational constants (GHZ):           2.5264584           0.8799110           0.8632750
 Leave Link  202 at Sat Sep 14 18:08:55 2024, MaxMem=  4294967296 cpu:               3.9 elap:               0.4
 (Enter /home/appl/Gaussian/g16/l301.exe)
 Standard basis: 6-311++G(d,p) (5D, 7F)
 Ernie: Thresh=  0.10000D-02 Tol=  0.10000D-05 Strict=F.
 There are   223 symmetry adapted cartesian basis functions of A   symmetry.
 There are   214 symmetry adapted basis functions of A   symmetry.
   214 basis functions,   352 primitive gaussians,   223 cartesian basis functions
    45 alpha electrons       45 beta electrons
       nuclear repulsion energy       772.2816224543 Hartrees.
 IExCor= 4639 DFT=T Ex+Corr=wB97XD ExCW=0 ScaHFX=  1.000000
 ScaDFX=  1.000000  1.000000  1.000000  1.000000 ScalE2=  1.000000  1.000000
 IRadAn=      5 IRanWt=     -1 IRanGd=            0 ICorTp=0 IEmpDi=121
 HFx  wShort=  0.000000 wLong=  0.200000 cFull=  0.222036 cShort=  0.000000 cLong=  0.777964
 DFx  wShort=  0.000000 wLong=  0.200000 cFull=  0.000000 cShort=  0.000000 cLong=  1.000000
 NAtoms=    9 NActive=    9 NUniq=    9 SFac= 1.00D+00 NAtFMM=   60 NAOKFM=F Big=F
 Integral buffers will be    131072 words long.
 Raffenetti 2 integral format.
 Two-electron integral symmetry is turned on.
 R6Disp:  Grimme-D2 Dispersion energy=       -0.0028620096 Hartrees.
 Nuclear repulsion after empirical dispersion term =      772.2787604448 Hartrees.
 Leave Link  301 at Sat Sep 14 18:08:56 2024, MaxMem=  4294967296 cpu:               3.0 elap:               0.3
 (Enter /home/appl/Gaussian/g16/l302.exe)
 NPDir=0 NMtPBC=     1 NCelOv=     1 NCel=       1 NClECP=     1 NCelD=      1
         NCelK=      1 NCelE2=     1 NClLst=     1 CellRange=     0.0.
 One-electron integrals computed using PRISM.
 One-electron integral symmetry used in STVInt
 NBasis=   214 RedAO= T EigKep=  2.23D-04  NBF=   214
 NBsUse=   214 1.00D-06 EigRej= -1.00D+00 NBFU=   214
 Precomputing XC quadrature grid using
 IXCGrd= 4 IRadAn=           5 IRanWt=          -1 IRanGd=           0 AccXCQ= 0.00D+00.
 Generated NRdTot=       0 NPtTot=           0 NUsed=           0 NTot=          32
 NSgBfM=   223   223   223   223   223 MxSgAt=     9 MxSgA2=     9.
 Leave Link  302 at Sat Sep 14 18:09:04 2024, MaxMem=  4294967296 cpu:             134.1 elap:               7.6
 (Enter /home/appl/Gaussian/g16/l303.exe)
 DipDrv:  MaxL=1.
 Leave Link  303 at Sat Sep 14 18:09:06 2024, MaxMem=  4294967296 cpu:              11.5 elap:               0.7
 (Enter /home/appl/Gaussian/g16/l401.exe)
 Initial guess from the checkpoint file:  "/scr/Gau-148765.chk"
 B after Tr=     0.000000   -0.000000    0.000000
         Rot=    0.999835   -0.018162   -0.000028    0.000283 Ang=  -2.08 deg.
 Guess basis will be translated and rotated to current coordinates.
 JPrj=2 DoOrth=T DoCkMO=T.
 Generating alternative initial guess.
 ExpMin= 4.05D-02 ExpMax= 9.34D+04 ExpMxC= 3.17D+03 IAcc=3 IRadAn=         5 AccDes= 0.00D+00
 Harris functional with IExCor= 4639 and IRadAn=       5 diagonalized for initial guess.
 HarFok:  IExCor= 4639 AccDes= 0.00D+00 IRadAn=         5 IDoV= 1 UseB2=F ITyADJ=14
 ICtDFT=  3500011 ScaDFX=  1.000000  1.000000  1.000000  1.000000
 FoFCou: FMM=F IPFlag=           0 FMFlag=      100000 FMFlg1=           0
         NFxFlg=           0 DoJE=T BraDBF=F KetDBF=T FulRan=T
         wScrn=  0.000000 ICntrl=       500 IOpCl=  0 I1Cent=   200000004 NGrid=           0
         NMat0=    1 NMatS0=      1 NMatT0=    0 NMatD0=    1 NMtDS0=    0 NMtDT0=    0
 Petite list used in FoFCou.
 Harris En= -1319.91147512006    
 Leave Link  401 at Sat Sep 14 18:09:16 2024, MaxMem=  4294967296 cpu:             165.9 elap:               9.9
 (Enter /home/appl/Gaussian/g16/l502.exe)
 Keep R1 ints in memory in canonical form, NReq=576265202.
 FoFCou: FMM=F IPFlag=           0 FMFlag=           0 FMFlg1=           0
         NFxFlg=           0 DoJE=F BraDBF=F KetDBF=F FulRan=T
         wScrn=  0.000000 ICntrl=       600 IOpCl=  0 I1Cent=           0 NGrid=           0
         NMat0=    1 NMatS0=  23005 NMatT0=    0 NMatD0=    1 NMtDS0=    0 NMtDT0=    0
 Symmetry not used in FoFCou.
 Two-electron integral symmetry not used.
 Closed shell SCF:
 Using DIIS extrapolation, IDIIS=  1040.
 NGot=  4294967296 LenX=  3765603616 LenY=  3765553446
 Requested convergence on RMS density matrix=1.00D-08 within 128 cycles.
 Requested convergence on MAX density matrix=1.00D-06.
 Requested convergence on             energy=1.00D-06.
 No special actions if energy rises.

 Cycle   1  Pass 1  IDiag  1:
 E= -1351.69435793725    
 DIIS: error= 7.36D-04 at cycle   1 NSaved=   1.
 NSaved= 1 IEnMin= 1 EnMin= -1351.69435793725     IErMin= 1 ErrMin= 7.36D-04
 ErrMax= 7.36D-04  0.00D+00 EMaxC= 1.00D-01 BMatC= 3.15D-04 BMatP= 3.15D-04
 IDIUse=3 WtCom= 9.93D-01 WtEn= 7.36D-03
 Coeff-Com:  0.100D+01
 Coeff-En:   0.100D+01
 Coeff:      0.100D+01
 Gap=     0.674 Goal=   None    Shift=    0.000
 RMSDP=2.28D-04 MaxDP=4.77D-03              OVMax= 4.78D-03

 Cycle   2  Pass 1  IDiag  1:
 E= -1351.69481238726     Delta-E=       -0.000454450013 Rises=F Damp=F
 DIIS: error= 1.89D-04 at cycle   2 NSaved=   2.
 NSaved= 2 IEnMin= 2 EnMin= -1351.69481238726     IErMin= 2 ErrMin= 1.89D-04
 ErrMax= 1.89D-04  0.00D+00 EMaxC= 1.00D-01 BMatC= 1.94D-05 BMatP= 3.15D-04
 IDIUse=3 WtCom= 9.98D-01 WtEn= 1.89D-03
 Coeff-Com: -0.687D-01 0.107D+01
 Coeff-En:   0.000D+00 0.100D+01
 Coeff:     -0.686D-01 0.107D+01
 Gap=     0.428 Goal=   None    Shift=    0.000
 RMSDP=5.25D-05 MaxDP=1.01D-03 DE=-4.54D-04 OVMax= 1.57D-03

 Cycle   3  Pass 1  IDiag  1:
 E= -1351.69482922582     Delta-E=       -0.000016838560 Rises=F Damp=F
 DIIS: error= 1.92D-04 at cycle   3 NSaved=   3.
 NSaved= 3 IEnMin= 3 EnMin= -1351.69482922582     IErMin= 2 ErrMin= 1.89D-04
 ErrMax= 1.92D-04  0.00D+00 EMaxC= 1.00D-01 BMatC= 2.00D-05 BMatP= 1.94D-05
 IDIUse=3 WtCom= 9.98D-01 WtEn= 1.92D-03
 Coeff-Com: -0.924D-01 0.580D+00 0.513D+00
 Coeff-En:   0.000D+00 0.000D+00 0.100D+01
 Coeff:     -0.922D-01 0.579D+00 0.513D+00
 Gap=     0.428 Goal=   None    Shift=    0.000
 RMSDP=2.36D-05 MaxDP=5.68D-04 DE=-1.68D-05 OVMax= 6.04D-04

 Cycle   4  Pass 1  IDiag  1:
 E= -1351.69484122833     Delta-E=       -0.000012002504 Rises=F Damp=F
 DIIS: error= 3.32D-05 at cycle   4 NSaved=   4.
 NSaved= 4 IEnMin= 4 EnMin= -1351.69484122833     IErMin= 4 ErrMin= 3.32D-05
 ErrMax= 3.32D-05  0.00D+00 EMaxC= 1.00D-01 BMatC= 5.39D-07 BMatP= 1.94D-05
 IDIUse=1 WtCom= 1.00D+00 WtEn= 0.00D+00
 Coeff-Com: -0.133D-01 0.213D-01 0.133D+00 0.859D+00
 Coeff:     -0.133D-01 0.213D-01 0.133D+00 0.859D+00
 Gap=     0.428 Goal=   None    Shift=    0.000
 RMSDP=7.54D-06 MaxDP=1.21D-04 DE=-1.20D-05 OVMax= 2.56D-04

 Cycle   5  Pass 1  IDiag  1:
 E= -1351.69484174715     Delta-E=       -0.000000518818 Rises=F Damp=F
 DIIS: error= 1.63D-05 at cycle   5 NSaved=   5.
 NSaved= 5 IEnMin= 5 EnMin= -1351.69484174715     IErMin= 5 ErrMin= 1.63D-05
 ErrMax= 1.63D-05  0.00D+00 EMaxC= 1.00D-01 BMatC= 1.06D-07 BMatP= 5.39D-07
 IDIUse=1 WtCom= 1.00D+00 WtEn= 0.00D+00
 Coeff-Com:  0.269D-02-0.453D-01 0.100D-01 0.382D+00 0.651D+00
 Coeff:      0.269D-02-0.453D-01 0.100D-01 0.382D+00 0.651D+00
 Gap=     0.428 Goal=   None    Shift=    0.000
 RMSDP=2.97D-06 MaxDP=7.30D-05 DE=-5.19D-07 OVMax= 1.05D-04

 Cycle   6  Pass 1  IDiag  1:
 E= -1351.69484183684     Delta-E=       -0.000000089699 Rises=F Damp=F
 DIIS: error= 4.72D-06 at cycle   6 NSaved=   6.
 NSaved= 6 IEnMin= 6 EnMin= -1351.69484183684     IErMin= 6 ErrMin= 4.72D-06
 ErrMax= 4.72D-06  0.00D+00 EMaxC= 1.00D-01 BMatC= 1.34D-08 BMatP= 1.06D-07
 IDIUse=1 WtCom= 1.00D+00 WtEn= 0.00D+00
 Coeff-Com:  0.311D-02-0.240D-01-0.157D-01 0.504D-01 0.286D+00 0.700D+00
 Coeff:      0.311D-02-0.240D-01-0.157D-01 0.504D-01 0.286D+00 0.700D+00
 Gap=     0.428 Goal=   None    Shift=    0.000
 RMSDP=1.12D-06 MaxDP=2.08D-05 DE=-8.97D-08 OVMax= 4.75D-05

 Cycle   7  Pass 1  IDiag  1:
 E= -1351.69484184983     Delta-E=       -0.000000012985 Rises=F Damp=F
 DIIS: error= 1.96D-06 at cycle   7 NSaved=   7.
 NSaved= 7 IEnMin= 7 EnMin= -1351.69484184983     IErMin= 7 ErrMin= 1.96D-06
 ErrMax= 1.96D-06  0.00D+00 EMaxC= 1.00D-01 BMatC= 1.26D-09 BMatP= 1.34D-08
 IDIUse=1 WtCom= 1.00D+00 WtEn= 0.00D+00
 Coeff-Com:  0.815D-03-0.353D-02-0.756D-02-0.278D-01 0.246D-01 0.251D+00
 Coeff-Com:  0.763D+00
 Coeff:      0.815D-03-0.353D-02-0.756D-02-0.278D-01 0.246D-01 0.251D+00
 Coeff:      0.763D+00
 Gap=     0.428 Goal=   None    Shift=    0.000
 RMSDP=4.98D-07 MaxDP=1.18D-05 DE=-1.30D-08 OVMax= 2.04D-05

 Cycle   8  Pass 1  IDiag  1:
 E= -1351.69484185136     Delta-E=       -0.000000001532 Rises=F Damp=F
 DIIS: error= 7.23D-07 at cycle   8 NSaved=   8.
 NSaved= 8 IEnMin= 8 EnMin= -1351.69484185136     IErMin= 8 ErrMin= 7.23D-07
 ErrMax= 7.23D-07  0.00D+00 EMaxC= 1.00D-01 BMatC= 2.18D-10 BMatP= 1.26D-09
 IDIUse=1 WtCom= 1.00D+00 WtEn= 0.00D+00
 Coeff-Com: -0.986D-04 0.196D-02-0.890D-03-0.183D-01-0.305D-01 0.250D-02
 Coeff-Com:  0.320D+00 0.725D+00
 Coeff:     -0.986D-04 0.196D-02-0.890D-03-0.183D-01-0.305D-01 0.250D-02
 Coeff:      0.320D+00 0.725D+00
 Gap=     0.428 Goal=   None    Shift=    0.000
 RMSDP=1.94D-07 MaxDP=3.15D-06 DE=-1.53D-09 OVMax= 7.72D-06

 Cycle   9  Pass 1  IDiag  1:
 E= -1351.69484185157     Delta-E=       -0.000000000208 Rises=F Damp=F
 DIIS: error= 2.59D-07 at cycle   9 NSaved=   9.
 NSaved= 9 IEnMin= 9 EnMin= -1351.69484185157     IErMin= 9 ErrMin= 2.59D-07
 ErrMax= 2.59D-07  0.00D+00 EMaxC= 1.00D-01 BMatC= 3.54D-11 BMatP= 2.18D-10
 IDIUse=1 WtCom= 1.00D+00 WtEn= 0.00D+00
 Coeff-Com: -0.144D-03 0.138D-02 0.561D-03-0.526D-02-0.175D-01-0.292D-01
 Coeff-Com:  0.553D-01 0.343D+00 0.652D+00
 Coeff:     -0.144D-03 0.138D-02 0.561D-03-0.526D-02-0.175D-01-0.292D-01
 Coeff:      0.553D-01 0.343D+00 0.652D+00
 Gap=     0.428 Goal=   None    Shift=    0.000
 RMSDP=5.36D-08 MaxDP=9.84D-07 DE=-2.08D-10 OVMax= 2.35D-06

 Cycle  10  Pass 1  IDiag  1:
 E= -1351.69484185162     Delta-E=       -0.000000000047 Rises=F Damp=F
 DIIS: error= 6.73D-08 at cycle  10 NSaved=  10.
 NSaved=10 IEnMin=10 EnMin= -1351.69484185162     IErMin=10 ErrMin= 6.73D-08
 ErrMax= 6.73D-08  0.00D+00 EMaxC= 1.00D-01 BMatC= 2.40D-12 BMatP= 3.54D-11
 IDIUse=1 WtCom= 1.00D+00 WtEn= 0.00D+00
 Coeff-Com: -0.301D-04 0.155D-03 0.280D-03 0.652D-03-0.131D-02-0.810D-02
 Coeff-Com: -0.242D-01 0.802D-02 0.195D+00 0.830D+00
 Coeff:     -0.301D-04 0.155D-03 0.280D-03 0.652D-03-0.131D-02-0.810D-02
 Coeff:     -0.242D-01 0.802D-02 0.195D+00 0.830D+00
 Gap=     0.428 Goal=   None    Shift=    0.000
 RMSDP=2.38D-08 MaxDP=4.66D-07 DE=-4.68D-11 OVMax= 9.94D-07

 Cycle  11  Pass 1  IDiag  1:
 E= -1351.69484185162     Delta-E=        0.000000000001 Rises=F Damp=F
 DIIS: error= 4.93D-08 at cycle  11 NSaved=  11.
 NSaved=11 IEnMin=10 EnMin= -1351.69484185162     IErMin=11 ErrMin= 4.93D-08
 ErrMax= 4.93D-08  0.00D+00 EMaxC= 1.00D-01 BMatC= 6.37D-13 BMatP= 2.40D-12
 IDIUse=1 WtCom= 1.00D+00 WtEn= 0.00D+00
 Coeff-Com:  0.337D-05-0.102D-03 0.670D-04 0.102D-02 0.154D-02-0.355D-03
 Coeff-Com: -0.183D-01-0.398D-01 0.105D-01 0.407D+00 0.639D+00
 Coeff:      0.337D-05-0.102D-03 0.670D-04 0.102D-02 0.154D-02-0.355D-03
 Coeff:     -0.183D-01-0.398D-01 0.105D-01 0.407D+00 0.639D+00
 Gap=     0.428 Goal=   None    Shift=    0.000
 RMSDP=8.23D-09 MaxDP=1.74D-07 DE= 1.36D-12 OVMax= 3.27D-07

 SCF Done:  E(RwB97XD) =  -1351.69484185     A.U. after   11 cycles
            NFock= 11  Conv=0.82D-08     -V/T= 2.0017
 KE= 1.349384385290D+03 PE=-4.766637725852D+03 EE= 1.293279738265D+03
 Leave Link  502 at Sat Sep 14 18:10:22 2024, MaxMem=  4294967296 cpu:             936.3 elap:              65.1
 (Enter /home/appl/Gaussian/g16/l701.exe)
 ... and contract with generalized density number  0.
 Compute integral first derivatives.
 R6Disp: Adding Grimme-D2 dispersion energy 1st derivatives to the gradient.
 Leave Link  701 at Sat Sep 14 18:10:32 2024, MaxMem=  4294967296 cpu:              52.4 elap:               3.2
 (Enter /home/appl/Gaussian/g16/l702.exe)
 L702 exits ... SP integral derivatives will be done elsewhere.
 Leave Link  702 at Sat Sep 14 18:10:33 2024, MaxMem=  4294967296 cpu:               2.0 elap:               0.2
 (Enter /home/appl/Gaussian/g16/l703.exe)
 Integral derivatives from FoFJK, PRISM(SPDF).
 Compute integral first derivatives, UseDBF=F ICtDFT=           0.
 Calling FoFJK, ICntrl=      2127 FMM=F ISym2X=0 I1Cent= 0 IOpClX= 0 NMat=1 NMatS=1 NMatT=0.
 FoFJK:  IHMeth= 1 ICntrl=    2127 DoSepK=T KAlg= 0 I1Cent=           0 FoldK=F
 IRaf=         1 NMat=       1 IRICut=       1 DoRegI=T DoRafI=F ISym2E= 0 IDoP0=0 IntGTp=1.
 FoFCou: FMM=F IPFlag=           0 FMFlag=      100000 FMFlg1=         800
         NFxFlg=           0 DoJE=F BraDBF=F KetDBF=F FulRan=T
         wScrn=  0.000000 ICntrl=      2527 IOpCl=  0 I1Cent=           0 NGrid=           0
         NMat0=    1 NMatS0=      1 NMatT0=    0 NMatD0=    1 NMtDS0=    0 NMtDT0=    0
 Symmetry not used in FoFCou.
 Leave Link  703 at Sat Sep 14 18:10:40 2024, MaxMem=  4294967296 cpu:             109.8 elap:               6.7
 (Enter /home/appl/Gaussian/g16/l716.exe)
 Dipole        =-2.54053982D-02 8.77643888D-03 1.13578266D-01
 ***** Axes restored to original set *****
 -------------------------------------------------------------------
 Center     Atomic                   Forces (Hartrees/Bohr)
 Number     Number              X              Y              Z
 -------------------------------------------------------------------
      1       16           0.011872822   -0.001589716   -0.000585131
      2        9          -0.000041675    0.000315701   -0.000423595
      3        8          -0.002034256    0.001876814    0.001921072
      4        8          -0.009139931   -0.000023429   -0.001521516
      5        7          -0.001255274   -0.000427593    0.000651257
      6       16           0.001256168    0.001865722    0.000928400
      7        9          -0.000244020    0.000038547    0.000336406
      8        8          -0.000086725   -0.002503220   -0.000833057
      9        8          -0.000327109    0.000447173   -0.000473836
 -------------------------------------------------------------------
 Cartesian Forces:  Max     0.011872822 RMS     0.003085787
 Leave Link  716 at Sat Sep 14 18:10:41 2024, MaxMem=  4294967296 cpu:               1.7 elap:               0.2
 (Enter /home/appl/Gaussian/g16/l103.exe)

 GradGradGradGradGradGradGradGradGradGradGradGradGradGradGradGradGradGrad
 Berny optimization.
 Using GEDIIS/GDIIS optimizer.
 FormGI is forming the generalized inverse of G from B-inverse, IUseBI=4.
 Internal  Forces:  Max     0.009264960 RMS     0.002000334
 Search for a local minimum.
 Step number   8 out of a maximum of  100
 All quantities printed in internal units (Hartrees-Bohrs-Radians)
 RMS Force = .20003D-02 SwitMx=.10000D-02 MixMth= 1
 Mixed Optimization -- RFO/linear search
 Update second derivatives using D2CorX and points    3    4    5    6    7
                                                      8
 DE= -1.66D-04 DEPred=-1.17D-04 R= 1.42D+00
 TightC=F SS=  1.41D+00  RLast= 6.11D-02 DXNew= 1.4270D+00 1.8337D-01
 Trust test= 1.42D+00 RLast= 6.11D-02 DXMaxT set to 8.49D-01
 ITU=  1  1  1  1  1  1  1  0
 Use linear search instead of GDIIS.
     Eigenvalues ---    0.01827   0.03719   0.15217   0.17265   0.18609
     Eigenvalues ---    0.23496   0.24494   0.24980   0.25052   0.25313
     Eigenvalues ---    0.26659   0.32462   0.33863   0.41645   0.49661
     Eigenvalues ---    0.65919   0.78658   0.98657   1.16582   1.18585
     Eigenvalues ---    1.60423
 RFO step:  Lambda=-7.22109616D-05 EMin= 1.82673727D-02
 Quartic linear search produced a step of  0.54463.
 Iteration  1 RMS(Cart)=  0.00785455 RMS(Int)=  0.00003805
 Iteration  2 RMS(Cart)=  0.00006976 RMS(Int)=  0.00000091
 Iteration  3 RMS(Cart)=  0.00000000 RMS(Int)=  0.00000091
 ITry= 1 IFail=0 DXMaxC= 1.88D-02 DCOld= 1.00D+10 DXMaxT= 8.49D-01 DXLimC= 3.00D+00 Rises=F
 Variable       Old X    -DE/DX   Delta X   Delta X   Delta X     New X
                                 (Linear)    (Quad)   (Total)
    R1        3.10125   0.00051  -0.00311   0.00126  -0.00185   3.09941
    R2        2.71740   0.00336  -0.00221   0.00277   0.00056   2.71797
    R3        2.73239  -0.00926  -0.00412  -0.00539  -0.00951   2.72288
    R4        2.99797   0.00068  -0.00105   0.00005  -0.00100   2.99697
    R5        3.00323  -0.00053  -0.00270  -0.00087  -0.00357   2.99966
    R6        3.10069   0.00040   0.00728  -0.00489   0.00239   3.10309
    R7        2.71368   0.00259  -0.00066   0.00216   0.00150   2.71518
    R8        2.72178   0.00071   0.00065   0.00062   0.00128   2.72306
    A1        1.80978  -0.00001   0.00113   0.00045   0.00158   1.81137
    A2        1.80556  -0.00011  -0.00123   0.00026  -0.00097   1.80459
    A3        1.78730   0.00038  -0.00011   0.00208   0.00197   1.78927
    A4        2.08713  -0.00006   0.00128  -0.00094   0.00034   2.08747
    A5        2.03517  -0.00041  -0.00157  -0.00150  -0.00307   2.03210
    A6        1.89438   0.00031   0.00036   0.00047   0.00082   1.89520
    A7        2.15454   0.00081   0.00439   0.00221   0.00660   2.16114
    A8        1.78911   0.00053  -0.00133   0.00184   0.00051   1.78961
    A9        1.89465  -0.00001  -0.00019   0.00171   0.00152   1.89617
   A10        2.03122  -0.00044  -0.00082  -0.00057  -0.00138   2.02984
   A11        1.80681   0.00035  -0.00119   0.00014  -0.00105   1.80576
   A12        1.80990   0.00005   0.00040  -0.00080  -0.00040   1.80950
   A13        2.08852  -0.00022   0.00244  -0.00181   0.00062   2.08914
    D1       -1.36540   0.00020   0.01256  -0.00097   0.01160  -1.35380
    D2        0.59656   0.00025   0.01316   0.00022   0.01338   0.60994
    D3        3.01600   0.00006   0.01386  -0.00232   0.01154   3.02754
    D4       -1.28616  -0.00016  -0.01268  -0.00254  -0.01522  -1.30138
    D5        3.09298  -0.00078  -0.01072  -0.00408  -0.01480   3.07818
    D6        0.67532   0.00004  -0.01339  -0.00260  -0.01599   0.65932
         Item               Value     Threshold  Converged?
 Maximum Force            0.009265     0.000450     NO 
 RMS     Force            0.002000     0.000300     NO 
 Maximum Displacement     0.018838     0.001800     NO 
 RMS     Displacement     0.007869     0.001200     NO 
 Predicted change in Energy=-6.709521D-05
 Lowest energy point so far.  Saving SCF results.
 GradGradGradGradGradGradGradGradGradGradGradGradGradGradGradGradGradGrad

 Leave Link  103 at Sat Sep 14 18:11:00 2024, MaxMem=  4294967296 cpu:             200.1 elap:              17.6
 (Enter /home/appl/Gaussian/g16/l202.exe)
                          Input orientation:                          
 ---------------------------------------------------------------------
 Center     Atomic      Atomic             Coordinates (Angstroms)
 Number     Number       Type             X           Y           Z
 ---------------------------------------------------------------------
      1         16           0        0.978838    7.035866    5.177026
      2          9           0        0.827905    7.599707    3.644269
      3          8           0        0.122821    7.899136    5.945574
      4          8           0        2.401707    7.059787    5.402911
      5          7           0        0.514840    5.525988    5.035114
      6         16           0       -1.003108    5.074538    4.926871
      7          9           0       -1.540514    5.258762    6.467550
      8          8           0       -1.046131    3.652574    4.725384
      9          8           0       -1.870734    5.931016    4.158693
 ---------------------------------------------------------------------
                    Distance matrix (angstroms):
                    1          2          3          4          5
     1  S    0.000000
     2  F    1.640135   0.000000
     3  O    1.438285   2.425449   0.000000
     4  O    1.440886   2.420989   2.488435   0.000000
     5  N    1.585927   2.516499   2.571857   2.459284   0.000000
     6  S    2.799553   3.372560   3.206841   3.969961   1.587354
     7  F    3.342257   4.365816   3.163972   4.462987   2.519477
     8  O    3.968771   4.501186   4.570405   4.894458   2.458098
     9  O    3.221452   3.214314   3.322755   4.590855   2.573543
                    6          7          8          9
     6  S    0.000000
     7  F    1.642082   0.000000
     8  O    1.436812   2.420619   0.000000
     9  O    1.440982   2.427301   2.488454   0.000000
 Stoichiometry    F2NO4S2(1-)
 Framework group  C1[X(F2NO4S2)]
 Deg. of freedom    21
 Full point group                 C1      NOp   1
 RotChk:  IX=0 Diff= 3.05D-02
 Largest Abelian subgroup         C1      NOp   1
 Largest concise Abelian subgroup C1      NOp   1
                         Standard orientation:                         
 ---------------------------------------------------------------------
 Center     Atomic      Atomic             Coordinates (Angstroms)
 Number     Number       Type             X           Y           Z
 ---------------------------------------------------------------------
      1         16           0        1.389328   -0.151831   -0.082016
      2          9           0        1.707575    1.386060    0.390903
      3          8           0        1.372624   -0.892872    1.150560
      4          8           0        2.413649   -0.419227   -1.059471
      5          7           0        0.000923   -0.000076   -0.833325
      6         16           0       -1.393733    0.151469   -0.090587
      7          9           0       -1.675871   -1.372357    0.452355
      8          8           0       -2.419850    0.350660   -1.076405
      9          8           0       -1.394088    0.946813    1.111018
 ---------------------------------------------------------------------
 Rotational constants (GHZ):           2.5275031           0.8787866           0.8620446
 Leave Link  202 at Sat Sep 14 18:11:01 2024, MaxMem=  4294967296 cpu:               4.3 elap:               0.5
 (Enter /home/appl/Gaussian/g16/l301.exe)
 Standard basis: 6-311++G(d,p) (5D, 7F)
 Ernie: Thresh=  0.10000D-02 Tol=  0.10000D-05 Strict=F.
 There are   223 symmetry adapted cartesian basis functions of A   symmetry.
 There are   214 symmetry adapted basis functions of A   symmetry.
   214 basis functions,   352 primitive gaussians,   223 cartesian basis functions
    45 alpha electrons       45 beta electrons
       nuclear repulsion energy       772.2265002767 Hartrees.
 IExCor= 4639 DFT=T Ex+Corr=wB97XD ExCW=0 ScaHFX=  1.000000
 ScaDFX=  1.000000  1.000000  1.000000  1.000000 ScalE2=  1.000000  1.000000
 IRadAn=      5 IRanWt=     -1 IRanGd=            0 ICorTp=0 IEmpDi=121
 HFx  wShort=  0.000000 wLong=  0.200000 cFull=  0.222036 cShort=  0.000000 cLong=  0.777964
 DFx  wShort=  0.000000 wLong=  0.200000 cFull=  0.000000 cShort=  0.000000 cLong=  1.000000
 NAtoms=    9 NActive=    9 NUniq=    9 SFac= 1.00D+00 NAtFMM=   60 NAOKFM=F Big=F
 Integral buffers will be    131072 words long.
 Raffenetti 2 integral format.
 Two-electron integral symmetry is turned on.
 R6Disp:  Grimme-D2 Dispersion energy=       -0.0028607640 Hartrees.
 Nuclear repulsion after empirical dispersion term =      772.2236395127 Hartrees.
 Leave Link  301 at Sat Sep 14 18:11:02 2024, MaxMem=  4294967296 cpu:               4.7 elap:               0.4
 (Enter /home/appl/Gaussian/g16/l302.exe)
 NPDir=0 NMtPBC=     1 NCelOv=     1 NCel=       1 NClECP=     1 NCelD=      1
         NCelK=      1 NCelE2=     1 NClLst=     1 CellRange=     0.0.
 One-electron integrals computed using PRISM.
 One-electron integral symmetry used in STVInt
 NBasis=   214 RedAO= T EigKep=  2.24D-04  NBF=   214
 NBsUse=   214 1.00D-06 EigRej= -1.00D+00 NBFU=   214
 Precomputing XC quadrature grid using
 IXCGrd= 4 IRadAn=           5 IRanWt=          -1 IRanGd=           0 AccXCQ= 0.00D+00.
 Generated NRdTot=       0 NPtTot=           0 NUsed=           0 NTot=          32
 NSgBfM=   223   223   223   223   223 MxSgAt=     9 MxSgA2=     9.
 Leave Link  302 at Sat Sep 14 18:11:10 2024, MaxMem=  4294967296 cpu:             137.3 elap:               7.7
 (Enter /home/appl/Gaussian/g16/l303.exe)
 DipDrv:  MaxL=1.
 Leave Link  303 at Sat Sep 14 18:11:12 2024, MaxMem=  4294967296 cpu:              16.3 elap:               1.1
 (Enter /home/appl/Gaussian/g16/l401.exe)
 Initial guess from the checkpoint file:  "/scr/Gau-148765.chk"
 B after Tr=    -0.000000   -0.000000   -0.000000
         Rot=    0.999942   -0.010779   -0.000195    0.000531 Ang=  -1.24 deg.
 Guess basis will be translated and rotated to current coordinates.
 JPrj=2 DoOrth=T DoCkMO=T.
 Leave Link  401 at Sat Sep 14 18:11:17 2024, MaxMem=  4294967296 cpu:              88.0 elap:               5.1
 (Enter /home/appl/Gaussian/g16/l502.exe)
 Keep R1 ints in memory in canonical form, NReq=576265202.
 FoFCou: FMM=F IPFlag=           0 FMFlag=           0 FMFlg1=           0
         NFxFlg=           0 DoJE=F BraDBF=F KetDBF=F FulRan=T
         wScrn=  0.000000 ICntrl=       600 IOpCl=  0 I1Cent=           0 NGrid=           0
         NMat0=    1 NMatS0=  23005 NMatT0=    0 NMatD0=    1 NMtDS0=    0 NMtDT0=    0
 Symmetry not used in FoFCou.
 Two-electron integral symmetry not used.
 Closed shell SCF:
 Using DIIS extrapolation, IDIIS=  1040.
 NGot=  4294967296 LenX=  3765603616 LenY=  3765553446
 Requested convergence on RMS density matrix=1.00D-08 within 128 cycles.
 Requested convergence on MAX density matrix=1.00D-06.
 Requested convergence on             energy=1.00D-06.
 No special actions if energy rises.

 Cycle   1  Pass 1  IDiag  1:
 E= -1351.69474804617    
 DIIS: error= 4.24D-04 at cycle   1 NSaved=   1.
 NSaved= 1 IEnMin= 1 EnMin= -1351.69474804617     IErMin= 1 ErrMin= 4.24D-04
 ErrMax= 4.24D-04  0.00D+00 EMaxC= 1.00D-01 BMatC= 1.19D-04 BMatP= 1.19D-04
 IDIUse=3 WtCom= 9.96D-01 WtEn= 4.24D-03
 Coeff-Com:  0.100D+01
 Coeff-En:   0.100D+01
 Coeff:      0.100D+01
 Gap=     0.673 Goal=   None    Shift=    0.000
 RMSDP=1.45D-04 MaxDP=4.03D-03              OVMax= 2.89D-03

 Cycle   2  Pass 1  IDiag  1:
 E= -1351.69491296056     Delta-E=       -0.000164914391 Rises=F Damp=F
 DIIS: error= 1.34D-04 at cycle   2 NSaved=   2.
 NSaved= 2 IEnMin= 2 EnMin= -1351.69491296056     IErMin= 2 ErrMin= 1.34D-04
 ErrMax= 1.34D-04  0.00D+00 EMaxC= 1.00D-01 BMatC= 1.12D-05 BMatP= 1.19D-04
 IDIUse=3 WtCom= 9.99D-01 WtEn= 1.34D-03
 Coeff-Com:  0.824D-02 0.992D+00
 Coeff-En:   0.000D+00 0.100D+01
 Coeff:      0.823D-02 0.992D+00
 Gap=     0.428 Goal=   None    Shift=    0.000
 RMSDP=3.88D-05 MaxDP=1.01D-03 DE=-1.65D-04 OVMax= 1.09D-03

 Cycle   3  Pass 1  IDiag  1:
 E= -1351.69491574379     Delta-E=       -0.000002783229 Rises=F Damp=F
 DIIS: error= 1.96D-04 at cycle   3 NSaved=   3.
 NSaved= 3 IEnMin= 3 EnMin= -1351.69491574379     IErMin= 2 ErrMin= 1.34D-04
 ErrMax= 1.96D-04  0.00D+00 EMaxC= 1.00D-01 BMatC= 1.55D-05 BMatP= 1.12D-05
 IDIUse=3 WtCom= 4.17D-01 WtEn= 5.83D-01
 Coeff-Com: -0.926D-01 0.595D+00 0.498D+00
 Coeff-En:   0.000D+00 0.410D+00 0.590D+00
 Coeff:     -0.386D-01 0.487D+00 0.552D+00
 Gap=     0.428 Goal=   None    Shift=    0.000
 RMSDP=2.48D-05 MaxDP=5.68D-04 DE=-2.78D-06 OVMax= 7.74D-04

 Cycle   4  Pass 1  IDiag  1:
 E= -1351.69492532544     Delta-E=       -0.000009581652 Rises=F Damp=F
 DIIS: error= 7.66D-05 at cycle   4 NSaved=   4.
 NSaved= 4 IEnMin= 4 EnMin= -1351.69492532544     IErMin= 4 ErrMin= 7.66D-05
 ErrMax= 7.66D-05  0.00D+00 EMaxC= 1.00D-01 BMatC= 1.72D-06 BMatP= 1.12D-05
 IDIUse=1 WtCom= 1.00D+00 WtEn= 0.00D+00
 Coeff-Com: -0.214D-01 0.154D-01 0.262D+00 0.744D+00
 Coeff:     -0.214D-01 0.154D-01 0.262D+00 0.744D+00
 Gap=     0.428 Goal=   None    Shift=    0.000
 RMSDP=7.96D-06 MaxDP=1.41D-04 DE=-9.58D-06 OVMax= 2.41D-04

 Cycle   5  Pass 1  IDiag  1:
 E= -1351.69492659905     Delta-E=       -0.000001273608 Rises=F Damp=F
 DIIS: error= 1.32D-05 at cycle   5 NSaved=   5.
 NSaved= 5 IEnMin= 5 EnMin= -1351.69492659905     IErMin= 5 ErrMin= 1.32D-05
 ErrMax= 1.32D-05  0.00D+00 EMaxC= 1.00D-01 BMatC= 4.98D-08 BMatP= 1.72D-06
 IDIUse=1 WtCom= 1.00D+00 WtEn= 0.00D+00
 Coeff-Com:  0.104D-02-0.594D-01 0.564D-01 0.315D+00 0.687D+00
 Coeff:      0.104D-02-0.594D-01 0.564D-01 0.315D+00 0.687D+00
 Gap=     0.428 Goal=   None    Shift=    0.000
 RMSDP=1.92D-06 MaxDP=5.55D-05 DE=-1.27D-06 OVMax= 7.49D-05

 Cycle   6  Pass 1  IDiag  1:
 E= -1351.69492664124     Delta-E=       -0.000000042197 Rises=F Damp=F
 DIIS: error= 3.78D-06 at cycle   6 NSaved=   6.
 NSaved= 6 IEnMin= 6 EnMin= -1351.69492664124     IErMin= 6 ErrMin= 3.78D-06
 ErrMax= 3.78D-06  0.00D+00 EMaxC= 1.00D-01 BMatC= 5.36D-09 BMatP= 4.98D-08
 IDIUse=1 WtCom= 1.00D+00 WtEn= 0.00D+00
 Coeff-Com:  0.301D-02-0.255D-01-0.117D-01 0.315D-01 0.271D+00 0.732D+00
 Coeff:      0.301D-02-0.255D-01-0.117D-01 0.315D-01 0.271D+00 0.732D+00
 Gap=     0.428 Goal=   None    Shift=    0.000
 RMSDP=7.90D-07 MaxDP=1.93D-05 DE=-4.22D-08 OVMax= 3.01D-05

 Cycle   7  Pass 1  IDiag  1:
 E= -1351.69492664658     Delta-E=       -0.000000005334 Rises=F Damp=F
 DIIS: error= 1.10D-06 at cycle   7 NSaved=   7.
 NSaved= 7 IEnMin= 7 EnMin= -1351.69492664658     IErMin= 7 ErrMin= 1.10D-06
 ErrMax= 1.10D-06  0.00D+00 EMaxC= 1.00D-01 BMatC= 7.09D-10 BMatP= 5.36D-09
 IDIUse=1 WtCom= 1.00D+00 WtEn= 0.00D+00
 Coeff-Com:  0.115D-02-0.467D-02-0.114D-01-0.197D-01 0.395D-01 0.305D+00
 Coeff-Com:  0.690D+00
 Coeff:      0.115D-02-0.467D-02-0.114D-01-0.197D-01 0.395D-01 0.305D+00
 Coeff:      0.690D+00
 Gap=     0.428 Goal=   None    Shift=    0.000
 RMSDP=3.02D-07 MaxDP=5.93D-06 DE=-5.33D-09 OVMax= 1.23D-05

 Cycle   8  Pass 1  IDiag  1:
 E= -1351.69492664731     Delta-E=       -0.000000000738 Rises=F Damp=F
 DIIS: error= 4.96D-07 at cycle   8 NSaved=   8.
 NSaved= 8 IEnMin= 8 EnMin= -1351.69492664731     IErMin= 8 ErrMin= 4.96D-07
 ErrMax= 4.96D-07  0.00D+00 EMaxC= 1.00D-01 BMatC= 1.11D-10 BMatP= 7.09D-10
 IDIUse=1 WtCom= 1.00D+00 WtEn= 0.00D+00
 Coeff-Com:  0.363D-05 0.223D-02-0.301D-02-0.137D-01-0.289D-01 0.666D-02
 Coeff-Com:  0.294D+00 0.742D+00
 Coeff:      0.363D-05 0.223D-02-0.301D-02-0.137D-01-0.289D-01 0.666D-02
 Coeff:      0.294D+00 0.742D+00
 Gap=     0.428 Goal=   None    Shift=    0.000
 RMSDP=1.39D-07 MaxDP=2.35D-06 DE=-7.38D-10 OVMax= 5.39D-06

 Cycle   9  Pass 1  IDiag  1:
 E= -1351.69492664744     Delta-E=       -0.000000000130 Rises=F Damp=F
 DIIS: error= 1.94D-07 at cycle   9 NSaved=   9.
 NSaved= 9 IEnMin= 9 EnMin= -1351.69492664744     IErMin= 9 ErrMin= 1.94D-07
 ErrMax= 1.94D-07  0.00D+00 EMaxC= 1.00D-01 BMatC= 1.79D-11 BMatP= 1.11D-10
 IDIUse=1 WtCom= 1.00D+00 WtEn= 0.00D+00
 Coeff-Com: -0.147D-03 0.169D-02 0.160D-03-0.380D-02-0.189D-01-0.382D-01
 Coeff-Com:  0.456D-01 0.351D+00 0.663D+00
 Coeff:     -0.147D-03 0.169D-02 0.160D-03-0.380D-02-0.189D-01-0.382D-01
 Coeff:      0.456D-01 0.351D+00 0.663D+00
 Gap=     0.428 Goal=   None    Shift=    0.000
 RMSDP=3.98D-08 MaxDP=7.94D-07 DE=-1.30D-10 OVMax= 1.76D-06

 Cycle  10  Pass 1  IDiag  1:
 E= -1351.69492664745     Delta-E=       -0.000000000008 Rises=F Damp=F
 DIIS: error= 4.31D-08 at cycle  10 NSaved=  10.
 NSaved=10 IEnMin=10 EnMin= -1351.69492664745     IErMin=10 ErrMin= 4.31D-08
 ErrMax= 4.31D-08  0.00D+00 EMaxC= 1.00D-01 BMatC= 8.51D-13 BMatP= 1.79D-11
 IDIUse=1 WtCom= 1.00D+00 WtEn= 0.00D+00
 Coeff-Com: -0.356D-04 0.175D-03 0.342D-03 0.413D-03-0.155D-02-0.902D-02
 Coeff-Com: -0.180D-01 0.741D-02 0.160D+00 0.860D+00
 Coeff:     -0.356D-04 0.175D-03 0.342D-03 0.413D-03-0.155D-02-0.902D-02
 Coeff:     -0.180D-01 0.741D-02 0.160D+00 0.860D+00
 Gap=     0.428 Goal=   None    Shift=    0.000
 RMSDP=1.55D-08 MaxDP=4.43D-07 DE=-8.19D-12 OVMax= 5.71D-07

 Cycle  11  Pass 1  IDiag  1:
 E= -1351.69492664745     Delta-E=        0.000000000001 Rises=F Damp=F
 DIIS: error= 2.69D-08 at cycle  11 NSaved=  11.
 NSaved=11 IEnMin=10 EnMin= -1351.69492664745     IErMin=11 ErrMin= 2.69D-08
 ErrMax= 2.69D-08  0.00D+00 EMaxC= 1.00D-01 BMatC= 2.26D-13 BMatP= 8.51D-13
 IDIUse=1 WtCom= 1.00D+00 WtEn= 0.00D+00
 Coeff-Com:  0.230D-05-0.137D-03 0.138D-03 0.692D-03 0.168D-02 0.809D-03
 Coeff-Com: -0.142D-01-0.418D-01-0.143D-01 0.389D+00 0.678D+00
 Coeff:      0.230D-05-0.137D-03 0.138D-03 0.692D-03 0.168D-02 0.809D-03
 Coeff:     -0.142D-01-0.418D-01-0.143D-01 0.389D+00 0.678D+00
 Gap=     0.428 Goal=   None    Shift=    0.000
 RMSDP=5.23D-09 MaxDP=1.18D-07 DE= 9.09D-13 OVMax= 1.72D-07

 SCF Done:  E(RwB97XD) =  -1351.69492665     A.U. after   11 cycles
            NFock= 11  Conv=0.52D-08     -V/T= 2.0017
 KE= 1.349395302989D+03 PE=-4.766539637992D+03 EE= 1.293225768843D+03
 Leave Link  502 at Sat Sep 14 18:12:09 2024, MaxMem=  4294967296 cpu:             757.2 elap:              50.8
 (Enter /home/appl/Gaussian/g16/l701.exe)
 ... and contract with generalized density number  0.
 Compute integral first derivatives.
 R6Disp: Adding Grimme-D2 dispersion energy 1st derivatives to the gradient.
 Leave Link  701 at Sat Sep 14 18:12:15 2024, MaxMem=  4294967296 cpu:              49.5 elap:               3.0
 (Enter /home/appl/Gaussian/g16/l702.exe)
 L702 exits ... SP integral derivatives will be done elsewhere.
 Leave Link  702 at Sat Sep 14 18:12:16 2024, MaxMem=  4294967296 cpu:               2.1 elap:               0.2
 (Enter /home/appl/Gaussian/g16/l703.exe)
 Integral derivatives from FoFJK, PRISM(SPDF).
 Compute integral first derivatives, UseDBF=F ICtDFT=           0.
 Calling FoFJK, ICntrl=      2127 FMM=F ISym2X=0 I1Cent= 0 IOpClX= 0 NMat=1 NMatS=1 NMatT=0.
 FoFJK:  IHMeth= 1 ICntrl=    2127 DoSepK=T KAlg= 0 I1Cent=           0 FoldK=F
 IRaf=         1 NMat=       1 IRICut=       1 DoRegI=T DoRafI=F ISym2E= 0 IDoP0=0 IntGTp=1.
 FoFCou: FMM=F IPFlag=           0 FMFlag=      100000 FMFlg1=         800
         NFxFlg=           0 DoJE=F BraDBF=F KetDBF=F FulRan=T
         wScrn=  0.000000 ICntrl=      2527 IOpCl=  0 I1Cent=           0 NGrid=           0
         NMat0=    1 NMatS0=      1 NMatT0=    0 NMatD0=    1 NMtDS0=    0 NMtDT0=    0
 Symmetry not used in FoFCou.
 Leave Link  703 at Sat Sep 14 18:12:23 2024, MaxMem=  4294967296 cpu:             106.6 elap:               6.6
 (Enter /home/appl/Gaussian/g16/l716.exe)
 Dipole        =-8.40327148D-03 8.86134746D-03 1.03813356D-01
 ***** Axes restored to original set *****
 -------------------------------------------------------------------
 Center     Atomic                   Forces (Hartrees/Bohr)
 Number     Number              X              Y              Z
 -------------------------------------------------------------------
      1       16           0.005725313   -0.001505222   -0.000521099
      2        9          -0.000376225    0.000332824   -0.000737651
      3        8          -0.001871964    0.001905709    0.001550445
      4        8          -0.003189798   -0.000003643   -0.000438743
      5        7          -0.000356819   -0.000946673    0.000255744
      6       16           0.000156516    0.001849576    0.000700953
      7        9          -0.000042010    0.000045032   -0.000030169
      8        8          -0.000042503   -0.001466367   -0.000673484
      9        8          -0.000002511   -0.000211237   -0.000105996
 -------------------------------------------------------------------
 Cartesian Forces:  Max     0.005725313 RMS     0.001536132
 Leave Link  716 at Sat Sep 14 18:12:24 2024, MaxMem=  4294967296 cpu:               1.9 elap:               0.2
 (Enter /home/appl/Gaussian/g16/l103.exe)

 GradGradGradGradGradGradGradGradGradGradGradGradGradGradGradGradGradGrad
 Berny optimization.
 Using GEDIIS/GDIIS optimizer.
 FormGI is forming the generalized inverse of G from B-inverse, IUseBI=4.
 Internal  Forces:  Max     0.003219174 RMS     0.000959378
 Search for a local minimum.
 Step number   9 out of a maximum of  100
 All quantities printed in internal units (Hartrees-Bohrs-Radians)
 RMS Force = .95938D-03 SwitMx=.10000D-02 MixMth= 2
 Mixed Optimization -- En-DIIS/RFO-DIIS
 Update second derivatives using D2CorX and points    3    4    5    6    7
                                                      8    9
 DE= -8.48D-05 DEPred=-6.71D-05 R= 1.26D+00
 TightC=F SS=  1.41D+00  RLast= 3.66D-02 DXNew= 1.4270D+00 1.0973D-01
 Trust test= 1.26D+00 RLast= 3.66D-02 DXMaxT set to 8.49D-01
 ITU=  1  1  1  1  1  1  1  1  0
 Use linear search instead of GDIIS.
     Eigenvalues ---    0.01832   0.03690   0.15447   0.17242   0.18631
     Eigenvalues ---    0.23522   0.24733   0.25003   0.25093   0.26053
     Eigenvalues ---    0.27920   0.30807   0.33831   0.39902   0.51559
     Eigenvalues ---    0.64445   0.79258   0.98022   1.08556   1.17555
     Eigenvalues ---    1.32214
 RFO step:  Lambda=-1.80523958D-05 EMin= 1.83246795D-02
 Quartic linear search produced a step of  0.42019.
 Iteration  1 RMS(Cart)=  0.00381191 RMS(Int)=  0.00000774
 Iteration  2 RMS(Cart)=  0.00001143 RMS(Int)=  0.00000035
 Iteration  3 RMS(Cart)=  0.00000000 RMS(Int)=  0.00000035
 ITry= 1 IFail=0 DXMaxC= 8.87D-03 DCOld= 1.00D+10 DXMaxT= 8.49D-01 DXLimC= 3.00D+00 Rises=F
 Variable       Old X    -DE/DX   Delta X   Delta X   Delta X     New X
                                 (Linear)    (Quad)   (Total)
    R1        3.09941   0.00084  -0.00078   0.00175   0.00098   3.10038
    R2        2.71797   0.00309   0.00024   0.00227   0.00250   2.72047
    R3        2.72288  -0.00322  -0.00400  -0.00074  -0.00474   2.71814
    R4        2.99697   0.00077  -0.00042   0.00097   0.00055   2.99752
    R5        2.99966  -0.00012  -0.00150   0.00035  -0.00115   2.99851
    R6        3.10309  -0.00001   0.00101  -0.00187  -0.00087   3.10222
    R7        2.71518   0.00155   0.00063   0.00108   0.00171   2.71689
    R8        2.72306  -0.00007   0.00054  -0.00017   0.00037   2.72343
    A1        1.81137  -0.00029   0.00067  -0.00179  -0.00112   1.81025
    A2        1.80459   0.00028  -0.00041   0.00110   0.00069   1.80528
    A3        1.78927  -0.00018   0.00083  -0.00176  -0.00094   1.78834
    A4        2.08747  -0.00003   0.00014   0.00062   0.00076   2.08823
    A5        2.03210  -0.00003  -0.00129   0.00016  -0.00114   2.03096
    A6        1.89520   0.00021   0.00035   0.00108   0.00142   1.89663
    A7        2.16114  -0.00022   0.00277  -0.00123   0.00154   2.16268
    A8        1.78961   0.00028   0.00021   0.00067   0.00089   1.79050
    A9        1.89617  -0.00015   0.00064  -0.00099  -0.00035   1.89582
   A10        2.02984   0.00005  -0.00058   0.00054  -0.00004   2.02980
   A11        1.80576   0.00037  -0.00044   0.00098   0.00054   1.80630
   A12        1.80950   0.00006  -0.00017   0.00079   0.00062   1.81011
   A13        2.08914  -0.00041   0.00026  -0.00136  -0.00110   2.08804
    D1       -1.35380   0.00041   0.00487   0.00155   0.00642  -1.34738
    D2        0.60994  -0.00006   0.00562  -0.00164   0.00398   0.61392
    D3        3.02754   0.00010   0.00485   0.00071   0.00556   3.03309
    D4       -1.30138  -0.00009  -0.00639  -0.00003  -0.00643  -1.30780
    D5        3.07818  -0.00058  -0.00622  -0.00107  -0.00729   3.07089
    D6        0.65932   0.00018  -0.00672   0.00157  -0.00515   0.65417
         Item               Value     Threshold  Converged?
 Maximum Force            0.003219     0.000450     NO 
 RMS     Force            0.000959     0.000300     NO 
 Maximum Displacement     0.008875     0.001800     NO 
 RMS     Displacement     0.003812     0.001200     NO 
 Predicted change in Energy=-1.927231D-05
 Lowest energy point so far.  Saving SCF results.
 GradGradGradGradGradGradGradGradGradGradGradGradGradGradGradGradGradGrad

 Leave Link  103 at Sat Sep 14 18:12:40 2024, MaxMem=  4294967296 cpu:             185.2 elap:              15.0
 (Enter /home/appl/Gaussian/g16/l202.exe)
                          Input orientation:                          
 ---------------------------------------------------------------------
 Center     Atomic      Atomic             Coordinates (Angstroms)
 Number     Number       Type             X           Y           Z
 ---------------------------------------------------------------------
      1         16           0        0.980679    7.036137    5.177702
      2          9           0        0.825653    7.596187    3.643412
      3          8           0        0.124540    7.902207    5.945443
      4          8           0        2.401501    7.060555    5.400423
      5          7           0        0.514225    5.526338    5.039810
      6         16           0       -1.002919    5.075167    4.928104
      7          9           0       -1.543983    5.255179    6.467510
      8          8           0       -1.044958    3.652938    4.721902
      9          8           0       -1.869113    5.932668    4.159086
 ---------------------------------------------------------------------
                    Distance matrix (angstroms):
                    1          2          3          4          5
     1  S    0.000000
     2  F    1.640651   0.000000
     3  O    1.439610   2.425811   0.000000
     4  O    1.438379   2.420183   2.487966   0.000000
     5  N    1.586218   2.516186   2.572310   2.458795   0.000000
     6  S    2.800422   3.368925   3.209096   3.969248   1.586745
     7  F    3.348035   4.367039   3.172268   4.468210   2.519539
     8  O    3.969509   4.495725   4.573956   4.893907   2.457997
     9  O    3.221264   3.208580   3.323373   4.588158   2.573146
                    6          7          8          9
     6  S    0.000000
     7  F    1.641623   0.000000
     8  O    1.437714   2.421436   0.000000
     9  O    1.441176   2.427658   2.488606   0.000000
 Stoichiometry    F2NO4S2(1-)
 Framework group  C1[X(F2NO4S2)]
 Deg. of freedom    21
 Full point group                 C1      NOp   1
 RotChk:  IX=0 Diff= 1.37D-02
 Largest Abelian subgroup         C1      NOp   1
 Largest concise Abelian subgroup C1      NOp   1
                         Standard orientation:                         
 ---------------------------------------------------------------------
 Center     Atomic      Atomic             Coordinates (Angstroms)
 Number     Number       Type             X           Y           Z
 ---------------------------------------------------------------------
      1         16           0        1.390722   -0.151746   -0.084430
      2          9           0        1.703523    1.383124    0.403488
      3          8           0        1.375809   -0.903857    1.143000
      4          8           0        2.414014   -0.406564   -1.062630
      5          7           0        0.000588    0.003398   -0.832458
      6         16           0       -1.393250    0.151317   -0.088754
      7          9           0       -1.681064   -1.376286    0.438996
      8          8           0       -2.418710    0.364789   -1.073581
      9          8           0       -1.391837    0.935825    1.120185
 ---------------------------------------------------------------------
 Rotational constants (GHZ):           2.5270793           0.8785799           0.8618145
 Leave Link  202 at Sat Sep 14 18:12:40 2024, MaxMem=  4294967296 cpu:               3.8 elap:               0.3
 (Enter /home/appl/Gaussian/g16/l301.exe)
 Standard basis: 6-311++G(d,p) (5D, 7F)
 Ernie: Thresh=  0.10000D-02 Tol=  0.10000D-05 Strict=F.
 There are   223 symmetry adapted cartesian basis functions of A   symmetry.
 There are   214 symmetry adapted basis functions of A   symmetry.
   214 basis functions,   352 primitive gaussians,   223 cartesian basis functions
    45 alpha electrons       45 beta electrons
       nuclear repulsion energy       772.1769059190 Hartrees.
 IExCor= 4639 DFT=T Ex+Corr=wB97XD ExCW=0 ScaHFX=  1.000000
 ScaDFX=  1.000000  1.000000  1.000000  1.000000 ScalE2=  1.000000  1.000000
 IRadAn=      5 IRanWt=     -1 IRanGd=            0 ICorTp=0 IEmpDi=121
 HFx  wShort=  0.000000 wLong=  0.200000 cFull=  0.222036 cShort=  0.000000 cLong=  0.777964
 DFx  wShort=  0.000000 wLong=  0.200000 cFull=  0.000000 cShort=  0.000000 cLong=  1.000000
 NAtoms=    9 NActive=    9 NUniq=    9 SFac= 1.00D+00 NAtFMM=   60 NAOKFM=F Big=F
 Integral buffers will be    131072 words long.
 Raffenetti 2 integral format.
 Two-electron integral symmetry is turned on.
 R6Disp:  Grimme-D2 Dispersion energy=       -0.0028612006 Hartrees.
 Nuclear repulsion after empirical dispersion term =      772.1740447183 Hartrees.
 Leave Link  301 at Sat Sep 14 18:12:42 2024, MaxMem=  4294967296 cpu:               7.1 elap:               0.5
 (Enter /home/appl/Gaussian/g16/l302.exe)
 NPDir=0 NMtPBC=     1 NCelOv=     1 NCel=       1 NClECP=     1 NCelD=      1
         NCelK=      1 NCelE2=     1 NClLst=     1 CellRange=     0.0.
 One-electron integrals computed using PRISM.
 One-electron integral symmetry used in STVInt
 NBasis=   214 RedAO= T EigKep=  2.24D-04  NBF=   214
 NBsUse=   214 1.00D-06 EigRej= -1.00D+00 NBFU=   214
 Precomputing XC quadrature grid using
 IXCGrd= 4 IRadAn=           5 IRanWt=          -1 IRanGd=           0 AccXCQ= 0.00D+00.
 Generated NRdTot=       0 NPtTot=           0 NUsed=           0 NTot=          32
 NSgBfM=   223   223   223   223   223 MxSgAt=     9 MxSgA2=     9.
 Leave Link  302 at Sat Sep 14 18:12:50 2024, MaxMem=  4294967296 cpu:             144.4 elap:               8.2
 (Enter /home/appl/Gaussian/g16/l303.exe)
 DipDrv:  MaxL=1.
 Leave Link  303 at Sat Sep 14 18:12:52 2024, MaxMem=  4294967296 cpu:              14.1 elap:               0.9
 (Enter /home/appl/Gaussian/g16/l401.exe)
 Initial guess from the checkpoint file:  "/scr/Gau-148765.chk"
 B after Tr=     0.000000    0.000000    0.000000
         Rot=    0.999988   -0.004842   -0.000002    0.000026 Ang=  -0.55 deg.
 Guess basis will be translated and rotated to current coordinates.
 JPrj=2 DoOrth=T DoCkMO=T.
 Leave Link  401 at Sat Sep 14 18:12:57 2024, MaxMem=  4294967296 cpu:              80.4 elap:               4.6
 (Enter /home/appl/Gaussian/g16/l502.exe)
 Keep R1 ints in memory in canonical form, NReq=576265202.
 FoFCou: FMM=F IPFlag=           0 FMFlag=           0 FMFlg1=           0
         NFxFlg=           0 DoJE=F BraDBF=F KetDBF=F FulRan=T
         wScrn=  0.000000 ICntrl=       600 IOpCl=  0 I1Cent=           0 NGrid=           0
         NMat0=    1 NMatS0=  23005 NMatT0=    0 NMatD0=    1 NMtDS0=    0 NMtDT0=    0
 Symmetry not used in FoFCou.
 Two-electron integral symmetry not used.
 Closed shell SCF:
 Using DIIS extrapolation, IDIIS=  1040.
 NGot=  4294967296 LenX=  3765603616 LenY=  3765553446
 Requested convergence on RMS density matrix=1.00D-08 within 128 cycles.
 Requested convergence on MAX density matrix=1.00D-06.
 Requested convergence on             energy=1.00D-06.
 No special actions if energy rises.

 Cycle   1  Pass 1  IDiag  1:
 E= -1351.69490074339    
 DIIS: error= 2.23D-04 at cycle   1 NSaved=   1.
 NSaved= 1 IEnMin= 1 EnMin= -1351.69490074339     IErMin= 1 ErrMin= 2.23D-04
 ErrMax= 2.23D-04  0.00D+00 EMaxC= 1.00D-01 BMatC= 3.42D-05 BMatP= 3.42D-05
 IDIUse=3 WtCom= 9.98D-01 WtEn= 2.23D-03
 Coeff-Com:  0.100D+01
 Coeff-En:   0.100D+01
 Coeff:      0.100D+01
 Gap=     0.673 Goal=   None    Shift=    0.000
 RMSDP=7.99D-05 MaxDP=2.90D-03              OVMax= 1.21D-03

 Cycle   2  Pass 1  IDiag  1:
 E= -1351.69494426692     Delta-E=       -0.000043523535 Rises=F Damp=F
 DIIS: error= 1.05D-04 at cycle   2 NSaved=   2.
 NSaved= 2 IEnMin= 2 EnMin= -1351.69494426692     IErMin= 2 ErrMin= 1.05D-04
 ErrMax= 1.05D-04  0.00D+00 EMaxC= 1.00D-01 BMatC= 5.96D-06 BMatP= 3.42D-05
 IDIUse=3 WtCom= 9.99D-01 WtEn= 1.05D-03
 Coeff-Com:  0.134D+00 0.866D+00
 Coeff-En:   0.000D+00 0.100D+01
 Coeff:      0.134D+00 0.866D+00
 Gap=     0.428 Goal=   None    Shift=    0.000
 RMSDP=2.16D-05 MaxDP=6.05D-04 DE=-4.35D-05 OVMax= 7.25D-04

 Cycle   3  Pass 1  IDiag  1:
 E= -1351.69494506441     Delta-E=       -0.000000797489 Rises=F Damp=F
 DIIS: error= 1.22D-04 at cycle   3 NSaved=   3.
 NSaved= 3 IEnMin= 3 EnMin= -1351.69494506441     IErMin= 2 ErrMin= 1.05D-04
 ErrMax= 1.22D-04  0.00D+00 EMaxC= 1.00D-01 BMatC= 6.66D-06 BMatP= 5.96D-06
 IDIUse=3 WtCom= 4.75D-01 WtEn= 5.25D-01
 Coeff-Com: -0.918D-01 0.544D+00 0.548D+00
 Coeff-En:   0.000D+00 0.453D+00 0.547D+00
 Coeff:     -0.436D-01 0.496D+00 0.547D+00
 Gap=     0.428 Goal=   None    Shift=    0.000
 RMSDP=1.50D-05 MaxDP=2.92D-04 DE=-7.97D-07 OVMax= 4.54D-04

 Cycle   4  Pass 1  IDiag  1:
 E= -1351.69494955331     Delta-E=       -0.000004488901 Rises=F Damp=F
 DIIS: error= 2.33D-05 at cycle   4 NSaved=   4.
 NSaved= 4 IEnMin= 4 EnMin= -1351.69494955331     IErMin= 4 ErrMin= 2.33D-05
 ErrMax= 2.33D-05  0.00D+00 EMaxC= 1.00D-01 BMatC= 2.02D-07 BMatP= 5.96D-06
 IDIUse=1 WtCom= 1.00D+00 WtEn= 0.00D+00
 Coeff-Com: -0.150D-01-0.322D-01 0.132D+00 0.916D+00
 Coeff:     -0.150D-01-0.322D-01 0.132D+00 0.916D+00
 Gap=     0.428 Goal=   None    Shift=    0.000
 RMSDP=3.26D-06 MaxDP=5.51D-05 DE=-4.49D-06 OVMax= 9.42D-05

 Cycle   5  Pass 1  IDiag  1:
 E= -1351.69494972456     Delta-E=       -0.000000171247 Rises=F Damp=F
 DIIS: error= 5.26D-06 at cycle   5 NSaved=   5.
 NSaved= 5 IEnMin= 5 EnMin= -1351.69494972456     IErMin= 5 ErrMin= 5.26D-06
 ErrMax= 5.26D-06  0.00D+00 EMaxC= 1.00D-01 BMatC= 1.37D-08 BMatP= 2.02D-07
 IDIUse=1 WtCom= 1.00D+00 WtEn= 0.00D+00
 Coeff-Com: -0.901D-03-0.528D-01 0.237D-01 0.428D+00 0.602D+00
 Coeff:     -0.901D-03-0.528D-01 0.237D-01 0.428D+00 0.602D+00
 Gap=     0.428 Goal=   None    Shift=    0.000
 RMSDP=9.09D-07 MaxDP=1.82D-05 DE=-1.71D-07 OVMax= 2.55D-05

 Cycle   6  Pass 1  IDiag  1:
 E= -1351.69494973450     Delta-E=       -0.000000009940 Rises=F Damp=F
 DIIS: error= 2.40D-06 at cycle   6 NSaved=   6.
 NSaved= 6 IEnMin= 6 EnMin= -1351.69494973450     IErMin= 6 ErrMin= 2.40D-06
 ErrMax= 2.40D-06  0.00D+00 EMaxC= 1.00D-01 BMatC= 2.03D-09 BMatP= 1.37D-08
 IDIUse=1 WtCom= 1.00D+00 WtEn= 0.00D+00
 Coeff-Com:  0.289D-02-0.186D-01-0.197D-01-0.148D-03 0.286D+00 0.750D+00
 Coeff:      0.289D-02-0.186D-01-0.197D-01-0.148D-03 0.286D+00 0.750D+00
 Gap=     0.428 Goal=   None    Shift=    0.000
 RMSDP=4.26D-07 MaxDP=6.91D-06 DE=-9.94D-09 OVMax= 1.40D-05

 Cycle   7  Pass 1  IDiag  1:
 E= -1351.69494973643     Delta-E=       -0.000000001928 Rises=F Damp=F
 DIIS: error= 3.68D-07 at cycle   7 NSaved=   7.
 NSaved= 7 IEnMin= 7 EnMin= -1351.69494973643     IErMin= 7 ErrMin= 3.68D-07
 ErrMax= 3.68D-07  0.00D+00 EMaxC= 1.00D-01 BMatC= 5.55D-11 BMatP= 2.03D-09
 IDIUse=1 WtCom= 1.00D+00 WtEn= 0.00D+00
 Coeff-Com:  0.624D-03-0.852D-03-0.563D-02-0.220D-01 0.231D-01 0.140D+00
 Coeff-Com:  0.865D+00
 Coeff:      0.624D-03-0.852D-03-0.563D-02-0.220D-01 0.231D-01 0.140D+00
 Coeff:      0.865D+00
 Gap=     0.428 Goal=   None    Shift=    0.000
 RMSDP=1.25D-07 MaxDP=1.98D-06 DE=-1.93D-09 OVMax= 4.59D-06

 Cycle   8  Pass 1  IDiag  1:
 E= -1351.69494973650     Delta-E=       -0.000000000074 Rises=F Damp=F
 DIIS: error= 2.59D-07 at cycle   8 NSaved=   8.
 NSaved= 8 IEnMin= 8 EnMin= -1351.69494973650     IErMin= 8 ErrMin= 2.59D-07
 ErrMax= 2.59D-07  0.00D+00 EMaxC= 1.00D-01 BMatC= 2.70D-11 BMatP= 5.55D-11
 IDIUse=1 WtCom= 1.00D+00 WtEn= 0.00D+00
 Coeff-Com: -0.139D-03 0.260D-02 0.235D-03-0.115D-01-0.352D-01-0.514D-01
 Coeff-Com:  0.461D+00 0.635D+00
 Coeff:     -0.139D-03 0.260D-02 0.235D-03-0.115D-01-0.352D-01-0.514D-01
 Coeff:      0.461D+00 0.635D+00
 Gap=     0.428 Goal=   None    Shift=    0.000
 RMSDP=4.97D-08 MaxDP=8.38D-07 DE=-7.37D-11 OVMax= 1.76D-06

 Cycle   9  Pass 1  IDiag  1:
 E= -1351.69494973652     Delta-E=       -0.000000000022 Rises=F Damp=F
 DIIS: error= 8.94D-08 at cycle   9 NSaved=   9.
 NSaved= 9 IEnMin= 9 EnMin= -1351.69494973652     IErMin= 9 ErrMin= 8.94D-08
 ErrMax= 8.94D-08  0.00D+00 EMaxC= 1.00D-01 BMatC= 2.25D-12 BMatP= 2.70D-11
 IDIUse=1 WtCom= 1.00D+00 WtEn= 0.00D+00
 Coeff-Com: -0.116D-03 0.120D-02 0.667D-03-0.298D-02-0.175D-01-0.357D-01
 Coeff-Com:  0.118D+00 0.282D+00 0.655D+00
 Coeff:     -0.116D-03 0.120D-02 0.667D-03-0.298D-02-0.175D-01-0.357D-01
 Coeff:      0.118D+00 0.282D+00 0.655D+00
 Gap=     0.428 Goal=   None    Shift=    0.000
 RMSDP=1.30D-08 MaxDP=2.58D-07 DE=-2.23D-11 OVMax= 5.04D-07

 Cycle  10  Pass 1  IDiag  1:
 E= -1351.69494973653     Delta-E=       -0.000000000004 Rises=F Damp=F
 DIIS: error= 3.05D-08 at cycle  10 NSaved=  10.
 NSaved=10 IEnMin=10 EnMin= -1351.69494973653     IErMin=10 ErrMin= 3.05D-08
 ErrMax= 3.05D-08  0.00D+00 EMaxC= 1.00D-01 BMatC= 1.98D-13 BMatP= 2.25D-12
 IDIUse=1 WtCom= 1.00D+00 WtEn= 0.00D+00
 Coeff-Com: -0.782D-05-0.126D-03 0.151D-03 0.115D-02 0.145D-02-0.448D-03
 Coeff-Com: -0.495D-01-0.315D-01 0.197D+00 0.882D+00
 Coeff:     -0.782D-05-0.126D-03 0.151D-03 0.115D-02 0.145D-02-0.448D-03
 Coeff:     -0.495D-01-0.315D-01 0.197D+00 0.882D+00
 Gap=     0.428 Goal=   None    Shift=    0.000
 RMSDP=7.32D-09 MaxDP=1.89D-07 DE=-4.09D-12 OVMax= 3.29D-07

 SCF Done:  E(RwB97XD) =  -1351.69494974     A.U. after   10 cycles
            NFock= 10  Conv=0.73D-08     -V/T= 2.0017
 KE= 1.349394892886D+03 PE=-4.766441343636D+03 EE= 1.293177456295D+03
 Leave Link  502 at Sat Sep 14 18:14:26 2024, MaxMem=  4294967296 cpu:             954.2 elap:              88.4
 (Enter /home/appl/Gaussian/g16/l701.exe)
 ... and contract with generalized density number  0.
 Compute integral first derivatives.
 R6Disp: Adding Grimme-D2 dispersion energy 1st derivatives to the gradient.
 Leave Link  701 at Sat Sep 14 18:14:33 2024, MaxMem=  4294967296 cpu:              48.1 elap:               2.8
 (Enter /home/appl/Gaussian/g16/l702.exe)
 L702 exits ... SP integral derivatives will be done elsewhere.
 Leave Link  702 at Sat Sep 14 18:14:33 2024, MaxMem=  4294967296 cpu:               1.8 elap:               0.2
 (Enter /home/appl/Gaussian/g16/l703.exe)
 Integral derivatives from FoFJK, PRISM(SPDF).
 Compute integral first derivatives, UseDBF=F ICtDFT=           0.
 Calling FoFJK, ICntrl=      2127 FMM=F ISym2X=0 I1Cent= 0 IOpClX= 0 NMat=1 NMatS=1 NMatT=0.
 FoFJK:  IHMeth= 1 ICntrl=    2127 DoSepK=T KAlg= 0 I1Cent=           0 FoldK=F
 IRaf=         1 NMat=       1 IRICut=       1 DoRegI=T DoRafI=F ISym2E= 0 IDoP0=0 IntGTp=1.
 FoFCou: FMM=F IPFlag=           0 FMFlag=      100000 FMFlg1=         800
         NFxFlg=           0 DoJE=F BraDBF=F KetDBF=F FulRan=T
         wScrn=  0.000000 ICntrl=      2527 IOpCl=  0 I1Cent=           0 NGrid=           0
         NMat0=    1 NMatS0=      1 NMatT0=    0 NMatD0=    1 NMtDS0=    0 NMtDT0=    0
 Symmetry not used in FoFCou.
 Leave Link  703 at Sat Sep 14 18:14:40 2024, MaxMem=  4294967296 cpu:             102.2 elap:               6.3
 (Enter /home/appl/Gaussian/g16/l716.exe)
 Dipole        = 1.11816640D-03 1.20371203D-03 9.70789124D-02
 ***** Axes restored to original set *****
 -------------------------------------------------------------------
 Center     Atomic                   Forces (Hartrees/Bohr)
 Number     Number              X              Y              Z
 -------------------------------------------------------------------
      1       16           0.001197486   -0.000632249   -0.000569703
      2        9          -0.000197951    0.000283509   -0.000579115
      3        8          -0.000786137    0.000948627    0.000864232
      4        8          -0.000290832   -0.000049959    0.000077309
      5        7           0.000204702   -0.000736201    0.000438255
      6       16          -0.000148024    0.000849546   -0.000204801
      7        9          -0.000034541    0.000071450    0.000081665
      8        8          -0.000042315   -0.000448987   -0.000285402
      9        8           0.000097612   -0.000285738    0.000177561
 -------------------------------------------------------------------
 Cartesian Forces:  Max     0.001197486 RMS     0.000507467
 Leave Link  716 at Sat Sep 14 18:14:41 2024, MaxMem=  4294967296 cpu:               3.4 elap:               0.2
 (Enter /home/appl/Gaussian/g16/l103.exe)

 GradGradGradGradGradGradGradGradGradGradGradGradGradGradGradGradGradGrad
 Berny optimization.
 Using GEDIIS/GDIIS optimizer.
 FormGI is forming the generalized inverse of G from B-inverse, IUseBI=4.
 Internal  Forces:  Max     0.001498848 RMS     0.000381578
 Search for a local minimum.
 Step number  10 out of a maximum of  100
 All quantities printed in internal units (Hartrees-Bohrs-Radians)
 RMS Force = .38158D-03 SwitMx=.10000D-02 MixMth= 2
 Mixed Optimization -- En-DIIS/RFO-DIIS
 Swapping is turned off.
 Update second derivatives using D2CorX and points    3    4    5    6    7
                                                      8    9   10
 DE= -2.31D-05 DEPred=-1.93D-05 R= 1.20D+00
 TightC=F SS=  1.41D+00  RLast= 1.60D-02 DXNew= 1.4270D+00 4.7966D-02
 Trust test= 1.20D+00 RLast= 1.60D-02 DXMaxT set to 8.49D-01
 ITU=  1  1  1  1  1  1  1  1  1  0
     Eigenvalues ---    0.01703   0.03720   0.15816   0.17319   0.18753
     Eigenvalues ---    0.22851   0.24879   0.24981   0.25293   0.25776
     Eigenvalues ---    0.28111   0.31596   0.34084   0.40251   0.51373
     Eigenvalues ---    0.64951   0.77202   0.94341   1.00204   1.17673
     Eigenvalues ---    1.25572
 En-DIIS/RFO-DIIS/Sim-DIIS IScMMF=       -3 using points:    10    9
 RFO step:  Lambda=-1.06324615D-05.
 NNeg= 0 NGDIIS= 2 SimSw=  2.50D-01 Rises=F DC= -2.31D-05 SmlDif=  1.00D-05
 NRisDI= 0 DoIntr=F SqrtH=F CThrHd= 10.0 CDAdj=  3.0
 RMS Error=  0.3092530441D-02 NUsed= 2 OKEnD=T EnDIS=F
 InvSVX:  RCond= 6.38D-05 Info=           0 Equed=N FErr=  4.46D-15 BErr=  3.66D-17
 DidBck=F Rises=F RFO-DIIS coefs:    1.90967   -0.90967
 Iteration  1 RMS(Cart)=  0.00312854 RMS(Int)=  0.00000603
 Iteration  2 RMS(Cart)=  0.00001203 RMS(Int)=  0.00000050
 Iteration  3 RMS(Cart)=  0.00000000 RMS(Int)=  0.00000050
 ITry= 1 IFail=0 DXMaxC= 8.58D-03 DCOld= 1.00D+10 DXMaxT= 8.49D-01 DXLimC= 3.00D+00 Rises=F
 Variable       Old X    -DE/DX   Delta X   Delta X   Delta X     New X
                                 (Linear)    (Quad)   (Total)
    R1        3.10038   0.00066   0.00089   0.00045   0.00134   3.10172
    R2        2.72047   0.00150   0.00228  -0.00065   0.00163   2.72210
    R3        2.71814  -0.00028  -0.00431   0.00268  -0.00163   2.71651
    R4        2.99752   0.00048   0.00050   0.00038   0.00088   2.99840
    R5        2.99851   0.00008  -0.00105   0.00071  -0.00034   2.99817
    R6        3.10222   0.00010  -0.00079   0.00214   0.00135   3.10356
    R7        2.71689   0.00049   0.00155  -0.00076   0.00079   2.71768
    R8        2.72343  -0.00032   0.00033  -0.00057  -0.00023   2.72320
    A1        1.81025  -0.00008  -0.00102   0.00105   0.00003   1.81027
    A2        1.80528   0.00021   0.00063   0.00049   0.00112   1.80640
    A3        1.78834   0.00009  -0.00085   0.00167   0.00082   1.78916
    A4        2.08823  -0.00014   0.00070  -0.00138  -0.00069   2.08755
    A5        2.03096   0.00012  -0.00103   0.00094  -0.00010   2.03086
    A6        1.89663  -0.00014   0.00130  -0.00193  -0.00063   1.89600
    A7        2.16268  -0.00045   0.00140  -0.00222  -0.00082   2.16186
    A8        1.79050  -0.00001   0.00081  -0.00085  -0.00004   1.79046
    A9        1.89582  -0.00002  -0.00032   0.00028  -0.00004   1.89578
   A10        2.02980   0.00018  -0.00004   0.00058   0.00055   2.03034
   A11        1.80630   0.00019   0.00049   0.00024   0.00073   1.80703
   A12        1.81011  -0.00006   0.00056  -0.00082  -0.00026   1.80986
   A13        2.08804  -0.00023  -0.00100   0.00021  -0.00080   2.08724
    D1       -1.34738   0.00019   0.00584   0.00086   0.00669  -1.34069
    D2        0.61392   0.00021   0.00362   0.00357   0.00719   0.62111
    D3        3.03309  -0.00003   0.00505   0.00026   0.00532   3.03841
    D4       -1.30780  -0.00003  -0.00585  -0.00013  -0.00597  -1.31378
    D5        3.07089  -0.00023  -0.00663  -0.00012  -0.00676   3.06414
    D6        0.65417  -0.00004  -0.00468  -0.00138  -0.00607   0.64811
         Item               Value     Threshold  Converged?
 Maximum Force            0.001499     0.000450     NO 
 RMS     Force            0.000382     0.000300     NO 
 Maximum Displacement     0.008577     0.001800     NO 
 RMS     Displacement     0.003131     0.001200     NO 
 Predicted change in Energy=-5.317023D-06
 Lowest energy point so far.  Saving SCF results.
 GradGradGradGradGradGradGradGradGradGradGradGradGradGradGradGradGradGrad

 Leave Link  103 at Sat Sep 14 18:14:58 2024, MaxMem=  4294967296 cpu:             194.8 elap:              15.6
 (Enter /home/appl/Gaussian/g16/l202.exe)
                          Input orientation:                          
 ---------------------------------------------------------------------
 Center     Atomic      Atomic             Coordinates (Angstroms)
 Number     Number       Type             X           Y           Z
 ---------------------------------------------------------------------
      1         16           0        0.981070    7.036319    5.177603
      2          9           0        0.822606    7.594106    3.642083
      3          8           0        0.126100    7.904130    5.946294
      4          8           0        2.401278    7.060840    5.398640
      5          7           0        0.514775    5.525565    5.044349
      6         16           0       -1.002188    5.075445    4.928553
      7          9           0       -1.546847    5.253685    6.467658
      8          8           0       -1.044463    3.653270    4.719137
      9          8           0       -1.866706    5.934017    4.159075
 ---------------------------------------------------------------------
                    Distance matrix (angstroms):
                    1          2          3          4          5
     1  S    0.000000
     2  F    1.641358   0.000000
     3  O    1.440471   2.427061   0.000000
     4  O    1.437515   2.421171   2.487468   0.000000
     5  N    1.586684   2.517930   2.573354   2.457944   0.000000
     6  S    2.800065   3.365788   3.210964   3.968167   1.586566
     7  F    3.351475   4.367579   3.177331   4.471722   2.519922
     8  O    3.969634   4.491790   4.576674   4.893505   2.458144
     9  O    3.219052   3.202433   3.323669   4.584969   2.573323
                    6          7          8          9
     6  S    0.000000
     7  F    1.642336   0.000000
     8  O    1.438132   2.423023   0.000000
     9  O    1.441053   2.427903   2.488285   0.000000
 Stoichiometry    F2NO4S2(1-)
 Framework group  C1[X(F2NO4S2)]
 Deg. of freedom    21
 Full point group                 C1      NOp   1
 RotChk:  IX=0 Diff= 1.04D-02
 Largest Abelian subgroup         C1      NOp   1
 Largest concise Abelian subgroup C1      NOp   1
                         Standard orientation:                         
 ---------------------------------------------------------------------
 Center     Atomic      Atomic             Coordinates (Angstroms)
 Number     Number       Type             X           Y           Z
 ---------------------------------------------------------------------
      1         16           0        1.391082   -0.151101   -0.085922
      2          9           0        1.700000    1.381459    0.413965
      3          8           0        1.378408   -0.913165    1.136392
      4          8           0        2.413860   -0.397083   -1.065651
      5          7           0        0.000170    0.004922   -0.833310
      6         16           0       -1.392583    0.151502   -0.087694
      7          9           0       -1.684138   -1.379536    0.430174
      8          8           0       -2.418283    0.375420   -1.070559
      9          8           0       -1.388978    0.927556    1.126539
 ---------------------------------------------------------------------
 Rotational constants (GHZ):           2.5254119           0.8787180           0.8618292
 Leave Link  202 at Sat Sep 14 18:14:59 2024, MaxMem=  4294967296 cpu:               4.2 elap:               0.4
 (Enter /home/appl/Gaussian/g16/l301.exe)
 Standard basis: 6-311++G(d,p) (5D, 7F)
 Ernie: Thresh=  0.10000D-02 Tol=  0.10000D-05 Strict=F.
 There are   223 symmetry adapted cartesian basis functions of A   symmetry.
 There are   214 symmetry adapted basis functions of A   symmetry.
   214 basis functions,   352 primitive gaussians,   223 cartesian basis functions
    45 alpha electrons       45 beta electrons
       nuclear repulsion energy       772.0991655595 Hartrees.
 IExCor= 4639 DFT=T Ex+Corr=wB97XD ExCW=0 ScaHFX=  1.000000
 ScaDFX=  1.000000  1.000000  1.000000  1.000000 ScalE2=  1.000000  1.000000
 IRadAn=      5 IRanWt=     -1 IRanGd=            0 ICorTp=0 IEmpDi=121
 HFx  wShort=  0.000000 wLong=  0.200000 cFull=  0.222036 cShort=  0.000000 cLong=  0.777964
 DFx  wShort=  0.000000 wLong=  0.200000 cFull=  0.000000 cShort=  0.000000 cLong=  1.000000
 NAtoms=    9 NActive=    9 NUniq=    9 SFac= 1.00D+00 NAtFMM=   60 NAOKFM=F Big=F
 Integral buffers will be    131072 words long.
 Raffenetti 2 integral format.
 Two-electron integral symmetry is turned on.
 R6Disp:  Grimme-D2 Dispersion energy=       -0.0028626291 Hartrees.
 Nuclear repulsion after empirical dispersion term =      772.0963029304 Hartrees.
 Leave Link  301 at Sat Sep 14 18:15:00 2024, MaxMem=  4294967296 cpu:               4.3 elap:               0.3
 (Enter /home/appl/Gaussian/g16/l302.exe)
 NPDir=0 NMtPBC=     1 NCelOv=     1 NCel=       1 NClECP=     1 NCelD=      1
         NCelK=      1 NCelE2=     1 NClLst=     1 CellRange=     0.0.
 One-electron integrals computed using PRISM.
 One-electron integral symmetry used in STVInt
 NBasis=   214 RedAO= T EigKep=  2.25D-04  NBF=   214
 NBsUse=   214 1.00D-06 EigRej= -1.00D+00 NBFU=   214
 Precomputing XC quadrature grid using
 IXCGrd= 4 IRadAn=           5 IRanWt=          -1 IRanGd=           0 AccXCQ= 0.00D+00.
 Generated NRdTot=       0 NPtTot=           0 NUsed=           0 NTot=          32
 NSgBfM=   223   223   223   223   223 MxSgAt=     9 MxSgA2=     9.
 Leave Link  302 at Sat Sep 14 18:15:08 2024, MaxMem=  4294967296 cpu:             143.1 elap:               8.0
 (Enter /home/appl/Gaussian/g16/l303.exe)
 DipDrv:  MaxL=1.
 Leave Link  303 at Sat Sep 14 18:15:10 2024, MaxMem=  4294967296 cpu:              15.1 elap:               0.9
 (Enter /home/appl/Gaussian/g16/l401.exe)
 Initial guess from the checkpoint file:  "/scr/Gau-148765.chk"
 B after Tr=    -0.000000   -0.000000   -0.000000
         Rot=    0.999993   -0.003673   -0.000081   -0.000003 Ang=  -0.42 deg.
 Guess basis will be translated and rotated to current coordinates.
 JPrj=2 DoOrth=T DoCkMO=T.
 Leave Link  401 at Sat Sep 14 18:15:15 2024, MaxMem=  4294967296 cpu:              83.2 elap:               4.7
 (Enter /home/appl/Gaussian/g16/l502.exe)
 Keep R1 ints in memory in canonical form, NReq=576265202.
 FoFCou: FMM=F IPFlag=           0 FMFlag=           0 FMFlg1=           0
         NFxFlg=           0 DoJE=F BraDBF=F KetDBF=F FulRan=T
         wScrn=  0.000000 ICntrl=       600 IOpCl=  0 I1Cent=           0 NGrid=           0
         NMat0=    1 NMatS0=  23005 NMatT0=    0 NMatD0=    1 NMtDS0=    0 NMtDT0=    0
 Symmetry not used in FoFCou.
 Two-electron integral symmetry not used.
 Closed shell SCF:
 Using DIIS extrapolation, IDIIS=  1040.
 NGot=  4294967296 LenX=  3765603616 LenY=  3765553446
 Requested convergence on RMS density matrix=1.00D-08 within 128 cycles.
 Requested convergence on MAX density matrix=1.00D-06.
 Requested convergence on             energy=1.00D-06.
 No special actions if energy rises.

 Cycle   1  Pass 1  IDiag  1:
 E= -1351.69492800683    
 DIIS: error= 1.93D-04 at cycle   1 NSaved=   1.
 NSaved= 1 IEnMin= 1 EnMin= -1351.69492800683     IErMin= 1 ErrMin= 1.93D-04
 ErrMax= 1.93D-04  0.00D+00 EMaxC= 1.00D-01 BMatC= 1.83D-05 BMatP= 1.83D-05
 IDIUse=3 WtCom= 9.98D-01 WtEn= 1.93D-03
 Coeff-Com:  0.100D+01
 Coeff-En:   0.100D+01
 Coeff:      0.100D+01
 Gap=     0.673 Goal=   None    Shift=    0.000
 RMSDP=5.50D-05 MaxDP=1.37D-03              OVMax= 1.18D-03

 Cycle   2  Pass 1  IDiag  1:
 E= -1351.69495473957     Delta-E=       -0.000026732738 Rises=F Damp=F
 DIIS: error= 4.37D-05 at cycle   2 NSaved=   2.
 NSaved= 2 IEnMin= 2 EnMin= -1351.69495473957     IErMin= 2 ErrMin= 4.37D-05
 ErrMax= 4.37D-05  0.00D+00 EMaxC= 1.00D-01 BMatC= 1.19D-06 BMatP= 1.83D-05
 IDIUse=1 WtCom= 1.00D+00 WtEn= 0.00D+00
 Coeff-Com: -0.690D-01 0.107D+01
 Coeff:     -0.690D-01 0.107D+01
 Gap=     0.428 Goal=   None    Shift=    0.000
 RMSDP=1.37D-05 MaxDP=2.57D-04 DE=-2.67D-05 OVMax= 4.01D-04

 Cycle   3  Pass 1  IDiag  1:
 E= -1351.69495541960     Delta-E=       -0.000000680035 Rises=F Damp=F
 DIIS: error= 7.84D-05 at cycle   3 NSaved=   3.
 NSaved= 3 IEnMin= 3 EnMin= -1351.69495541960     IErMin= 2 ErrMin= 4.37D-05
 ErrMax= 7.84D-05  0.00D+00 EMaxC= 1.00D-01 BMatC= 1.64D-06 BMatP= 1.19D-06
 IDIUse=1 WtCom= 1.00D+00 WtEn= 0.00D+00
 Coeff-Com: -0.100D+00 0.628D+00 0.472D+00
 Coeff:     -0.100D+00 0.628D+00 0.472D+00
 Gap=     0.428 Goal=   None    Shift=    0.000
 RMSDP=6.81D-06 MaxDP=1.29D-04 DE=-6.80D-07 OVMax= 2.12D-04

 Cycle   4  Pass 1  IDiag  1:
 E= -1351.69495653235     Delta-E=       -0.000001112753 Rises=F Damp=F
 DIIS: error= 8.98D-06 at cycle   4 NSaved=   4.
 NSaved= 4 IEnMin= 4 EnMin= -1351.69495653235     IErMin= 4 ErrMin= 8.98D-06
 ErrMax= 8.98D-06  0.00D+00 EMaxC= 1.00D-01 BMatC= 2.45D-08 BMatP= 1.19D-06
 IDIUse=1 WtCom= 1.00D+00 WtEn= 0.00D+00
 Coeff-Com: -0.551D-02-0.272D-01 0.812D-01 0.952D+00
 Coeff:     -0.551D-02-0.272D-01 0.812D-01 0.952D+00
 Gap=     0.428 Goal=   None    Shift=    0.000
 RMSDP=1.96D-06 MaxDP=4.15D-05 DE=-1.11D-06 OVMax= 7.10D-05

 Cycle   5  Pass 1  IDiag  1:
 E= -1351.69495656355     Delta-E=       -0.000000031196 Rises=F Damp=F
 DIIS: error= 2.65D-06 at cycle   5 NSaved=   5.
 NSaved= 5 IEnMin= 5 EnMin= -1351.69495656355     IErMin= 5 ErrMin= 2.65D-06
 ErrMax= 2.65D-06  0.00D+00 EMaxC= 1.00D-01 BMatC= 2.59D-09 BMatP= 2.45D-08
 IDIUse=1 WtCom= 1.00D+00 WtEn= 0.00D+00
 Coeff-Com:  0.368D-02-0.449D-01-0.286D-02 0.309D+00 0.736D+00
 Coeff:      0.368D-02-0.449D-01-0.286D-02 0.309D+00 0.736D+00
 Gap=     0.428 Goal=   None    Shift=    0.000
 RMSDP=5.53D-07 MaxDP=1.05D-05 DE=-3.12D-08 OVMax= 2.15D-05

 Cycle   6  Pass 1  IDiag  1:
 E= -1351.69495656608     Delta-E=       -0.000000002530 Rises=F Damp=F
 DIIS: error= 1.09D-06 at cycle   6 NSaved=   6.
 NSaved= 6 IEnMin= 6 EnMin= -1351.69495656608     IErMin= 6 ErrMin= 1.09D-06
 ErrMax= 1.09D-06  0.00D+00 EMaxC= 1.00D-01 BMatC= 7.14D-10 BMatP= 2.59D-09
 IDIUse=1 WtCom= 1.00D+00 WtEn= 0.00D+00
 Coeff-Com:  0.276D-02-0.194D-01-0.153D-01 0.116D-01 0.365D+00 0.656D+00
 Coeff:      0.276D-02-0.194D-01-0.153D-01 0.116D-01 0.365D+00 0.656D+00
 Gap=     0.428 Goal=   None    Shift=    0.000
 RMSDP=2.39D-07 MaxDP=4.78D-06 DE=-2.53D-09 OVMax= 9.87D-06

 Cycle   7  Pass 1  IDiag  1:
 E= -1351.69495656672     Delta-E=       -0.000000000645 Rises=F Damp=F
 DIIS: error= 3.42D-07 at cycle   7 NSaved=   7.
 NSaved= 7 IEnMin= 7 EnMin= -1351.69495656672     IErMin= 7 ErrMin= 3.42D-07
 ErrMax= 3.42D-07  0.00D+00 EMaxC= 1.00D-01 BMatC= 4.33D-11 BMatP= 7.14D-10
 IDIUse=1 WtCom= 1.00D+00 WtEn= 0.00D+00
 Coeff-Com:  0.504D-03-0.144D-02-0.485D-02-0.291D-01 0.365D-01 0.202D+00
 Coeff-Com:  0.797D+00
 Coeff:      0.504D-03-0.144D-02-0.485D-02-0.291D-01 0.365D-01 0.202D+00
 Coeff:      0.797D+00
 Gap=     0.428 Goal=   None    Shift=    0.000
 RMSDP=9.69D-08 MaxDP=1.87D-06 DE=-6.45D-10 OVMax= 4.13D-06

 Cycle   8  Pass 1  IDiag  1:
 E= -1351.69495656677     Delta-E=       -0.000000000043 Rises=F Damp=F
 DIIS: error= 2.00D-07 at cycle   8 NSaved=   8.
 NSaved= 8 IEnMin= 8 EnMin= -1351.69495656677     IErMin= 8 ErrMin= 2.00D-07
 ErrMax= 2.00D-07  0.00D+00 EMaxC= 1.00D-01 BMatC= 1.63D-11 BMatP= 4.33D-11
 IDIUse=1 WtCom= 1.00D+00 WtEn= 0.00D+00
 Coeff-Com: -0.210D-03 0.263D-02 0.540D-04-0.180D-01-0.448D-01-0.578D-02
 Coeff-Com:  0.436D+00 0.630D+00
 Coeff:     -0.210D-03 0.263D-02 0.540D-04-0.180D-01-0.448D-01-0.578D-02
 Coeff:      0.436D+00 0.630D+00
 Gap=     0.428 Goal=   None    Shift=    0.000
 RMSDP=4.00D-08 MaxDP=9.21D-07 DE=-4.27D-11 OVMax= 1.62D-06

 Cycle   9  Pass 1  IDiag  1:
 E= -1351.69495656678     Delta-E=       -0.000000000016 Rises=F Damp=F
 DIIS: error= 4.04D-08 at cycle   9 NSaved=   9.
 NSaved= 9 IEnMin= 9 EnMin= -1351.69495656678     IErMin= 9 ErrMin= 4.04D-08
 ErrMax= 4.04D-08  0.00D+00 EMaxC= 1.00D-01 BMatC= 8.99D-13 BMatP= 1.63D-11
 IDIUse=1 WtCom= 1.00D+00 WtEn= 0.00D+00
 Coeff-Com: -0.127D-03 0.113D-02 0.537D-03-0.397D-02-0.199D-01-0.208D-01
 Coeff-Com:  0.826D-01 0.231D+00 0.730D+00
 Coeff:     -0.127D-03 0.113D-02 0.537D-03-0.397D-02-0.199D-01-0.208D-01
 Coeff:      0.826D-01 0.231D+00 0.730D+00
 Gap=     0.428 Goal=   None    Shift=    0.000
 RMSDP=1.11D-08 MaxDP=2.10D-07 DE=-1.64D-11 OVMax= 5.30D-07

 Cycle  10  Pass 1  IDiag  1:
 E= -1351.69495656679     Delta-E=       -0.000000000002 Rises=F Damp=F
 DIIS: error= 1.73D-08 at cycle  10 NSaved=  10.
 NSaved=10 IEnMin=10 EnMin= -1351.69495656679     IErMin=10 ErrMin= 1.73D-08
 ErrMax= 1.73D-08  0.00D+00 EMaxC= 1.00D-01 BMatC= 9.13D-14 BMatP= 8.99D-13
 IDIUse=1 WtCom= 1.00D+00 WtEn= 0.00D+00
 Coeff-Com:  0.308D-05-0.155D-03 0.142D-03 0.197D-02 0.232D-02-0.435D-02
 Coeff-Com: -0.510D-01-0.431D-01 0.200D+00 0.894D+00
 Coeff:      0.308D-05-0.155D-03 0.142D-03 0.197D-02 0.232D-02-0.435D-02
 Coeff:     -0.510D-01-0.431D-01 0.200D+00 0.894D+00
 Gap=     0.428 Goal=   None    Shift=    0.000
 RMSDP=5.19D-09 MaxDP=1.15D-07 DE=-1.82D-12 OVMax= 2.15D-07

 SCF Done:  E(RwB97XD) =  -1351.69495657     A.U. after   10 cycles
            NFock= 10  Conv=0.52D-08     -V/T= 2.0017
 KE= 1.349391792215D+03 PE=-4.766283778838D+03 EE= 1.293100727126D+03
 Leave Link  502 at Sat Sep 14 18:16:34 2024, MaxMem=  4294967296 cpu:             898.7 elap:              78.4
 (Enter /home/appl/Gaussian/g16/l701.exe)
 ... and contract with generalized density number  0.
 Compute integral first derivatives.
 R6Disp: Adding Grimme-D2 dispersion energy 1st derivatives to the gradient.
 Leave Link  701 at Sat Sep 14 18:16:40 2024, MaxMem=  4294967296 cpu:              45.0 elap:               2.6
 (Enter /home/appl/Gaussian/g16/l702.exe)
 L702 exits ... SP integral derivatives will be done elsewhere.
 Leave Link  702 at Sat Sep 14 18:16:41 2024, MaxMem=  4294967296 cpu:               1.8 elap:               0.2
 (Enter /home/appl/Gaussian/g16/l703.exe)
 Integral derivatives from FoFJK, PRISM(SPDF).
 Compute integral first derivatives, UseDBF=F ICtDFT=           0.
 Calling FoFJK, ICntrl=      2127 FMM=F ISym2X=0 I1Cent= 0 IOpClX= 0 NMat=1 NMatS=1 NMatT=0.
 FoFJK:  IHMeth= 1 ICntrl=    2127 DoSepK=T KAlg= 0 I1Cent=           0 FoldK=F
 IRaf=         1 NMat=       1 IRICut=       1 DoRegI=T DoRafI=F ISym2E= 0 IDoP0=0 IntGTp=1.
 FoFCou: FMM=F IPFlag=           0 FMFlag=      100000 FMFlg1=         800
         NFxFlg=           0 DoJE=F BraDBF=F KetDBF=F FulRan=T
         wScrn=  0.000000 ICntrl=      2527 IOpCl=  0 I1Cent=           0 NGrid=           0
         NMat0=    1 NMatS0=      1 NMatT0=    0 NMatD0=    1 NMtDS0=    0 NMtDT0=    0
 Symmetry not used in FoFCou.
 Leave Link  703 at Sat Sep 14 18:16:48 2024, MaxMem=  4294967296 cpu:             101.2 elap:               6.5
 (Enter /home/appl/Gaussian/g16/l716.exe)
 Dipole        = 4.77474449D-03 1.54694068D-03 9.40872008D-02
 ***** Axes restored to original set *****
 -------------------------------------------------------------------
 Center     Atomic                   Forces (Hartrees/Bohr)
 Number     Number              X              Y              Z
 -------------------------------------------------------------------
      1       16          -0.000431026   -0.000119266   -0.000052771
      2        9          -0.000105492    0.000096836   -0.000225683
      3        8          -0.000249142    0.000308262    0.000184680
      4        8           0.000776648    0.000026861    0.000059109
      5        7           0.000282292   -0.000387264    0.000280548
      6       16          -0.000412695    0.000231243   -0.000210137
      7        9           0.000096386   -0.000048332   -0.000189441
      8        8          -0.000011769    0.000023084    0.000007544
      9        8           0.000054799   -0.000131425    0.000146152
 -------------------------------------------------------------------
 Cartesian Forces:  Max     0.000776648 RMS     0.000253788
 Leave Link  716 at Sat Sep 14 18:16:49 2024, MaxMem=  4294967296 cpu:               2.5 elap:               0.2
 (Enter /home/appl/Gaussian/g16/l103.exe)

 GradGradGradGradGradGradGradGradGradGradGradGradGradGradGradGradGradGrad
 Berny optimization.
 Using GEDIIS/GDIIS optimizer.
 FormGI is forming the generalized inverse of G from B-inverse, IUseBI=4.
 Internal  Forces:  Max     0.000776573 RMS     0.000221505
 Search for a local minimum.
 Step number  11 out of a maximum of  100
 All quantities printed in internal units (Hartrees-Bohrs-Radians)
 RMS Force = .22150D-03 SwitMx=.10000D-02 MixMth= 2
 Mixed Optimization -- En-DIIS/RFO-DIIS
 Swapping is turned off.
 Update second derivatives using D2CorX and points    3    4    5    6    7
                                                      8    9   10   11
 DE= -6.83D-06 DEPred=-5.32D-06 R= 1.28D+00
 TightC=F SS=  1.41D+00  RLast= 1.61D-02 DXNew= 1.4270D+00 4.8230D-02
 Trust test= 1.28D+00 RLast= 1.61D-02 DXMaxT set to 8.49D-01
 ITU=  1  1  1  1  1  1  1  1  1  1  0
     Eigenvalues ---    0.01222   0.03724   0.16710   0.17553   0.18718
     Eigenvalues ---    0.22051   0.24406   0.24941   0.25141   0.25605
     Eigenvalues ---    0.26649   0.30911   0.34872   0.39663   0.47614
     Eigenvalues ---    0.68335   0.74442   0.98697   1.07595   1.19493
     Eigenvalues ---    1.29306
 En-DIIS/RFO-DIIS/Sim-DIIS IScMMF=       -3 using points:    11   10    9
 RFO step:  Lambda=-3.94432732D-06.
 NNeg= 0 NGDIIS= 3 SimSw=  2.50D-01 Rises=F DC= -6.83D-06 SmlDif=  1.00D-05
 NRisDI= 0 DoIntr=F SqrtH=F CThrHd= 10.0 CDAdj=  3.0
 RMS Error=  0.2197598290D-02 NUsed= 3 OKEnD=F EnDIS=F
 InvSVX:  RCond= 1.65D-06 Info=           0 Equed=N FErr=  7.16D-14 BErr=  3.94D-17
 DidBck=F Rises=F RFO-DIIS coefs:    1.40732   -0.21850   -0.18882
 Iteration  1 RMS(Cart)=  0.00226266 RMS(Int)=  0.00000340
 Iteration  2 RMS(Cart)=  0.00000506 RMS(Int)=  0.00000010
 Iteration  3 RMS(Cart)=  0.00000000 RMS(Int)=  0.00000010
 ITry= 1 IFail=0 DXMaxC= 5.36D-03 DCOld= 1.00D+10 DXMaxT= 8.49D-01 DXLimC= 3.00D+00 Rises=F
 Variable       Old X    -DE/DX   Delta X   Delta X   Delta X     New X
                                 (Linear)    (Quad)   (Total)
    R1        3.10172   0.00026   0.00073   0.00019   0.00092   3.10264
    R2        2.72210   0.00043   0.00114  -0.00026   0.00088   2.72297
    R3        2.71651   0.00078  -0.00156   0.00149  -0.00007   2.71644
    R4        2.99840   0.00029   0.00046   0.00026   0.00073   2.99913
    R5        2.99817   0.00026  -0.00036   0.00069   0.00033   2.99850
    R6        3.10356  -0.00021   0.00038   0.00020   0.00059   3.10415
    R7        2.71768  -0.00002   0.00064  -0.00036   0.00028   2.71795
    R8        2.72320  -0.00019  -0.00003  -0.00023  -0.00025   2.72294
    A1        1.81027  -0.00011  -0.00020  -0.00050  -0.00070   1.80957
    A2        1.80640   0.00001   0.00059  -0.00031   0.00028   1.80668
    A3        1.78916  -0.00010   0.00016  -0.00044  -0.00028   1.78888
    A4        2.08755   0.00001  -0.00013   0.00018   0.00005   2.08760
    A5        2.03086   0.00010  -0.00025   0.00057   0.00031   2.03118
    A6        1.89600   0.00004   0.00001   0.00018   0.00019   1.89619
    A7        2.16186  -0.00032  -0.00004  -0.00126  -0.00130   2.16056
    A8        1.79046  -0.00009   0.00015  -0.00029  -0.00014   1.79032
    A9        1.89578  -0.00000  -0.00008  -0.00002  -0.00010   1.89568
   A10        2.03034   0.00015   0.00021   0.00033   0.00054   2.03089
   A11        1.80703  -0.00004   0.00040  -0.00026   0.00014   1.80717
   A12        1.80986  -0.00002   0.00001  -0.00015  -0.00014   1.80972
   A13        2.08724  -0.00003  -0.00053   0.00020  -0.00033   2.08691
    D1       -1.34069   0.00014   0.00394   0.00051   0.00445  -1.33624
    D2        0.62111  -0.00001   0.00368  -0.00012   0.00357   0.62468
    D3        3.03841   0.00016   0.00321   0.00098   0.00419   3.04260
    D4       -1.31378  -0.00008  -0.00365   0.00019  -0.00346  -1.31724
    D5        3.06414   0.00000  -0.00413   0.00061  -0.00352   3.06062
    D6        0.64811  -0.00010  -0.00344  -0.00002  -0.00347   0.64464
         Item               Value     Threshold  Converged?
 Maximum Force            0.000777     0.000450     NO 
 RMS     Force            0.000222     0.000300     YES
 Maximum Displacement     0.005363     0.001800     NO 
 RMS     Displacement     0.002264     0.001200     NO 
 Predicted change in Energy=-1.900567D-06
 Lowest energy point so far.  Saving SCF results.
 GradGradGradGradGradGradGradGradGradGradGradGradGradGradGradGradGradGrad

 Leave Link  103 at Sat Sep 14 18:17:06 2024, MaxMem=  4294967296 cpu:             195.5 elap:              16.3
 (Enter /home/appl/Gaussian/g16/l202.exe)
                          Input orientation:                          
 ---------------------------------------------------------------------
 Center     Atomic      Atomic             Coordinates (Angstroms)
 Number     Number       Type             X           Y           Z
 ---------------------------------------------------------------------
      1         16           0        0.981374    7.036090    5.178173
      2          9           0        0.819865    7.591978    3.641762
      3          8           0        0.126584    7.905068    5.946616
      4          8           0        2.401832    7.061927    5.397196
      5          7           0        0.515632    5.524563    5.047187
      6         16           0       -1.001690    5.075771    4.928595
      7          9           0       -1.548440    5.252938    6.467415
      8          8           0       -1.044679    3.653715    4.717511
      9          8           0       -1.864852    5.935323    4.158937
 ---------------------------------------------------------------------
                    Distance matrix (angstroms):
                    1          2          3          4          5
     1  S    0.000000
     2  F    1.641845   0.000000
     3  O    1.440935   2.427142   0.000000
     4  O    1.437476   2.421801   2.487871   0.000000
     5  N    1.587069   2.518329   2.574322   2.458402   0.000000
     6  S    2.799586   3.362335   3.211587   3.968421   1.586740
     7  F    3.352870   4.366268   3.179738   4.474646   2.520163
     8  O    3.969580   4.488171   4.577833   4.894519   2.458318
     9  O    3.217380   3.196824   3.322877   4.583352   2.573794
                    6          7          8          9
     6  S    0.000000
     7  F    1.642648   0.000000
     8  O    1.438279   2.423521   0.000000
     9  O    1.440920   2.427929   2.488056   0.000000
 Stoichiometry    F2NO4S2(1-)
 Framework group  C1[X(F2NO4S2)]
 Deg. of freedom    21
 Full point group                 C1      NOp   1
 RotChk:  IX=0 Diff= 5.36D-03
 Largest Abelian subgroup         C1      NOp   1
 Largest concise Abelian subgroup C1      NOp   1
                         Standard orientation:                         
 ---------------------------------------------------------------------
 Center     Atomic      Atomic             Coordinates (Angstroms)
 Number     Number       Type             X           Y           Z
 ---------------------------------------------------------------------
      1         16           0        1.391155   -0.151081   -0.086821
      2          9           0        1.696306    1.380591    0.419656
      3          8           0        1.379544   -0.917536    1.133304
      4          8           0        2.415137   -0.391177   -1.066695
      5          7           0        0.000038    0.005254   -0.834577
      6         16           0       -1.392027    0.151547   -0.087248
      7          9           0       -1.685554   -1.381163    0.425523
      8          8           0       -2.418138    0.380677   -1.068697
      9          8           0       -1.386928    0.923151    1.129655
 ---------------------------------------------------------------------
 Rotational constants (GHZ):           2.5248363           0.8789095           0.8620017
 Leave Link  202 at Sat Sep 14 18:17:07 2024, MaxMem=  4294967296 cpu:               3.6 elap:               0.4
 (Enter /home/appl/Gaussian/g16/l301.exe)
 Standard basis: 6-311++G(d,p) (5D, 7F)
 Ernie: Thresh=  0.10000D-02 Tol=  0.10000D-05 Strict=F.
 There are   223 symmetry adapted cartesian basis functions of A   symmetry.
 There are   214 symmetry adapted basis functions of A   symmetry.
   214 basis functions,   352 primitive gaussians,   223 cartesian basis functions
    45 alpha electrons       45 beta electrons
       nuclear repulsion energy       772.0729525863 Hartrees.
 IExCor= 4639 DFT=T Ex+Corr=wB97XD ExCW=0 ScaHFX=  1.000000
 ScaDFX=  1.000000  1.000000  1.000000  1.000000 ScalE2=  1.000000  1.000000
 IRadAn=      5 IRanWt=     -1 IRanGd=            0 ICorTp=0 IEmpDi=121
 HFx  wShort=  0.000000 wLong=  0.200000 cFull=  0.222036 cShort=  0.000000 cLong=  0.777964
 DFx  wShort=  0.000000 wLong=  0.200000 cFull=  0.000000 cShort=  0.000000 cLong=  1.000000
 NAtoms=    9 NActive=    9 NUniq=    9 SFac= 1.00D+00 NAtFMM=   60 NAOKFM=F Big=F
 Integral buffers will be    131072 words long.
 Raffenetti 2 integral format.
 Two-electron integral symmetry is turned on.
 R6Disp:  Grimme-D2 Dispersion energy=       -0.0028634621 Hartrees.
 Nuclear repulsion after empirical dispersion term =      772.0700891242 Hartrees.
 Leave Link  301 at Sat Sep 14 18:17:08 2024, MaxMem=  4294967296 cpu:               3.8 elap:               0.3
 (Enter /home/appl/Gaussian/g16/l302.exe)
 NPDir=0 NMtPBC=     1 NCelOv=     1 NCel=       1 NClECP=     1 NCelD=      1
         NCelK=      1 NCelE2=     1 NClLst=     1 CellRange=     0.0.
 One-electron integrals computed using PRISM.
 One-electron integral symmetry used in STVInt
 NBasis=   214 RedAO= T EigKep=  2.24D-04  NBF=   214
 NBsUse=   214 1.00D-06 EigRej= -1.00D+00 NBFU=   214
 Precomputing XC quadrature grid using
 IXCGrd= 4 IRadAn=           5 IRanWt=          -1 IRanGd=           0 AccXCQ= 0.00D+00.
 Generated NRdTot=       0 NPtTot=           0 NUsed=           0 NTot=          32
 NSgBfM=   223   223   223   223   223 MxSgAt=     9 MxSgA2=     9.
 Leave Link  302 at Sat Sep 14 18:17:16 2024, MaxMem=  4294967296 cpu:             126.8 elap:               7.2
 (Enter /home/appl/Gaussian/g16/l303.exe)
 DipDrv:  MaxL=1.
 Leave Link  303 at Sat Sep 14 18:17:17 2024, MaxMem=  4294967296 cpu:              15.8 elap:               1.0
 (Enter /home/appl/Gaussian/g16/l401.exe)
 Initial guess from the checkpoint file:  "/scr/Gau-148765.chk"
 B after Tr=    -0.000000    0.000000   -0.000000
         Rot=    0.999998   -0.001901    0.000010   -0.000083 Ang=  -0.22 deg.
 Guess basis will be translated and rotated to current coordinates.
 JPrj=2 DoOrth=T DoCkMO=T.
 Leave Link  401 at Sat Sep 14 18:17:23 2024, MaxMem=  4294967296 cpu:              98.6 elap:               5.6
 (Enter /home/appl/Gaussian/g16/l502.exe)
 Keep R1 ints in memory in canonical form, NReq=576265202.
 FoFCou: FMM=F IPFlag=           0 FMFlag=           0 FMFlg1=           0
         NFxFlg=           0 DoJE=F BraDBF=F KetDBF=F FulRan=T
         wScrn=  0.000000 ICntrl=       600 IOpCl=  0 I1Cent=           0 NGrid=           0
         NMat0=    1 NMatS0=  23005 NMatT0=    0 NMatD0=    1 NMtDS0=    0 NMtDT0=    0
 Symmetry not used in FoFCou.
 Two-electron integral symmetry not used.
 Closed shell SCF:
 Using DIIS extrapolation, IDIIS=  1040.
 NGot=  4294967296 LenX=  3765603616 LenY=  3765553446
 Requested convergence on RMS density matrix=1.00D-08 within 128 cycles.
 Requested convergence on MAX density matrix=1.00D-06.
 Requested convergence on             energy=1.00D-06.
 No special actions if energy rises.

 Cycle   1  Pass 1  IDiag  1:
 E= -1351.69494482463    
 DIIS: error= 1.27D-04 at cycle   1 NSaved=   1.
 NSaved= 1 IEnMin= 1 EnMin= -1351.69494482463     IErMin= 1 ErrMin= 1.27D-04
 ErrMax= 1.27D-04  0.00D+00 EMaxC= 1.00D-01 BMatC= 8.85D-06 BMatP= 8.85D-06
 IDIUse=3 WtCom= 9.99D-01 WtEn= 1.27D-03
 Coeff-Com:  0.100D+01
 Coeff-En:   0.100D+01
 Coeff:      0.100D+01
 Gap=     0.674 Goal=   None    Shift=    0.000
 RMSDP=3.60D-05 MaxDP=8.44D-04              OVMax= 6.98D-04

 Cycle   2  Pass 1  IDiag  1:
 E= -1351.69495800760     Delta-E=       -0.000013182970 Rises=F Damp=F
 DIIS: error= 2.28D-05 at cycle   2 NSaved=   2.
 NSaved= 2 IEnMin= 2 EnMin= -1351.69495800760     IErMin= 2 ErrMin= 2.28D-05
 ErrMax= 2.28D-05  0.00D+00 EMaxC= 1.00D-01 BMatC= 4.53D-07 BMatP= 8.85D-06
 IDIUse=1 WtCom= 1.00D+00 WtEn= 0.00D+00
 Coeff-Com: -0.112D+00 0.111D+01
 Coeff:     -0.112D+00 0.111D+01
 Gap=     0.428 Goal=   None    Shift=    0.000
 RMSDP=8.83D-06 MaxDP=1.79D-04 DE=-1.32D-05 OVMax= 2.49D-04

 Cycle   3  Pass 1  IDiag  1:
 E= -1351.69495850444     Delta-E=       -0.000000496842 Rises=F Damp=F
 DIIS: error= 3.86D-05 at cycle   3 NSaved=   3.
 NSaved= 3 IEnMin= 3 EnMin= -1351.69495850444     IErMin= 2 ErrMin= 2.28D-05
 ErrMax= 3.86D-05  0.00D+00 EMaxC= 1.00D-01 BMatC= 4.44D-07 BMatP= 4.53D-07
 IDIUse=1 WtCom= 1.00D+00 WtEn= 0.00D+00
 Coeff-Com: -0.981D-01 0.609D+00 0.489D+00
 Coeff:     -0.981D-01 0.609D+00 0.489D+00
 Gap=     0.428 Goal=   None    Shift=    0.000
 RMSDP=3.61D-06 MaxDP=9.90D-05 DE=-4.97D-07 OVMax= 1.11D-04

 Cycle   4  Pass 1  IDiag  1:
 E= -1351.69495879304     Delta-E=       -0.000000288598 Rises=F Damp=F
 DIIS: error= 7.04D-06 at cycle   4 NSaved=   4.
 NSaved= 4 IEnMin= 4 EnMin= -1351.69495879304     IErMin= 4 ErrMin= 7.04D-06
 ErrMax= 7.04D-06  0.00D+00 EMaxC= 1.00D-01 BMatC= 1.51D-08 BMatP= 4.44D-07
 IDIUse=1 WtCom= 1.00D+00 WtEn= 0.00D+00
 Coeff-Com: -0.829D-02-0.262D-02 0.135D+00 0.876D+00
 Coeff:     -0.829D-02-0.262D-02 0.135D+00 0.876D+00
 Gap=     0.428 Goal=   None    Shift=    0.000
 RMSDP=1.28D-06 MaxDP=2.04D-05 DE=-2.89D-07 OVMax= 4.02D-05

 Cycle   5  Pass 1  IDiag  1:
 E= -1351.69495880857     Delta-E=       -0.000000015527 Rises=F Damp=F
 DIIS: error= 2.85D-06 at cycle   5 NSaved=   5.
 NSaved= 5 IEnMin= 5 EnMin= -1351.69495880857     IErMin= 5 ErrMin= 2.85D-06
 ErrMax= 2.85D-06  0.00D+00 EMaxC= 1.00D-01 BMatC= 2.71D-09 BMatP= 1.51D-08
 IDIUse=1 WtCom= 1.00D+00 WtEn= 0.00D+00
 Coeff-Com:  0.555D-02-0.600D-01 0.123D-01 0.393D+00 0.649D+00
 Coeff:      0.555D-02-0.600D-01 0.123D-01 0.393D+00 0.649D+00
 Gap=     0.428 Goal=   None    Shift=    0.000
 RMSDP=4.42D-07 MaxDP=1.18D-05 DE=-1.55D-08 OVMax= 1.56D-05

 Cycle   6  Pass 1  IDiag  1:
 E= -1351.69495881088     Delta-E=       -0.000000002307 Rises=F Damp=F
 DIIS: error= 6.43D-07 at cycle   6 NSaved=   6.
 NSaved= 6 IEnMin= 6 EnMin= -1351.69495881088     IErMin= 6 ErrMin= 6.43D-07
 ErrMax= 6.43D-07  0.00D+00 EMaxC= 1.00D-01 BMatC= 2.00D-10 BMatP= 2.71D-09
 IDIUse=1 WtCom= 1.00D+00 WtEn= 0.00D+00
 Coeff-Com:  0.282D-02-0.212D-01-0.117D-01 0.433D-01 0.224D+00 0.763D+00
 Coeff:      0.282D-02-0.212D-01-0.117D-01 0.433D-01 0.224D+00 0.763D+00
 Gap=     0.428 Goal=   None    Shift=    0.000
 RMSDP=1.76D-07 MaxDP=3.21D-06 DE=-2.31D-09 OVMax= 6.56D-06

 Cycle   7  Pass 1  IDiag  1:
 E= -1351.69495881110     Delta-E=       -0.000000000223 Rises=F Damp=F
 DIIS: error= 3.44D-07 at cycle   7 NSaved=   7.
 NSaved= 7 IEnMin= 7 EnMin= -1351.69495881110     IErMin= 7 ErrMin= 3.44D-07
 ErrMax= 3.44D-07  0.00D+00 EMaxC= 1.00D-01 BMatC= 3.64D-11 BMatP= 2.00D-10
 IDIUse=1 WtCom= 1.00D+00 WtEn= 0.00D+00
 Coeff-Com:  0.412D-03-0.432D-03-0.691D-02-0.394D-01-0.510D-02 0.317D+00
 Coeff-Com:  0.735D+00
 Coeff:      0.412D-03-0.432D-03-0.691D-02-0.394D-01-0.510D-02 0.317D+00
 Coeff:      0.735D+00
 Gap=     0.428 Goal=   None    Shift=    0.000
 RMSDP=7.37D-08 MaxDP=1.26D-06 DE=-2.23D-10 OVMax= 2.77D-06

 Cycle   8  Pass 1  IDiag  1:
 E= -1351.69495881114     Delta-E=       -0.000000000046 Rises=F Damp=F
 DIIS: error= 9.98D-08 at cycle   8 NSaved=   8.
 NSaved= 8 IEnMin= 8 EnMin= -1351.69495881114     IErMin= 8 ErrMin= 9.98D-08
 ErrMax= 9.98D-08  0.00D+00 EMaxC= 1.00D-01 BMatC= 4.91D-12 BMatP= 3.64D-11
 IDIUse=1 WtCom= 1.00D+00 WtEn= 0.00D+00
 Coeff-Com: -0.202D-03 0.268D-02-0.129D-02-0.224D-01-0.315D-01 0.336D-01
 Coeff-Com:  0.308D+00 0.711D+00
 Coeff:     -0.202D-03 0.268D-02-0.129D-02-0.224D-01-0.315D-01 0.336D-01
 Coeff:      0.308D+00 0.711D+00
 Gap=     0.428 Goal=   None    Shift=    0.000
 RMSDP=2.53D-08 MaxDP=4.91D-07 DE=-4.59D-11 OVMax= 1.09D-06

 Cycle   9  Pass 1  IDiag  1:
 E= -1351.69495881115     Delta-E=       -0.000000000008 Rises=F Damp=F
 DIIS: error= 3.96D-08 at cycle   9 NSaved=   9.
 NSaved= 9 IEnMin= 9 EnMin= -1351.69495881115     IErMin= 9 ErrMin= 3.96D-08
 ErrMax= 3.96D-08  0.00D+00 EMaxC= 1.00D-01 BMatC= 6.63D-13 BMatP= 4.91D-12
 IDIUse=1 WtCom= 1.00D+00 WtEn= 0.00D+00
 Coeff-Com: -0.135D-03 0.123D-02 0.300D-03-0.500D-02-0.124D-01-0.232D-01
 Coeff-Com:  0.411D-01 0.301D+00 0.697D+00
 Coeff:     -0.135D-03 0.123D-02 0.300D-03-0.500D-02-0.124D-01-0.232D-01
 Coeff:      0.411D-01 0.301D+00 0.697D+00
 Gap=     0.428 Goal=   None    Shift=    0.000
 RMSDP=9.72D-09 MaxDP=2.74D-07 DE=-7.73D-12 OVMax= 3.64D-07

 SCF Done:  E(RwB97XD) =  -1351.69495881     A.U. after    9 cycles
            NFock=  9  Conv=0.97D-08     -V/T= 2.0017
 KE= 1.349388792916D+03 PE=-4.766229424568D+03 EE= 1.293075583716D+03
 Leave Link  502 at Sat Sep 14 18:18:48 2024, MaxMem=  4294967296 cpu:            1024.3 elap:              84.0
 (Enter /home/appl/Gaussian/g16/l701.exe)
 ... and contract with generalized density number  0.
 Compute integral first derivatives.
 R6Disp: Adding Grimme-D2 dispersion energy 1st derivatives to the gradient.
 Leave Link  701 at Sat Sep 14 18:18:53 2024, MaxMem=  4294967296 cpu:              52.2 elap:               3.0
 (Enter /home/appl/Gaussian/g16/l702.exe)
 L702 exits ... SP integral derivatives will be done elsewhere.
 Leave Link  702 at Sat Sep 14 18:18:54 2024, MaxMem=  4294967296 cpu:               2.4 elap:               0.2
 (Enter /home/appl/Gaussian/g16/l703.exe)
 Integral derivatives from FoFJK, PRISM(SPDF).
 Compute integral first derivatives, UseDBF=F ICtDFT=           0.
 Calling FoFJK, ICntrl=      2127 FMM=F ISym2X=0 I1Cent= 0 IOpClX= 0 NMat=1 NMatS=1 NMatT=0.
 FoFJK:  IHMeth= 1 ICntrl=    2127 DoSepK=T KAlg= 0 I1Cent=           0 FoldK=F
 IRaf=         1 NMat=       1 IRICut=       1 DoRegI=T DoRafI=F ISym2E= 0 IDoP0=0 IntGTp=1.
 FoFCou: FMM=F IPFlag=           0 FMFlag=      100000 FMFlg1=         800
         NFxFlg=           0 DoJE=F BraDBF=F KetDBF=F FulRan=T
         wScrn=  0.000000 ICntrl=      2527 IOpCl=  0 I1Cent=           0 NGrid=           0
         NMat0=    1 NMatS0=      1 NMatT0=    0 NMatD0=    1 NMtDS0=    0 NMtDT0=    0
 Symmetry not used in FoFCou.
 Leave Link  703 at Sat Sep 14 18:19:01 2024, MaxMem=  4294967296 cpu:             107.2 elap:               6.7
 (Enter /home/appl/Gaussian/g16/l716.exe)
 Dipole        = 5.05337082D-03 4.17081272D-04 9.24617015D-02
 ***** Axes restored to original set *****
 -------------------------------------------------------------------
 Center     Atomic                   Forces (Hartrees/Bohr)
 Number     Number              X              Y              Z
 -------------------------------------------------------------------
      1       16          -0.000915735    0.000259668   -0.000073110
      2        9          -0.000003825    0.000019570   -0.000063468
      3        8           0.000111029   -0.000116473   -0.000040068
      4        8           0.000773358   -0.000022729    0.000086055
      5        7           0.000275611   -0.000129875    0.000287181
      6       16          -0.000449648   -0.000105899   -0.000087679
      7        9           0.000151791   -0.000078744   -0.000296157
      8        8           0.000023481    0.000185830    0.000098481
      9        8           0.000033938   -0.000011347    0.000088766
 -------------------------------------------------------------------
 Cartesian Forces:  Max     0.000915735 RMS     0.000279984
 Leave Link  716 at Sat Sep 14 18:19:02 2024, MaxMem=  4294967296 cpu:               2.2 elap:               0.2
 (Enter /home/appl/Gaussian/g16/l103.exe)

 GradGradGradGradGradGradGradGradGradGradGradGradGradGradGradGradGradGrad
 Berny optimization.
 Using GEDIIS/GDIIS optimizer.
 FormGI is forming the generalized inverse of G from B-inverse, IUseBI=4.
 Internal  Forces:  Max     0.000776695 RMS     0.000188167
 Search for a local minimum.
 Step number  12 out of a maximum of  100
 All quantities printed in internal units (Hartrees-Bohrs-Radians)
 RMS Force = .18817D-03 SwitMx=.10000D-02 MixMth= 2
 Mixed Optimization -- En-DIIS/RFO-DIIS
 Swapping is turned off.
 Update second derivatives using D2CorX and points    3    4    5    6    7
                                                      8    9   10   11   12
 DE= -2.24D-06 DEPred=-1.90D-06 R= 1.18D+00
 TightC=F SS=  1.41D+00  RLast= 9.60D-03 DXNew= 1.4270D+00 2.8793D-02
 Trust test= 1.18D+00 RLast= 9.60D-03 DXMaxT set to 8.49D-01
 ITU=  1  1  1  1  1  1  1  1  1  1  1  0
     Eigenvalues ---    0.01014   0.03699   0.17121   0.18199   0.19187
     Eigenvalues ---    0.20830   0.23960   0.24776   0.25126   0.25749
     Eigenvalues ---    0.26504   0.29782   0.33294   0.39269   0.47871
     Eigenvalues ---    0.66554   0.75617   0.98214   1.14602   1.15826
     Eigenvalues ---    1.31025
 En-DIIS/RFO-DIIS/Sim-DIIS IScMMF=       -3 using points:    12   11   10    9
 RFO step:  Lambda=-2.06906988D-06.
 NNeg= 0 NGDIIS= 4 SimSw=  2.50D-01 Rises=F DC= -2.24D-06 SmlDif=  1.00D-05
 NRisDI= 0 DoIntr=F SqrtH=F CThrHd= 10.0 CDAdj=  3.0
 RMS Error=  0.1557326755D-02 NUsed= 4 OKEnD=F EnDIS=F
 InvSVX:  RCond= 4.06D-07 Info=           0 Equed=N FErr=  1.85D-13 BErr=  1.09D-16
 DidBck=F Rises=F RFO-DIIS coefs:    1.62759   -0.43069   -0.29529    0.09840
 Iteration  1 RMS(Cart)=  0.00161175 RMS(Int)=  0.00000235
 Iteration  2 RMS(Cart)=  0.00000345 RMS(Int)=  0.00000006
 Iteration  3 RMS(Cart)=  0.00000000 RMS(Int)=  0.00000006
 ITry= 1 IFail=0 DXMaxC= 4.26D-03 DCOld= 1.00D+10 DXMaxT= 8.49D-01 DXLimC= 3.00D+00 Rises=F
 Variable       Old X    -DE/DX   Delta X   Delta X   Delta X     New X
                                 (Linear)    (Quad)   (Total)
    R1        3.10264   0.00007   0.00074  -0.00002   0.00072   3.10336
    R2        2.72297  -0.00016   0.00062  -0.00027   0.00036   2.72333
    R3        2.71644   0.00078   0.00010   0.00050   0.00059   2.71703
    R4        2.99913   0.00012   0.00058   0.00001   0.00058   2.99971
    R5        2.99850   0.00025   0.00025   0.00046   0.00072   2.99922
    R6        3.10415  -0.00034   0.00072  -0.00082  -0.00010   3.10406
    R7        2.71795  -0.00020   0.00016  -0.00018  -0.00002   2.71794
    R8        2.72294  -0.00008  -0.00024   0.00002  -0.00022   2.72272
    A1        1.80957   0.00005  -0.00033   0.00033   0.00000   1.80957
    A2        1.80668  -0.00000   0.00033  -0.00012   0.00020   1.80688
    A3        1.78888   0.00001   0.00008   0.00000   0.00008   1.78896
    A4        2.08760   0.00003  -0.00018   0.00018  -0.00000   2.08760
    A5        2.03118   0.00001   0.00029  -0.00015   0.00014   2.03132
    A6        1.89619  -0.00008  -0.00014  -0.00021  -0.00036   1.89583
    A7        2.16056  -0.00013  -0.00113  -0.00011  -0.00124   2.15932
    A8        1.79032  -0.00011  -0.00018  -0.00025  -0.00043   1.78989
    A9        1.89568  -0.00002  -0.00004  -0.00019  -0.00022   1.89546
   A10        2.03089   0.00006   0.00045  -0.00004   0.00041   2.03130
   A11        1.80717  -0.00008   0.00018  -0.00034  -0.00016   1.80700
   A12        1.80972   0.00002  -0.00020   0.00021   0.00002   1.80974
   A13        2.08691   0.00008  -0.00026   0.00047   0.00021   2.08712
    D1       -1.33624   0.00003   0.00348  -0.00014   0.00333  -1.33291
    D2        0.62468   0.00010   0.00326   0.00019   0.00345   0.62813
    D3        3.04260   0.00006   0.00313   0.00007   0.00320   3.04580
    D4       -1.31724  -0.00008  -0.00271  -0.00028  -0.00300  -1.32023
    D5        3.06062   0.00006  -0.00282   0.00027  -0.00255   3.05807
    D6        0.64464  -0.00011  -0.00286  -0.00020  -0.00307   0.64157
         Item               Value     Threshold  Converged?
 Maximum Force            0.000777     0.000450     NO 
 RMS     Force            0.000188     0.000300     YES
 Maximum Displacement     0.004264     0.001800     NO 
 RMS     Displacement     0.001613     0.001200     NO 
 Predicted change in Energy=-1.027229D-06
 Lowest energy point so far.  Saving SCF results.
 GradGradGradGradGradGradGradGradGradGradGradGradGradGradGradGradGradGrad

 Leave Link  103 at Sat Sep 14 18:19:19 2024, MaxMem=  4294967296 cpu:             173.8 elap:              15.9
 (Enter /home/appl/Gaussian/g16/l202.exe)
                          Input orientation:                          
 ---------------------------------------------------------------------
 Center     Atomic      Atomic             Coordinates (Angstroms)
 Number     Number       Type             X           Y           Z
 ---------------------------------------------------------------------
      1         16           0        0.981340    7.036084    5.178434
      2          9           0        0.817946    7.590537    3.641295
      3          8           0        0.126849    7.905537    5.947029
      4          8           0        2.402294    7.062546    5.396222
      5          7           0        0.516354    5.523828    5.049443
      6         16           0       -1.001467    5.076010    4.928512
      7          9           0       -1.549364    5.252305    6.466971
      8          8           0       -1.044802    3.654087    4.716659
      9          8           0       -1.863527    5.936441    4.158825
 ---------------------------------------------------------------------
                    Distance matrix (angstroms):
                    1          2          3          4          5
     1  S    0.000000
     2  F    1.642229   0.000000
     3  O    1.441125   2.427602   0.000000
     4  O    1.437791   2.422541   2.488307   0.000000
     5  N    1.587377   2.518953   2.574861   2.458593   0.000000
     6  S    2.799263   3.360066   3.211962   3.968711   1.587119
     7  F    3.353604   4.365310   3.181143   4.476503   2.519981
     8  O    3.969432   4.485742   4.578362   4.895087   2.458432
     9  O    3.215911   3.192831   3.322140   4.582193   2.574351
                    6          7          8          9
     6  S    0.000000
     7  F    1.642597   0.000000
     8  O    1.438271   2.423318   0.000000
     9  O    1.440802   2.427814   2.488098   0.000000
 Stoichiometry    F2NO4S2(1-)
 Framework group  C1[X(F2NO4S2)]
 Deg. of freedom    21
 Full point group                 C1      NOp   1
 RotChk:  IX=0 Diff= 4.70D-04
 Largest Abelian subgroup         C1      NOp   1
 Largest concise Abelian subgroup C1      NOp   1
                         Standard orientation:                         
 ---------------------------------------------------------------------
 Center     Atomic      Atomic             Coordinates (Angstroms)
 Number     Number       Type             X           Y           Z
 ---------------------------------------------------------------------
      1         16           0        1.391148   -0.151200   -0.086865
      2          9           0        1.693815    1.381114    0.420405
      3          8           0        1.380151   -0.918206    1.133144
      4          8           0        2.415973   -0.389666   -1.066717
      5          7           0        0.000006    0.003242   -0.835623
      6         16           0       -1.391701    0.151497   -0.087213
      7          9           0       -1.686504   -1.381015    0.425256
      8          8           0       -2.417969    0.381612   -1.068255
      9          8           0       -1.385279    0.922717    1.129787
 ---------------------------------------------------------------------
 Rotational constants (GHZ):           2.5243795           0.8790735           0.8621554
 Leave Link  202 at Sat Sep 14 18:19:20 2024, MaxMem=  4294967296 cpu:               3.4 elap:               0.4
 (Enter /home/appl/Gaussian/g16/l301.exe)
 Standard basis: 6-311++G(d,p) (5D, 7F)
 Ernie: Thresh=  0.10000D-02 Tol=  0.10000D-05 Strict=F.
 There are   223 symmetry adapted cartesian basis functions of A   symmetry.
 There are   214 symmetry adapted basis functions of A   symmetry.
   214 basis functions,   352 primitive gaussians,   223 cartesian basis functions
    45 alpha electrons       45 beta electrons
       nuclear repulsion energy       772.0557490040 Hartrees.
 IExCor= 4639 DFT=T Ex+Corr=wB97XD ExCW=0 ScaHFX=  1.000000
 ScaDFX=  1.000000  1.000000  1.000000  1.000000 ScalE2=  1.000000  1.000000
 IRadAn=      5 IRanWt=     -1 IRanGd=            0 ICorTp=0 IEmpDi=121
 HFx  wShort=  0.000000 wLong=  0.200000 cFull=  0.222036 cShort=  0.000000 cLong=  0.777964
 DFx  wShort=  0.000000 wLong=  0.200000 cFull=  0.000000 cShort=  0.000000 cLong=  1.000000
 NAtoms=    9 NActive=    9 NUniq=    9 SFac= 1.00D+00 NAtFMM=   60 NAOKFM=F Big=F
 Integral buffers will be    131072 words long.
 Raffenetti 2 integral format.
 Two-electron integral symmetry is turned on.
 R6Disp:  Grimme-D2 Dispersion energy=       -0.0028640792 Hartrees.
 Nuclear repulsion after empirical dispersion term =      772.0528849248 Hartrees.
 Leave Link  301 at Sat Sep 14 18:19:21 2024, MaxMem=  4294967296 cpu:               5.0 elap:               0.4
 (Enter /home/appl/Gaussian/g16/l302.exe)
 NPDir=0 NMtPBC=     1 NCelOv=     1 NCel=       1 NClECP=     1 NCelD=      1
         NCelK=      1 NCelE2=     1 NClLst=     1 CellRange=     0.0.
 One-electron integrals computed using PRISM.
 One-electron integral symmetry used in STVInt
 NBasis=   214 RedAO= T EigKep=  2.24D-04  NBF=   214
 NBsUse=   214 1.00D-06 EigRej= -1.00D+00 NBFU=   214
 Precomputing XC quadrature grid using
 IXCGrd= 4 IRadAn=           5 IRanWt=          -1 IRanGd=           0 AccXCQ= 0.00D+00.
 Generated NRdTot=       0 NPtTot=           0 NUsed=           0 NTot=          32
 NSgBfM=   223   223   223   223   223 MxSgAt=     9 MxSgA2=     9.
 Leave Link  302 at Sat Sep 14 18:19:29 2024, MaxMem=  4294967296 cpu:             139.5 elap:               7.9
 (Enter /home/appl/Gaussian/g16/l303.exe)
 DipDrv:  MaxL=1.
 Leave Link  303 at Sat Sep 14 18:19:31 2024, MaxMem=  4294967296 cpu:              11.6 elap:               0.7
 (Enter /home/appl/Gaussian/g16/l401.exe)
 Initial guess from the checkpoint file:  "/scr/Gau-148765.chk"
 B after Tr=     0.000000    0.000000    0.000000
         Rot=    1.000000   -0.000167    0.000005   -0.000044 Ang=  -0.02 deg.
 Guess basis will be translated and rotated to current coordinates.
 JPrj=2 DoOrth=T DoCkMO=T.
 Leave Link  401 at Sat Sep 14 18:19:37 2024, MaxMem=  4294967296 cpu:              94.5 elap:               5.4
 (Enter /home/appl/Gaussian/g16/l502.exe)
 Keep R1 ints in memory in canonical form, NReq=576265202.
 FoFCou: FMM=F IPFlag=           0 FMFlag=           0 FMFlg1=           0
         NFxFlg=           0 DoJE=F BraDBF=F KetDBF=F FulRan=T
         wScrn=  0.000000 ICntrl=       600 IOpCl=  0 I1Cent=           0 NGrid=           0
         NMat0=    1 NMatS0=  23005 NMatT0=    0 NMatD0=    1 NMtDS0=    0 NMtDT0=    0
 Symmetry not used in FoFCou.
 Two-electron integral symmetry not used.
 Closed shell SCF:
 Using DIIS extrapolation, IDIIS=  1040.
 NGot=  4294967296 LenX=  3765603616 LenY=  3765553446
 Requested convergence on RMS density matrix=1.00D-08 within 128 cycles.
 Requested convergence on MAX density matrix=1.00D-06.
 Requested convergence on             energy=1.00D-06.
 No special actions if energy rises.

 Cycle   1  Pass 1  IDiag  1:
 E= -1351.69495306120    
 DIIS: error= 9.51D-05 at cycle   1 NSaved=   1.
 NSaved= 1 IEnMin= 1 EnMin= -1351.69495306120     IErMin= 1 ErrMin= 9.51D-05
 ErrMax= 9.51D-05  0.00D+00 EMaxC= 1.00D-01 BMatC= 4.48D-06 BMatP= 4.48D-06
 IDIUse=1 WtCom= 1.00D+00 WtEn= 0.00D+00
 Coeff-Com:  0.100D+01
 Coeff:      0.100D+01
 Gap=     0.674 Goal=   None    Shift=    0.000
 RMSDP=2.68D-05 MaxDP=7.87D-04              OVMax= 6.02D-04

 Cycle   2  Pass 1  IDiag  1:
 E= -1351.69495983094     Delta-E=       -0.000006769739 Rises=F Damp=F
 DIIS: error= 1.78D-05 at cycle   2 NSaved=   2.
 NSaved= 2 IEnMin= 2 EnMin= -1351.69495983094     IErMin= 2 ErrMin= 1.78D-05
 ErrMax= 1.78D-05  0.00D+00 EMaxC= 1.00D-01 BMatC= 2.28D-07 BMatP= 4.48D-06
 IDIUse=1 WtCom= 1.00D+00 WtEn= 0.00D+00
 Coeff-Com: -0.114D+00 0.111D+01
 Coeff:     -0.114D+00 0.111D+01
 Gap=     0.428 Goal=   None    Shift=    0.000
 RMSDP=7.06D-06 MaxDP=1.52D-04 DE=-6.77D-06 OVMax= 2.34D-04

 Cycle   3  Pass 1  IDiag  1:
 E= -1351.69496008807     Delta-E=       -0.000000257135 Rises=F Damp=F
 DIIS: error= 2.64D-05 at cycle   3 NSaved=   3.
 NSaved= 3 IEnMin= 3 EnMin= -1351.69496008807     IErMin= 2 ErrMin= 1.78D-05
 ErrMax= 2.64D-05  0.00D+00 EMaxC= 1.00D-01 BMatC= 2.20D-07 BMatP= 2.28D-07
 IDIUse=1 WtCom= 1.00D+00 WtEn= 0.00D+00
 Coeff-Com: -0.984D-01 0.608D+00 0.490D+00
 Coeff:     -0.984D-01 0.608D+00 0.490D+00
 Gap=     0.428 Goal=   None    Shift=    0.000
 RMSDP=2.89D-06 MaxDP=5.25D-05 DE=-2.57D-07 OVMax= 9.13D-05

 Cycle   4  Pass 1  IDiag  1:
 E= -1351.69496024637     Delta-E=       -0.000000158298 Rises=F Damp=F
 DIIS: error= 5.65D-06 at cycle   4 NSaved=   4.
 NSaved= 4 IEnMin= 4 EnMin= -1351.69496024637     IErMin= 4 ErrMin= 5.65D-06
 ErrMax= 5.65D-06  0.00D+00 EMaxC= 1.00D-01 BMatC= 9.44D-09 BMatP= 2.20D-07
 IDIUse=1 WtCom= 1.00D+00 WtEn= 0.00D+00
 Coeff-Com: -0.135D-01 0.285D-01 0.160D+00 0.825D+00
 Coeff:     -0.135D-01 0.285D-01 0.160D+00 0.825D+00
 Gap=     0.428 Goal=   None    Shift=    0.000
 RMSDP=9.76D-07 MaxDP=1.88D-05 DE=-1.58D-07 OVMax= 3.20D-05

 Cycle   5  Pass 1  IDiag  1:
 E= -1351.69496025541     Delta-E=       -0.000000009034 Rises=F Damp=F
 DIIS: error= 2.13D-06 at cycle   5 NSaved=   5.
 NSaved= 5 IEnMin= 5 EnMin= -1351.69496025541     IErMin= 5 ErrMin= 2.13D-06
 ErrMax= 2.13D-06  0.00D+00 EMaxC= 1.00D-01 BMatC= 1.90D-09 BMatP= 9.44D-09
 IDIUse=1 WtCom= 1.00D+00 WtEn= 0.00D+00
 Coeff-Com:  0.633D-02-0.663D-01 0.138D-01 0.387D+00 0.660D+00
 Coeff:      0.633D-02-0.663D-01 0.138D-01 0.387D+00 0.660D+00
 Gap=     0.428 Goal=   None    Shift=    0.000
 RMSDP=4.04D-07 MaxDP=1.30D-05 DE=-9.03D-09 OVMax= 1.54D-05

 Cycle   6  Pass 1  IDiag  1:
 E= -1351.69496025712     Delta-E=       -0.000000001712 Rises=F Damp=F
 DIIS: error= 5.32D-07 at cycle   6 NSaved=   6.
 NSaved= 6 IEnMin= 6 EnMin= -1351.69496025712     IErMin= 6 ErrMin= 5.32D-07
 ErrMax= 5.32D-07  0.00D+00 EMaxC= 1.00D-01 BMatC= 1.02D-10 BMatP= 1.90D-09
 IDIUse=1 WtCom= 1.00D+00 WtEn= 0.00D+00
 Coeff-Com:  0.319D-02-0.240D-01-0.107D-01 0.483D-01 0.201D+00 0.782D+00
 Coeff:      0.319D-02-0.240D-01-0.107D-01 0.483D-01 0.201D+00 0.782D+00
 Gap=     0.428 Goal=   None    Shift=    0.000
 RMSDP=1.38D-07 MaxDP=2.87D-06 DE=-1.71D-09 OVMax= 5.84D-06

 Cycle   7  Pass 1  IDiag  1:
 E= -1351.69496025725     Delta-E=       -0.000000000134 Rises=F Damp=F
 DIIS: error= 2.63D-07 at cycle   7 NSaved=   7.
 NSaved= 7 IEnMin= 7 EnMin= -1351.69496025725     IErMin= 7 ErrMin= 2.63D-07
 ErrMax= 2.63D-07  0.00D+00 EMaxC= 1.00D-01 BMatC= 2.62D-11 BMatP= 1.02D-10
 IDIUse=1 WtCom= 1.00D+00 WtEn= 0.00D+00
 Coeff-Com:  0.401D-03-0.210D-05-0.752D-02-0.438D-01-0.215D-01 0.354D+00
 Coeff-Com:  0.719D+00
 Coeff:      0.401D-03-0.210D-05-0.752D-02-0.438D-01-0.215D-01 0.354D+00
 Coeff:      0.719D+00
 Gap=     0.428 Goal=   None    Shift=    0.000
 RMSDP=6.26D-08 MaxDP=1.22D-06 DE=-1.34D-10 OVMax= 2.51D-06

 Cycle   8  Pass 1  IDiag  1:
 E= -1351.69496025728     Delta-E=       -0.000000000029 Rises=F Damp=F
 DIIS: error= 1.00D-07 at cycle   8 NSaved=   8.
 NSaved= 8 IEnMin= 8 EnMin= -1351.69496025728     IErMin= 8 ErrMin= 1.00D-07
 ErrMax= 1.00D-07  0.00D+00 EMaxC= 1.00D-01 BMatC= 3.27D-12 BMatP= 2.62D-11
 IDIUse=1 WtCom= 1.00D+00 WtEn= 0.00D+00
 Coeff-Com: -0.222D-03 0.303D-02-0.176D-02-0.248D-01-0.354D-01 0.545D-01
 Coeff-Com:  0.310D+00 0.694D+00
 Coeff:     -0.222D-03 0.303D-02-0.176D-02-0.248D-01-0.354D-01 0.545D-01
 Coeff:      0.310D+00 0.694D+00
 Gap=     0.428 Goal=   None    Shift=    0.000
 RMSDP=2.12D-08 MaxDP=4.82D-07 DE=-2.86D-11 OVMax= 8.48D-07

 Cycle   9  Pass 1  IDiag  1:
 E= -1351.69496025728     Delta-E=       -0.000000000002 Rises=F Damp=F
 DIIS: error= 3.12D-08 at cycle   9 NSaved=   9.
 NSaved= 9 IEnMin= 9 EnMin= -1351.69496025728     IErMin= 9 ErrMin= 3.12D-08
 ErrMax= 3.12D-08  0.00D+00 EMaxC= 1.00D-01 BMatC= 3.45D-13 BMatP= 3.27D-12
 IDIUse=1 WtCom= 1.00D+00 WtEn= 0.00D+00
 Coeff-Com: -0.137D-03 0.118D-02 0.397D-03-0.346D-02-0.102D-01-0.254D-01
 Coeff-Com:  0.182D-01 0.261D+00 0.758D+00
 Coeff:     -0.137D-03 0.118D-02 0.397D-03-0.346D-02-0.102D-01-0.254D-01
 Coeff:      0.182D-01 0.261D+00 0.758D+00
 Gap=     0.428 Goal=   None    Shift=    0.000
 RMSDP=7.89D-09 MaxDP=2.00D-07 DE=-2.27D-12 OVMax= 3.25D-07

 SCF Done:  E(RwB97XD) =  -1351.69496026     A.U. after    9 cycles
            NFock=  9  Conv=0.79D-08     -V/T= 2.0017
 KE= 1.349386467295D+03 PE=-4.766193663434D+03 EE= 1.293059350957D+03
 Leave Link  502 at Sat Sep 14 18:21:05 2024, MaxMem=  4294967296 cpu:            1183.1 elap:              88.7
 (Enter /home/appl/Gaussian/g16/l701.exe)
 ... and contract with generalized density number  0.
 Compute integral first derivatives.
 R6Disp: Adding Grimme-D2 dispersion energy 1st derivatives to the gradient.
 Leave Link  701 at Sat Sep 14 18:21:11 2024, MaxMem=  4294967296 cpu:              48.8 elap:               2.8
 (Enter /home/appl/Gaussian/g16/l702.exe)
 L702 exits ... SP integral derivatives will be done elsewhere.
 Leave Link  702 at Sat Sep 14 18:21:12 2024, MaxMem=  4294967296 cpu:               2.1 elap:               0.2
 (Enter /home/appl/Gaussian/g16/l703.exe)
 Integral derivatives from FoFJK, PRISM(SPDF).
 Compute integral first derivatives, UseDBF=F ICtDFT=           0.
 Calling FoFJK, ICntrl=      2127 FMM=F ISym2X=0 I1Cent= 0 IOpClX= 0 NMat=1 NMatS=1 NMatT=0.
 FoFJK:  IHMeth= 1 ICntrl=    2127 DoSepK=T KAlg= 0 I1Cent=           0 FoldK=F
 IRaf=         1 NMat=       1 IRICut=       1 DoRegI=T DoRafI=F ISym2E= 0 IDoP0=0 IntGTp=1.
 FoFCou: FMM=F IPFlag=           0 FMFlag=      100000 FMFlg1=         800
         NFxFlg=           0 DoJE=F BraDBF=F KetDBF=F FulRan=T
         wScrn=  0.000000 ICntrl=      2527 IOpCl=  0 I1Cent=           0 NGrid=           0
         NMat0=    1 NMatS0=      1 NMatT0=    0 NMatD0=    1 NMtDS0=    0 NMtDT0=    0
 Symmetry not used in FoFCou.
 Leave Link  703 at Sat Sep 14 18:21:19 2024, MaxMem=  4294967296 cpu:             102.0 elap:               6.4
 (Enter /home/appl/Gaussian/g16/l716.exe)
 Dipole        = 3.39223721D-03 5.63616169D-04 9.33268724D-02
 ***** Axes restored to original set *****
 -------------------------------------------------------------------
 Center     Atomic                   Forces (Hartrees/Bohr)
 Number     Number              X              Y              Z
 -------------------------------------------------------------------
      1       16          -0.000669579    0.000274773   -0.000015757
      2        9           0.000037025   -0.000021117    0.000101870
      3        8           0.000256925   -0.000260668   -0.000187481
      4        8           0.000375557    0.000009244    0.000019625
      5        7           0.000112640    0.000054599    0.000183651
      6       16          -0.000230240   -0.000231149    0.000097169
      7        9           0.000111067   -0.000061199   -0.000271106
      8        8           0.000010259    0.000179984    0.000061601
      9        8          -0.000003654    0.000055532    0.000010428
 -------------------------------------------------------------------
 Cartesian Forces:  Max     0.000669579 RMS     0.000205594
 Leave Link  716 at Sat Sep 14 18:21:20 2024, MaxMem=  4294967296 cpu:               2.7 elap:               0.2
 (Enter /home/appl/Gaussian/g16/l103.exe)

 GradGradGradGradGradGradGradGradGradGradGradGradGradGradGradGradGradGrad
 Berny optimization.
 Using GEDIIS/GDIIS optimizer.
 FormGI is forming the generalized inverse of G from B-inverse, IUseBI=4.
 Internal  Forces:  Max     0.000410172 RMS     0.000134539
 Search for a local minimum.
 Step number  13 out of a maximum of  100
 All quantities printed in internal units (Hartrees-Bohrs-Radians)
 RMS Force = .13454D-03 SwitMx=.10000D-02 MixMth= 2
 Mixed Optimization -- En-DIIS/RFO-DIIS
 Swapping is turned off.
 Update second derivatives using D2CorX and points    3    4    5    6    7
                                                      8    9   10   11   12
                                                     13
 DE= -1.45D-06 DEPred=-1.03D-06 R= 1.41D+00
 TightC=F SS=  1.41D+00  RLast= 7.89D-03 DXNew= 1.4270D+00 2.3680D-02
 Trust test= 1.41D+00 RLast= 7.89D-03 DXMaxT set to 8.49D-01
 ITU=  1  1  1  1  1  1  1  1  1  1  1  1  0
     Eigenvalues ---    0.00786   0.03697   0.17021   0.18472   0.19185
     Eigenvalues ---    0.20482   0.23514   0.25068   0.25481   0.26135
     Eigenvalues ---    0.26724   0.30807   0.31145   0.39510   0.52169
     Eigenvalues ---    0.62847   0.76687   0.94795   1.03374   1.17295
     Eigenvalues ---    1.35831
 En-DIIS/RFO-DIIS/Sim-DIIS IScMMF=       -3 using points:    13   12   11   10    9
 RFO step:  Lambda=-1.11670910D-06.
 NNeg= 0 NGDIIS= 5 SimSw=  2.50D-01 Rises=F DC= -1.45D-06 SmlDif=  1.00D-05
 NRisDI= 0 DoIntr=F SqrtH=F CThrHd= 10.0 CDAdj=  3.0
 RMS Error=  0.1490869904D-02 NUsed= 5 OKEnD=F EnDIS=F
 InvSVX:  RCond= 4.62D-08 Info=           0 Equed=N FErr=  1.08D-12 BErr=  6.24D-17
 DIIS inversion failure, remove point   5.
 InvSVX:  RCond= 1.22D-07 Info=           0 Equed=N FErr=  3.65D-13 BErr=  6.49D-17
 RFO-DIIS uses    4 points instead of    5
 DidBck=F Rises=F RFO-DIIS coefs:    1.71149   -0.62146   -0.03936   -0.05067    0.00000
 Iteration  1 RMS(Cart)=  0.00144930 RMS(Int)=  0.00000158
 Iteration  2 RMS(Cart)=  0.00000265 RMS(Int)=  0.00000004
 Iteration  3 RMS(Cart)=  0.00000000 RMS(Int)=  0.00000004
 ITry= 1 IFail=0 DXMaxC= 4.05D-03 DCOld= 1.00D+10 DXMaxT= 8.49D-01 DXLimC= 3.00D+00 Rises=F
 Variable       Old X    -DE/DX   Delta X   Delta X   Delta X     New X
                                 (Linear)    (Quad)   (Total)
    R1        3.10336  -0.00010   0.00067  -0.00044   0.00022   3.10358
    R2        2.72333  -0.00041   0.00042  -0.00048  -0.00007   2.72326
    R3        2.71703   0.00037   0.00033   0.00010   0.00044   2.71747
    R4        2.99971  -0.00000   0.00053  -0.00022   0.00030   3.00001
    R5        2.99922   0.00013   0.00052   0.00001   0.00053   2.99975
    R6        3.10406  -0.00030   0.00005  -0.00031  -0.00025   3.10381
    R7        2.71794  -0.00019   0.00005  -0.00020  -0.00015   2.71779
    R8        2.72272   0.00003  -0.00019   0.00008  -0.00011   2.72261
    A1        1.80957   0.00002  -0.00006   0.00006   0.00000   1.80957
    A2        1.80688  -0.00006   0.00022  -0.00032  -0.00009   1.80679
    A3        1.78896   0.00005   0.00008   0.00019   0.00027   1.78923
    A4        2.08760   0.00000  -0.00003  -0.00005  -0.00008   2.08752
    A5        2.03132  -0.00001   0.00012   0.00003   0.00016   2.03148
    A6        1.89583  -0.00001  -0.00027   0.00007  -0.00020   1.89563
    A7        2.15932   0.00003  -0.00104   0.00031  -0.00074   2.15858
    A8        1.78989  -0.00003  -0.00032   0.00001  -0.00031   1.78957
    A9        1.89546   0.00001  -0.00017   0.00016  -0.00001   1.89545
   A10        2.03130  -0.00003   0.00037  -0.00020   0.00017   2.03146
   A11        1.80700  -0.00005  -0.00007  -0.00015  -0.00022   1.80678
   A12        1.80974   0.00001  -0.00001  -0.00001  -0.00002   1.80971
   A13        2.08712   0.00006   0.00008   0.00016   0.00024   2.08736
    D1       -1.33291   0.00001   0.00311  -0.00011   0.00300  -1.32990
    D2        0.62813   0.00007   0.00314   0.00010   0.00324   0.63137
    D3        3.04580   0.00005   0.00292   0.00014   0.00306   3.04886
    D4       -1.32023  -0.00005  -0.00275  -0.00007  -0.00282  -1.32305
    D5        3.05807   0.00001  -0.00247   0.00004  -0.00244   3.05563
    D6        0.64157  -0.00006  -0.00280  -0.00017  -0.00297   0.63860
         Item               Value     Threshold  Converged?
 Maximum Force            0.000410     0.000450     YES
 RMS     Force            0.000135     0.000300     YES
 Maximum Displacement     0.004053     0.001800     NO 
 RMS     Displacement     0.001450     0.001200     NO 
 Predicted change in Energy=-5.530314D-07
 Lowest energy point so far.  Saving SCF results.
 GradGradGradGradGradGradGradGradGradGradGradGradGradGradGradGradGradGrad

 Leave Link  103 at Sat Sep 14 18:21:36 2024, MaxMem=  4294967296 cpu:             184.7 elap:              15.4
 (Enter /home/appl/Gaussian/g16/l202.exe)
                          Input orientation:                          
 ---------------------------------------------------------------------
 Center     Atomic      Atomic             Coordinates (Angstroms)
 Number     Number       Type             X           Y           Z
 ---------------------------------------------------------------------
      1         16           0        0.981286    7.036127    5.178637
      2          9           0        0.816468    7.589363    3.641086
      3          8           0        0.127402    7.906089    5.947264
      4          8           0        2.402661    7.063136    5.395130
      5          7           0        0.516789    5.523388    5.051588
      6         16           0       -1.001307    5.076094    4.928498
      7          9           0       -1.550423    5.251443    6.466488
      8          8           0       -1.044873    3.654364    4.715942
      9          8           0       -1.862378    5.937371    4.158759
 ---------------------------------------------------------------------
                    Distance matrix (angstroms):
                    1          2          3          4          5
     1  S    0.000000
     2  F    1.642346   0.000000
     3  O    1.441089   2.427671   0.000000
     4  O    1.438022   2.422725   2.488418   0.000000
     5  N    1.587539   2.519440   2.575097   2.458732   0.000000
     6  S    2.799102   3.358312   3.212591   3.969016   1.587400
     7  F    3.354579   4.364738   3.183055   4.478495   2.519774
     8  O    3.969348   4.483762   4.579033   4.895561   2.458596
     9  O    3.214629   3.189558   3.321720   4.581105   2.574677
                    6          7          8          9
     6  S    0.000000
     7  F    1.642463   0.000000
     8  O    1.438191   2.422943   0.000000
     9  O    1.440742   2.427637   2.488149   0.000000
 Stoichiometry    F2NO4S2(1-)
 Framework group  C1[X(F2NO4S2)]
 Deg. of freedom    21
 Full point group                 C1      NOp   1
 RotChk:  IX=0 Diff= 6.57D-04
 Largest Abelian subgroup         C1      NOp   1
 Largest concise Abelian subgroup C1      NOp   1
                         Standard orientation:                         
 ---------------------------------------------------------------------
 Center     Atomic      Atomic             Coordinates (Angstroms)
 Number     Number       Type             X           Y           Z
 ---------------------------------------------------------------------
      1         16           0        1.391161   -0.151322   -0.086912
      2          9           0        1.691919    1.381216    0.421193
      3          8           0        1.381013   -0.918939    1.132678
      4          8           0        2.416681   -0.388012   -1.066807
      5          7           0       -0.000034    0.001468   -0.836252
      6         16           0       -1.391515    0.151477   -0.087173
      7          9           0       -1.687767   -1.380785    0.424779
      8          8           0       -2.417831    0.382709   -1.067785
      9          8           0       -1.383795    0.922162    1.130087
 ---------------------------------------------------------------------
 Rotational constants (GHZ):           2.5244693           0.8791337           0.8622257
 Leave Link  202 at Sat Sep 14 18:21:37 2024, MaxMem=  4294967296 cpu:               4.4 elap:               0.5
 (Enter /home/appl/Gaussian/g16/l301.exe)
 Standard basis: 6-311++G(d,p) (5D, 7F)
 Ernie: Thresh=  0.10000D-02 Tol=  0.10000D-05 Strict=F.
 There are   223 symmetry adapted cartesian basis functions of A   symmetry.
 There are   214 symmetry adapted basis functions of A   symmetry.
   214 basis functions,   352 primitive gaussians,   223 cartesian basis functions
    45 alpha electrons       45 beta electrons
       nuclear repulsion energy       772.0584489956 Hartrees.
 IExCor= 4639 DFT=T Ex+Corr=wB97XD ExCW=0 ScaHFX=  1.000000
 ScaDFX=  1.000000  1.000000  1.000000  1.000000 ScalE2=  1.000000  1.000000
 IRadAn=      5 IRanWt=     -1 IRanGd=            0 ICorTp=0 IEmpDi=121
 HFx  wShort=  0.000000 wLong=  0.200000 cFull=  0.222036 cShort=  0.000000 cLong=  0.777964
 DFx  wShort=  0.000000 wLong=  0.200000 cFull=  0.000000 cShort=  0.000000 cLong=  1.000000
 NAtoms=    9 NActive=    9 NUniq=    9 SFac= 1.00D+00 NAtFMM=   60 NAOKFM=F Big=F
 Integral buffers will be    131072 words long.
 Raffenetti 2 integral format.
 Two-electron integral symmetry is turned on.
 R6Disp:  Grimme-D2 Dispersion energy=       -0.0028642449 Hartrees.
 Nuclear repulsion after empirical dispersion term =      772.0555847507 Hartrees.
 Leave Link  301 at Sat Sep 14 18:21:38 2024, MaxMem=  4294967296 cpu:               3.2 elap:               0.3
 (Enter /home/appl/Gaussian/g16/l302.exe)
 NPDir=0 NMtPBC=     1 NCelOv=     1 NCel=       1 NClECP=     1 NCelD=      1
         NCelK=      1 NCelE2=     1 NClLst=     1 CellRange=     0.0.
 One-electron integrals computed using PRISM.
 One-electron integral symmetry used in STVInt
 NBasis=   214 RedAO= T EigKep=  2.24D-04  NBF=   214
 NBsUse=   214 1.00D-06 EigRej= -1.00D+00 NBFU=   214
 Precomputing XC quadrature grid using
 IXCGrd= 4 IRadAn=           5 IRanWt=          -1 IRanGd=           0 AccXCQ= 0.00D+00.
 Generated NRdTot=       0 NPtTot=           0 NUsed=           0 NTot=          32
 NSgBfM=   223   223   223   223   223 MxSgAt=     9 MxSgA2=     9.
 Leave Link  302 at Sat Sep 14 18:21:46 2024, MaxMem=  4294967296 cpu:             129.8 elap:               7.3
 (Enter /home/appl/Gaussian/g16/l303.exe)
 DipDrv:  MaxL=1.
 Leave Link  303 at Sat Sep 14 18:21:47 2024, MaxMem=  4294967296 cpu:              12.4 elap:               0.8
 (Enter /home/appl/Gaussian/g16/l401.exe)
 Initial guess from the checkpoint file:  "/scr/Gau-148765.chk"
 B after Tr=    -0.000000    0.000000   -0.000000
         Rot=    1.000000   -0.000238   -0.000007   -0.000016 Ang=  -0.03 deg.
 Guess basis will be translated and rotated to current coordinates.
 JPrj=2 DoOrth=T DoCkMO=T.
 Leave Link  401 at Sat Sep 14 18:21:52 2024, MaxMem=  4294967296 cpu:              79.6 elap:               4.5
 (Enter /home/appl/Gaussian/g16/l502.exe)
 Keep R1 ints in memory in canonical form, NReq=576265202.
 FoFCou: FMM=F IPFlag=           0 FMFlag=           0 FMFlg1=           0
         NFxFlg=           0 DoJE=F BraDBF=F KetDBF=F FulRan=T
         wScrn=  0.000000 ICntrl=       600 IOpCl=  0 I1Cent=           0 NGrid=           0
         NMat0=    1 NMatS0=  23005 NMatT0=    0 NMatD0=    1 NMtDS0=    0 NMtDT0=    0
 Symmetry not used in FoFCou.
 Two-electron integral symmetry not used.
 Closed shell SCF:
 Using DIIS extrapolation, IDIIS=  1040.
 NGot=  4294967296 LenX=  3765603616 LenY=  3765553446
 Requested convergence on RMS density matrix=1.00D-08 within 128 cycles.
 Requested convergence on MAX density matrix=1.00D-06.
 Requested convergence on             energy=1.00D-06.
 No special actions if energy rises.

 Cycle   1  Pass 1  IDiag  1:
 E= -1351.69495497453    
 DIIS: error= 9.33D-05 at cycle   1 NSaved=   1.
 NSaved= 1 IEnMin= 1 EnMin= -1351.69495497453     IErMin= 1 ErrMin= 9.33D-05
 ErrMax= 9.33D-05  0.00D+00 EMaxC= 1.00D-01 BMatC= 3.70D-06 BMatP= 3.70D-06
 IDIUse=1 WtCom= 1.00D+00 WtEn= 0.00D+00
 Coeff-Com:  0.100D+01
 Coeff:      0.100D+01
 Gap=     0.674 Goal=   None    Shift=    0.000
 RMSDP=2.34D-05 MaxDP=6.36D-04              OVMax= 5.79D-04

 Cycle   2  Pass 1  IDiag  1:
 E= -1351.69496061234     Delta-E=       -0.000005637801 Rises=F Damp=F
 DIIS: error= 1.63D-05 at cycle   2 NSaved=   2.
 NSaved= 2 IEnMin= 2 EnMin= -1351.69496061234     IErMin= 2 ErrMin= 1.63D-05
 ErrMax= 1.63D-05  0.00D+00 EMaxC= 1.00D-01 BMatC= 1.78D-07 BMatP= 3.70D-06
 IDIUse=1 WtCom= 1.00D+00 WtEn= 0.00D+00
 Coeff-Com: -0.128D+00 0.113D+01
 Coeff:     -0.128D+00 0.113D+01
 Gap=     0.428 Goal=   None    Shift=    0.000
 RMSDP=5.86D-06 MaxDP=1.15D-04 DE=-5.64D-06 OVMax= 2.15D-04

 Cycle   3  Pass 1  IDiag  1:
 E= -1351.69496082820     Delta-E=       -0.000000215866 Rises=F Damp=F
 DIIS: error= 2.21D-05 at cycle   3 NSaved=   3.
 NSaved= 3 IEnMin= 3 EnMin= -1351.69496082820     IErMin= 2 ErrMin= 1.63D-05
 ErrMax= 2.21D-05  0.00D+00 EMaxC= 1.00D-01 BMatC= 1.67D-07 BMatP= 1.78D-07
 IDIUse=1 WtCom= 1.00D+00 WtEn= 0.00D+00
 Coeff-Com: -0.101D+00 0.621D+00 0.480D+00
 Coeff:     -0.101D+00 0.621D+00 0.480D+00
 Gap=     0.428 Goal=   None    Shift=    0.000
 RMSDP=2.40D-06 MaxDP=4.04D-05 DE=-2.16D-07 OVMax= 6.92D-05

 Cycle   4  Pass 1  IDiag  1:
 E= -1351.69496094554     Delta-E=       -0.000000117337 Rises=F Damp=F
 DIIS: error= 4.32D-06 at cycle   4 NSaved=   4.
 NSaved= 4 IEnMin= 4 EnMin= -1351.69496094554     IErMin= 4 ErrMin= 4.32D-06
 ErrMax= 4.32D-06  0.00D+00 EMaxC= 1.00D-01 BMatC= 6.02D-09 BMatP= 1.67D-07
 IDIUse=1 WtCom= 1.00D+00 WtEn= 0.00D+00
 Coeff-Com: -0.206D-02-0.394D-01 0.127D+00 0.914D+00
 Coeff:     -0.206D-02-0.394D-01 0.127D+00 0.914D+00
 Gap=     0.428 Goal=   None    Shift=    0.000
 RMSDP=8.53D-07 MaxDP=1.49D-05 DE=-1.17D-07 OVMax= 3.45D-05

 Cycle   5  Pass 1  IDiag  1:
 E= -1351.69496095220     Delta-E=       -0.000000006660 Rises=F Damp=F
 DIIS: error= 1.35D-06 at cycle   5 NSaved=   5.
 NSaved= 5 IEnMin= 5 EnMin= -1351.69496095220     IErMin= 5 ErrMin= 1.35D-06
 ErrMax= 1.35D-06  0.00D+00 EMaxC= 1.00D-01 BMatC= 1.04D-09 BMatP= 6.02D-09
 IDIUse=1 WtCom= 1.00D+00 WtEn= 0.00D+00
 Coeff-Com:  0.667D-02-0.665D-01 0.227D-01 0.426D+00 0.611D+00
 Coeff:      0.667D-02-0.665D-01 0.227D-01 0.426D+00 0.611D+00
 Gap=     0.428 Goal=   None    Shift=    0.000
 RMSDP=2.84D-07 MaxDP=8.26D-06 DE=-6.66D-09 OVMax= 1.10D-05

 Cycle   6  Pass 1  IDiag  1:
 E= -1351.69496095311     Delta-E=       -0.000000000917 Rises=F Damp=F
 DIIS: error= 4.95D-07 at cycle   6 NSaved=   6.
 NSaved= 6 IEnMin= 6 EnMin= -1351.69496095311     IErMin= 6 ErrMin= 4.95D-07
 ErrMax= 4.95D-07  0.00D+00 EMaxC= 1.00D-01 BMatC= 7.72D-11 BMatP= 1.04D-09
 IDIUse=1 WtCom= 1.00D+00 WtEn= 0.00D+00
 Coeff-Com:  0.260D-02-0.182D-01-0.120D-01 0.172D-01 0.194D+00 0.816D+00
 Coeff:      0.260D-02-0.182D-01-0.120D-01 0.172D-01 0.194D+00 0.816D+00
 Gap=     0.428 Goal=   None    Shift=    0.000
 RMSDP=1.27D-07 MaxDP=2.84D-06 DE=-9.17D-10 OVMax= 5.97D-06

 Cycle   7  Pass 1  IDiag  1:
 E= -1351.69496095322     Delta-E=       -0.000000000102 Rises=F Damp=F
 DIIS: error= 2.17D-07 at cycle   7 NSaved=   7.
 NSaved= 7 IEnMin= 7 EnMin= -1351.69496095322     IErMin= 7 ErrMin= 2.17D-07
 ErrMax= 2.17D-07  0.00D+00 EMaxC= 1.00D-01 BMatC= 2.07D-11 BMatP= 7.72D-11
 IDIUse=1 WtCom= 1.00D+00 WtEn= 0.00D+00
 Coeff-Com:  0.295D-03 0.853D-03-0.949D-02-0.548D-01 0.387D-02 0.401D+00
 Coeff-Com:  0.659D+00
 Coeff:      0.295D-03 0.853D-03-0.949D-02-0.548D-01 0.387D-02 0.401D+00
 Coeff:      0.659D+00
 Gap=     0.428 Goal=   None    Shift=    0.000
 RMSDP=4.78D-08 MaxDP=9.28D-07 DE=-1.02D-10 OVMax= 2.05D-06

 Cycle   8  Pass 1  IDiag  1:
 E= -1351.69496095324     Delta-E=       -0.000000000028 Rises=F Damp=F
 DIIS: error= 6.10D-08 at cycle   8 NSaved=   8.
 NSaved= 8 IEnMin= 8 EnMin= -1351.69496095324     IErMin= 8 ErrMin= 6.10D-08
 ErrMax= 6.10D-08  0.00D+00 EMaxC= 1.00D-01 BMatC= 1.56D-12 BMatP= 2.07D-11
 IDIUse=1 WtCom= 1.00D+00 WtEn= 0.00D+00
 Coeff-Com: -0.264D-03 0.293D-02-0.123D-02-0.204D-01-0.263D-01 0.184D-01
 Coeff-Com:  0.223D+00 0.804D+00
 Coeff:     -0.264D-03 0.293D-02-0.123D-02-0.204D-01-0.263D-01 0.184D-01
 Coeff:      0.223D+00 0.804D+00
 Gap=     0.428 Goal=   None    Shift=    0.000
 RMSDP=1.79D-08 MaxDP=3.27D-07 DE=-2.82D-11 OVMax= 8.26D-07

 Cycle   9  Pass 1  IDiag  1:
 E= -1351.69496095324     Delta-E=        0.000000000004 Rises=F Damp=F
 DIIS: error= 2.02D-08 at cycle   9 NSaved=   9.
 NSaved= 9 IEnMin= 8 EnMin= -1351.69496095324     IErMin= 9 ErrMin= 2.02D-08
 ErrMax= 2.02D-08  0.00D+00 EMaxC= 1.00D-01 BMatC= 2.10D-13 BMatP= 1.56D-12
 IDIUse=1 WtCom= 1.00D+00 WtEn= 0.00D+00
 Coeff-Com: -0.126D-03 0.101D-02 0.510D-03-0.220D-02-0.102D-01-0.325D-01
 Coeff-Com:  0.199D-01 0.315D+00 0.709D+00
 Coeff:     -0.126D-03 0.101D-02 0.510D-03-0.220D-02-0.102D-01-0.325D-01
 Coeff:      0.199D-01 0.315D+00 0.709D+00
 Gap=     0.428 Goal=   None    Shift=    0.000
 RMSDP=5.56D-09 MaxDP=1.52D-07 DE= 3.64D-12 OVMax= 2.55D-07

 SCF Done:  E(RwB97XD) =  -1351.69496095     A.U. after    9 cycles
            NFock=  9  Conv=0.56D-08     -V/T= 2.0017
 KE= 1.349385874787D+03 PE=-4.766198801427D+03 EE= 1.293062380937D+03
 Leave Link  502 at Sat Sep 14 18:22:38 2024, MaxMem=  4294967296 cpu:             642.4 elap:              45.5
 (Enter /home/appl/Gaussian/g16/l701.exe)
 ... and contract with generalized density number  0.
 Compute integral first derivatives.
 R6Disp: Adding Grimme-D2 dispersion energy 1st derivatives to the gradient.
 Leave Link  701 at Sat Sep 14 18:22:42 2024, MaxMem=  4294967296 cpu:              46.6 elap:               2.7
 (Enter /home/appl/Gaussian/g16/l702.exe)
 L702 exits ... SP integral derivatives will be done elsewhere.
 Leave Link  702 at Sat Sep 14 18:22:43 2024, MaxMem=  4294967296 cpu:               1.9 elap:               0.2
 (Enter /home/appl/Gaussian/g16/l703.exe)
 Integral derivatives from FoFJK, PRISM(SPDF).
 Compute integral first derivatives, UseDBF=F ICtDFT=           0.
 Calling FoFJK, ICntrl=      2127 FMM=F ISym2X=0 I1Cent= 0 IOpClX= 0 NMat=1 NMatS=1 NMatT=0.
 FoFJK:  IHMeth= 1 ICntrl=    2127 DoSepK=T KAlg= 0 I1Cent=           0 FoldK=F
 IRaf=         1 NMat=       1 IRICut=       1 DoRegI=T DoRafI=F ISym2E= 0 IDoP0=0 IntGTp=1.
 FoFCou: FMM=F IPFlag=           0 FMFlag=      100000 FMFlg1=         800
         NFxFlg=           0 DoJE=F BraDBF=F KetDBF=F FulRan=T
         wScrn=  0.000000 ICntrl=      2527 IOpCl=  0 I1Cent=           0 NGrid=           0
         NMat0=    1 NMatS0=      1 NMatT0=    0 NMatD0=    1 NMtDS0=    0 NMtDT0=    0
 Symmetry not used in FoFCou.
 Leave Link  703 at Sat Sep 14 18:22:50 2024, MaxMem=  4294967296 cpu:             109.8 elap:               7.0
 (Enter /home/appl/Gaussian/g16/l716.exe)
 Dipole        = 1.34388034D-03 6.49997136D-04 9.41237609D-02
 ***** Axes restored to original set *****
 -------------------------------------------------------------------
 Center     Atomic                   Forces (Hartrees/Bohr)
 Number     Number              X              Y              Z
 -------------------------------------------------------------------
      1       16          -0.000315454    0.000219956   -0.000037199
      2        9           0.000030341   -0.000048948    0.000147867
      3        8           0.000212398   -0.000249878   -0.000170440
      4        8           0.000097663    0.000000220   -0.000000024
      5        7          -0.000016832    0.000134776    0.000084734
      6       16          -0.000074341   -0.000187185    0.000220368
      7        9           0.000072144   -0.000036342   -0.000208055
      8        8           0.000012906    0.000093707    0.000006822
      9        8          -0.000018825    0.000073694   -0.000044075
 -------------------------------------------------------------------
 Cartesian Forces:  Max     0.000315454 RMS     0.000136339
 Leave Link  716 at Sat Sep 14 18:22:51 2024, MaxMem=  4294967296 cpu:               2.1 elap:               0.2
 (Enter /home/appl/Gaussian/g16/l103.exe)

 GradGradGradGradGradGradGradGradGradGradGradGradGradGradGradGradGradGrad
 Berny optimization.
 Using GEDIIS/GDIIS optimizer.
 FormGI is forming the generalized inverse of G from B-inverse, IUseBI=4.
 Internal  Forces:  Max     0.000368229 RMS     0.000099452
 Search for a local minimum.
 Step number  14 out of a maximum of  100
 All quantities printed in internal units (Hartrees-Bohrs-Radians)
 RMS Force = .99452D-04 SwitMx=.10000D-02 MixMth= 2
 Mixed Optimization -- En-DIIS/RFO-DIIS
 Swapping is turned off.
 Update second derivatives using D2CorX and points    3    4    5    6    7
                                                      8    9   10   11   12
                                                     13   14
 DE= -6.96D-07 DEPred=-5.53D-07 R= 1.26D+00
 Trust test= 1.26D+00 RLast= 7.30D-03 DXMaxT set to 8.49D-01
 ITU=  0  1  1  1  1  1  1  1  1  1  1  1  1  0
     Eigenvalues ---    0.00659   0.03710   0.17049   0.18431   0.19493
     Eigenvalues ---    0.20104   0.23435   0.25008   0.25328   0.26202
     Eigenvalues ---    0.27024   0.30121   0.35369   0.39561   0.53535
     Eigenvalues ---    0.60000   0.77129   0.84015   1.00577   1.16484
     Eigenvalues ---    1.27004
 En-DIIS/RFO-DIIS/Sim-DIIS IScMMF=       -3 using points:    14   13   12   11   10    9
 RFO step:  Lambda=-5.56458560D-07.
 NNeg= 0 NGDIIS= 6 SimSw=  2.50D-01 Rises=F DC= -6.96D-07 SmlDif=  1.00D-05
 NRisDI= 0 DoIntr=F SqrtH=F CThrHd= 10.0 CDAdj=  3.0
 RMS Error=  0.9773975906D-03 NUsed= 6 OKEnD=F EnDIS=F
 InvSVX:  RCond= 1.20D-08 Info=           0 Equed=N FErr=  3.93D-12 BErr=  4.85D-17
 DIIS inversion failure, remove point   6.
 InvSVX:  RCond= 1.45D-08 Info=           0 Equed=N FErr=  2.90D-12 BErr=  5.41D-17
 DIIS inversion failure, remove point   5.
 InvSVX:  RCond= 1.94D-08 Info=           0 Equed=N FErr=  1.74D-12 BErr=  4.95D-17
 DIIS inversion failure, remove point   4.
 InvSVX:  RCond= 2.76D-08 Info=           0 Equed=N FErr=  1.34D-12 BErr=  2.44D-17
 DIIS inversion failure, remove point   3.
 InvSVX:  RCond= 1.33D-05 Info=           0 Equed=N FErr=  3.01D-15 BErr=  2.96D-17
 RFO-DIIS uses    2 points instead of    6
 DidBck=F Rises=F RFO-DIIS coefs:    1.68607   -0.68607    0.00000    0.00000    0.00000
                  RFO-DIIS coefs:    0.00000
 Iteration  1 RMS(Cart)=  0.00100610 RMS(Int)=  0.00000057
 Iteration  2 RMS(Cart)=  0.00000118 RMS(Int)=  0.00000002
 Iteration  3 RMS(Cart)=  0.00000000 RMS(Int)=  0.00000002
 ITry= 1 IFail=0 DXMaxC= 2.85D-03 DCOld= 1.00D+10 DXMaxT= 8.49D-01 DXLimC= 3.00D+00 Rises=F
 Variable       Old X    -DE/DX   Delta X   Delta X   Delta X     New X
                                 (Linear)    (Quad)   (Total)
    R1        3.10358  -0.00016   0.00015  -0.00037  -0.00022   3.10336
    R2        2.72326  -0.00037  -0.00005  -0.00028  -0.00032   2.72294
    R3        2.71747   0.00010   0.00030  -0.00011   0.00019   2.71766
    R4        3.00001  -0.00007   0.00021  -0.00021  -0.00001   3.00001
    R5        2.99975   0.00002   0.00036  -0.00013   0.00023   2.99998
    R6        3.10381  -0.00022  -0.00017  -0.00018  -0.00036   3.10345
    R7        2.71779  -0.00009  -0.00010  -0.00007  -0.00017   2.71762
    R8        2.72261   0.00008  -0.00008   0.00010   0.00002   2.72263
    A1        1.80957   0.00003   0.00000   0.00016   0.00016   1.80973
    A2        1.80679  -0.00002  -0.00006   0.00001  -0.00005   1.80674
    A3        1.78923   0.00003   0.00018  -0.00002   0.00017   1.78940
    A4        2.08752   0.00002  -0.00005   0.00010   0.00004   2.08756
    A5        2.03148  -0.00005   0.00011  -0.00023  -0.00012   2.03136
    A6        1.89563   0.00000  -0.00014   0.00001  -0.00013   1.89549
    A7        2.15858   0.00011  -0.00051   0.00048  -0.00002   2.15856
    A8        1.78957   0.00003  -0.00022   0.00008  -0.00014   1.78944
    A9        1.89545  -0.00000  -0.00001   0.00003   0.00003   1.89548
   A10        2.03146  -0.00007   0.00011  -0.00020  -0.00009   2.03138
   A11        1.80678   0.00000  -0.00015  -0.00000  -0.00015   1.80663
   A12        1.80971   0.00002  -0.00002   0.00006   0.00005   1.80976
   A13        2.08736   0.00003   0.00016   0.00006   0.00023   2.08758
    D1       -1.32990   0.00001   0.00206  -0.00001   0.00205  -1.32786
    D2        0.63137   0.00004   0.00222   0.00007   0.00229   0.63366
    D3        3.04886   0.00001   0.00210  -0.00002   0.00208   3.05094
    D4       -1.32305  -0.00002  -0.00193  -0.00007  -0.00200  -1.32505
    D5        3.05563  -0.00003  -0.00167  -0.00011  -0.00178   3.05385
    D6        0.63860  -0.00001  -0.00204  -0.00003  -0.00207   0.63654
         Item               Value     Threshold  Converged?
 Maximum Force            0.000368     0.000450     YES
 RMS     Force            0.000099     0.000300     YES
 Maximum Displacement     0.002847     0.001800     NO 
 RMS     Displacement     0.001006     0.001200     YES
 Predicted change in Energy=-2.782341D-07
 Lowest energy point so far.  Saving SCF results.
 GradGradGradGradGradGradGradGradGradGradGradGradGradGradGradGradGradGrad

 Leave Link  103 at Sat Sep 14 18:23:07 2024, MaxMem=  4294967296 cpu:             183.8 elap:              15.5
 (Enter /home/appl/Gaussian/g16/l202.exe)
                          Input orientation:                          
 ---------------------------------------------------------------------
 Center     Atomic      Atomic             Coordinates (Angstroms)
 Number     Number       Type             X           Y           Z
 ---------------------------------------------------------------------
      1         16           0        0.981297    7.036295    5.178712
      2          9           0        0.815605    7.588563    3.641031
      3          8           0        0.127982    7.906477    5.947399
      4          8           0        2.402913    7.063371    5.394282
      5          7           0        0.516821    5.523433    5.053094
      6         16           0       -1.001281    5.076119    4.928570
      7          9           0       -1.551325    5.250644    6.466120
      8          8           0       -1.044675    3.654554    4.715495
      9          8           0       -1.861714    5.937920    4.158687
 ---------------------------------------------------------------------
                    Distance matrix (angstroms):
                    1          2          3          4          5
     1  S    0.000000
     2  F    1.642228   0.000000
     3  O    1.440918   2.427597   0.000000
     4  O    1.438122   2.422656   2.488389   0.000000
     5  N    1.587536   2.519515   2.574855   2.458691   0.000000
     6  S    2.799192   3.357262   3.213125   3.969206   1.587523
     7  F    3.355614   4.364556   3.184744   4.480046   2.519580
     8  O    3.969296   4.482359   4.579472   4.895575   2.458649
     9  O    3.213968   3.187574   3.321686   4.580435   2.574722
                    6          7          8          9
     6  S    0.000000
     7  F    1.642274   0.000000
     8  O    1.438100   2.422578   0.000000
     9  O    1.440752   2.427537   2.488243   0.000000
 Stoichiometry    F2NO4S2(1-)
 Framework group  C1[X(F2NO4S2)]
 Deg. of freedom    21
 Full point group                 C1      NOp   1
 RotChk:  IX=0 Diff= 4.22D-04
 Largest Abelian subgroup         C1      NOp   1
 Largest concise Abelian subgroup C1      NOp   1
                         Standard orientation:                         
 ---------------------------------------------------------------------
 Center     Atomic      Atomic             Coordinates (Angstroms)
 Number     Number       Type             X           Y           Z
 ---------------------------------------------------------------------
      1         16           0        1.391297   -0.151394   -0.086860
      2          9           0        1.690770    1.381143    0.421628
      3          8           0        1.381703   -0.919446    1.132258
      4          8           0        2.417047   -0.386883   -1.066950
      5          7           0        0.000003    0.000202   -0.836251
      6         16           0       -1.391466    0.151434   -0.087137
      7          9           0       -1.688962   -1.380514    0.424425
      8          8           0       -2.417535    0.383483   -1.067682
      9          8           0       -1.382913    0.921884    1.130279
 ---------------------------------------------------------------------
 Rotational constants (GHZ):           2.5247438           0.8791319           0.8622377
 Leave Link  202 at Sat Sep 14 18:23:08 2024, MaxMem=  4294967296 cpu:               4.1 elap:               0.4
 (Enter /home/appl/Gaussian/g16/l301.exe)
 Standard basis: 6-311++G(d,p) (5D, 7F)
 Ernie: Thresh=  0.10000D-02 Tol=  0.10000D-05 Strict=F.
 There are   223 symmetry adapted cartesian basis functions of A   symmetry.
 There are   214 symmetry adapted basis functions of A   symmetry.
   214 basis functions,   352 primitive gaussians,   223 cartesian basis functions
    45 alpha electrons       45 beta electrons
       nuclear repulsion energy       772.0747447884 Hartrees.
 IExCor= 4639 DFT=T Ex+Corr=wB97XD ExCW=0 ScaHFX=  1.000000
 ScaDFX=  1.000000  1.000000  1.000000  1.000000 ScalE2=  1.000000  1.000000
 IRadAn=      5 IRanWt=     -1 IRanGd=            0 ICorTp=0 IEmpDi=121
 HFx  wShort=  0.000000 wLong=  0.200000 cFull=  0.222036 cShort=  0.000000 cLong=  0.777964
 DFx  wShort=  0.000000 wLong=  0.200000 cFull=  0.000000 cShort=  0.000000 cLong=  1.000000
 NAtoms=    9 NActive=    9 NUniq=    9 SFac= 1.00D+00 NAtFMM=   60 NAOKFM=F Big=F
 Integral buffers will be    131072 words long.
 Raffenetti 2 integral format.
 Two-electron integral symmetry is turned on.
 R6Disp:  Grimme-D2 Dispersion energy=       -0.0028641006 Hartrees.
 Nuclear repulsion after empirical dispersion term =      772.0718806877 Hartrees.
 Leave Link  301 at Sat Sep 14 18:23:09 2024, MaxMem=  4294967296 cpu:               3.3 elap:               0.3
 (Enter /home/appl/Gaussian/g16/l302.exe)
 NPDir=0 NMtPBC=     1 NCelOv=     1 NCel=       1 NClECP=     1 NCelD=      1
         NCelK=      1 NCelE2=     1 NClLst=     1 CellRange=     0.0.
 One-electron integrals computed using PRISM.
 One-electron integral symmetry used in STVInt
 NBasis=   214 RedAO= T EigKep=  2.24D-04  NBF=   214
 NBsUse=   214 1.00D-06 EigRej= -1.00D+00 NBFU=   214
 Precomputing XC quadrature grid using
 IXCGrd= 4 IRadAn=           5 IRanWt=          -1 IRanGd=           0 AccXCQ= 0.00D+00.
 Generated NRdTot=       0 NPtTot=           0 NUsed=           0 NTot=          32
 NSgBfM=   223   223   223   223   223 MxSgAt=     9 MxSgA2=     9.
 Leave Link  302 at Sat Sep 14 18:23:17 2024, MaxMem=  4294967296 cpu:             125.4 elap:               7.2
 (Enter /home/appl/Gaussian/g16/l303.exe)
 DipDrv:  MaxL=1.
 Leave Link  303 at Sat Sep 14 18:23:19 2024, MaxMem=  4294967296 cpu:              10.6 elap:               0.7
 (Enter /home/appl/Gaussian/g16/l401.exe)
 Initial guess from the checkpoint file:  "/scr/Gau-148765.chk"
 B after Tr=     0.000000   -0.000000    0.000000
         Rot=    1.000000   -0.000153    0.000003    0.000005 Ang=  -0.02 deg.
 Guess basis will be translated and rotated to current coordinates.
 JPrj=2 DoOrth=T DoCkMO=T.
 Leave Link  401 at Sat Sep 14 18:23:24 2024, MaxMem=  4294967296 cpu:              79.7 elap:               4.5
 (Enter /home/appl/Gaussian/g16/l502.exe)
 Keep R1 ints in memory in canonical form, NReq=576265202.
 FoFCou: FMM=F IPFlag=           0 FMFlag=           0 FMFlg1=           0
         NFxFlg=           0 DoJE=F BraDBF=F KetDBF=F FulRan=T
         wScrn=  0.000000 ICntrl=       600 IOpCl=  0 I1Cent=           0 NGrid=           0
         NMat0=    1 NMatS0=  23005 NMatT0=    0 NMatD0=    1 NMtDS0=    0 NMtDT0=    0
 Symmetry not used in FoFCou.
 Two-electron integral symmetry not used.
 Closed shell SCF:
 Using DIIS extrapolation, IDIIS=  1040.
 NGot=  4294967296 LenX=  3765603616 LenY=  3765553446
 Requested convergence on RMS density matrix=1.00D-08 within 128 cycles.
 Requested convergence on MAX density matrix=1.00D-06.
 Requested convergence on             energy=1.00D-06.
 No special actions if energy rises.

 Cycle   1  Pass 1  IDiag  1:
 E= -1351.69495852259    
 DIIS: error= 6.35D-05 at cycle   1 NSaved=   1.
 NSaved= 1 IEnMin= 1 EnMin= -1351.69495852259     IErMin= 1 ErrMin= 6.35D-05
 ErrMax= 6.35D-05  0.00D+00 EMaxC= 1.00D-01 BMatC= 1.75D-06 BMatP= 1.75D-06
 IDIUse=1 WtCom= 1.00D+00 WtEn= 0.00D+00
 Coeff-Com:  0.100D+01
 Coeff:      0.100D+01
 Gap=     0.674 Goal=   None    Shift=    0.000
 RMSDP=1.58D-05 MaxDP=3.45D-04              OVMax= 4.05D-04

 Cycle   2  Pass 1  IDiag  1:
 E= -1351.69496116718     Delta-E=       -0.000002644598 Rises=F Damp=F
 DIIS: error= 1.09D-05 at cycle   2 NSaved=   2.
 NSaved= 2 IEnMin= 2 EnMin= -1351.69496116718     IErMin= 2 ErrMin= 1.09D-05
 ErrMax= 1.09D-05  0.00D+00 EMaxC= 1.00D-01 BMatC= 9.57D-08 BMatP= 1.75D-06
 IDIUse=1 WtCom= 1.00D+00 WtEn= 0.00D+00
 Coeff-Com: -0.109D+00 0.111D+01
 Coeff:     -0.109D+00 0.111D+01
 Gap=     0.428 Goal=   None    Shift=    0.000
 RMSDP=3.89D-06 MaxDP=7.84D-05 DE=-2.64D-06 OVMax= 1.49D-04

 Cycle   3  Pass 1  IDiag  1:
 E= -1351.69496125351     Delta-E=       -0.000000086330 Rises=F Damp=F
 DIIS: error= 1.62D-05 at cycle   3 NSaved=   3.
 NSaved= 3 IEnMin= 3 EnMin= -1351.69496125351     IErMin= 2 ErrMin= 1.09D-05
 ErrMax= 1.62D-05  0.00D+00 EMaxC= 1.00D-01 BMatC= 1.12D-07 BMatP= 9.57D-08
 IDIUse=1 WtCom= 1.00D+00 WtEn= 0.00D+00
 Coeff-Com: -0.104D+00 0.635D+00 0.469D+00
 Coeff:     -0.104D+00 0.635D+00 0.469D+00
 Gap=     0.428 Goal=   None    Shift=    0.000
 RMSDP=1.88D-06 MaxDP=3.48D-05 DE=-8.63D-08 OVMax= 5.06D-05

 Cycle   4  Pass 1  IDiag  1:
 E= -1351.69496133081     Delta-E=       -0.000000077294 Rises=F Damp=F
 DIIS: error= 2.24D-06 at cycle   4 NSaved=   4.
 NSaved= 4 IEnMin= 4 EnMin= -1351.69496133081     IErMin= 4 ErrMin= 2.24D-06
 ErrMax= 2.24D-06  0.00D+00 EMaxC= 1.00D-01 BMatC= 2.23D-09 BMatP= 9.57D-08
 IDIUse=1 WtCom= 1.00D+00 WtEn= 0.00D+00
 Coeff-Com:  0.643D-03-0.572D-01 0.817D-01 0.975D+00
 Coeff:      0.643D-03-0.572D-01 0.817D-01 0.975D+00
 Gap=     0.428 Goal=   None    Shift=    0.000
 RMSDP=5.78D-07 MaxDP=1.03D-05 DE=-7.73D-08 OVMax= 2.61D-05

 Cycle   5  Pass 1  IDiag  1:
 E= -1351.69496133369     Delta-E=       -0.000000002882 Rises=F Damp=F
 DIIS: error= 1.06D-06 at cycle   5 NSaved=   5.
 NSaved= 5 IEnMin= 5 EnMin= -1351.69496133369     IErMin= 5 ErrMin= 1.06D-06
 ErrMax= 1.06D-06  0.00D+00 EMaxC= 1.00D-01 BMatC= 4.07D-10 BMatP= 2.23D-09
 IDIUse=1 WtCom= 1.00D+00 WtEn= 0.00D+00
 Coeff-Com:  0.595D-02-0.619D-01 0.899D-02 0.447D+00 0.600D+00
 Coeff:      0.595D-02-0.619D-01 0.899D-02 0.447D+00 0.600D+00
 Gap=     0.428 Goal=   None    Shift=    0.000
 RMSDP=1.62D-07 MaxDP=2.85D-06 DE=-2.88D-09 OVMax= 6.14D-06

 Cycle   6  Pass 1  IDiag  1:
 E= -1351.69496133402     Delta-E=       -0.000000000327 Rises=F Damp=F
 DIIS: error= 3.53D-07 at cycle   6 NSaved=   6.
 NSaved= 6 IEnMin= 6 EnMin= -1351.69496133402     IErMin= 6 ErrMin= 3.53D-07
 ErrMax= 3.53D-07  0.00D+00 EMaxC= 1.00D-01 BMatC= 5.37D-11 BMatP= 4.07D-10
 IDIUse=1 WtCom= 1.00D+00 WtEn= 0.00D+00
 Coeff-Com:  0.262D-02-0.175D-01-0.147D-01 0.602D-02 0.259D+00 0.765D+00
 Coeff:      0.262D-02-0.175D-01-0.147D-01 0.602D-02 0.259D+00 0.765D+00
 Gap=     0.428 Goal=   None    Shift=    0.000
 RMSDP=8.99D-08 MaxDP=2.14D-06 DE=-3.27D-10 OVMax= 4.23D-06

 Cycle   7  Pass 1  IDiag  1:
 E= -1351.69496133407     Delta-E=       -0.000000000052 Rises=F Damp=F
 DIIS: error= 1.08D-07 at cycle   7 NSaved=   7.
 NSaved= 7 IEnMin= 7 EnMin= -1351.69496133407     IErMin= 7 ErrMin= 1.08D-07
 ErrMax= 1.08D-07  0.00D+00 EMaxC= 1.00D-01 BMatC= 3.67D-12 BMatP= 5.37D-11
 IDIUse=1 WtCom= 1.00D+00 WtEn= 0.00D+00
 Coeff-Com:  0.103D-03 0.179D-02-0.514D-02-0.474D-01 0.213D-02 0.213D+00
 Coeff-Com:  0.836D+00
 Coeff:      0.103D-03 0.179D-02-0.514D-02-0.474D-01 0.213D-02 0.213D+00
 Coeff:      0.836D+00
 Gap=     0.428 Goal=   None    Shift=    0.000
 RMSDP=3.31D-08 MaxDP=6.69D-07 DE=-5.18D-11 OVMax= 1.58D-06

 Cycle   8  Pass 1  IDiag  1:
 E= -1351.69496133408     Delta-E=       -0.000000000007 Rises=F Damp=F
 DIIS: error= 3.98D-08 at cycle   8 NSaved=   8.
 NSaved= 8 IEnMin= 8 EnMin= -1351.69496133408     IErMin= 8 ErrMin= 3.98D-08
 ErrMax= 3.98D-08  0.00D+00 EMaxC= 1.00D-01 BMatC= 8.98D-13 BMatP= 3.67D-12
 IDIUse=1 WtCom= 1.00D+00 WtEn= 0.00D+00
 Coeff-Com: -0.254D-03 0.288D-02-0.525D-03-0.222D-01-0.284D-01 0.798D-02
 Coeff-Com:  0.381D+00 0.659D+00
 Coeff:     -0.254D-03 0.288D-02-0.525D-03-0.222D-01-0.284D-01 0.798D-02
 Coeff:      0.381D+00 0.659D+00
 Gap=     0.428 Goal=   None    Shift=    0.000
 RMSDP=1.00D-08 MaxDP=1.80D-07 DE=-7.28D-12 OVMax= 4.54D-07

 Cycle   9  Pass 1  IDiag  1:
 E= -1351.69496133408     Delta-E=       -0.000000000007 Rises=F Damp=F
 DIIS: error= 1.84D-08 at cycle   9 NSaved=   9.
 NSaved= 9 IEnMin= 9 EnMin= -1351.69496133408     IErMin= 9 ErrMin= 1.84D-08
 ErrMax= 1.84D-08  0.00D+00 EMaxC= 1.00D-01 BMatC= 1.21D-13 BMatP= 8.98D-13
 IDIUse=1 WtCom= 1.00D+00 WtEn= 0.00D+00
 Coeff-Com: -0.122D-03 0.974D-03 0.528D-03-0.258D-02-0.121D-01-0.278D-01
 Coeff-Com:  0.424D-01 0.292D+00 0.706D+00
 Coeff:     -0.122D-03 0.974D-03 0.528D-03-0.258D-02-0.121D-01-0.278D-01
 Coeff:      0.424D-01 0.292D+00 0.706D+00
 Gap=     0.428 Goal=   None    Shift=    0.000
 RMSDP=3.88D-09 MaxDP=6.73D-08 DE=-7.28D-12 OVMax= 1.77D-07

 SCF Done:  E(RwB97XD) =  -1351.69496133     A.U. after    9 cycles
            NFock=  9  Conv=0.39D-08     -V/T= 2.0017
 KE= 1.349386587721D+03 PE=-4.766232229050D+03 EE= 1.293078799308D+03
 Leave Link  502 at Sat Sep 14 18:24:18 2024, MaxMem=  4294967296 cpu:             720.4 elap:              55.2
 (Enter /home/appl/Gaussian/g16/l701.exe)
 ... and contract with generalized density number  0.
 Compute integral first derivatives.
 R6Disp: Adding Grimme-D2 dispersion energy 1st derivatives to the gradient.
 Leave Link  701 at Sat Sep 14 18:24:34 2024, MaxMem=  4294967296 cpu:              50.3 elap:               3.0
 (Enter /home/appl/Gaussian/g16/l702.exe)
 L702 exits ... SP integral derivatives will be done elsewhere.
 Leave Link  702 at Sat Sep 14 18:24:35 2024, MaxMem=  4294967296 cpu:               2.1 elap:               0.2
 (Enter /home/appl/Gaussian/g16/l703.exe)
 Integral derivatives from FoFJK, PRISM(SPDF).
 Compute integral first derivatives, UseDBF=F ICtDFT=           0.
 Calling FoFJK, ICntrl=      2127 FMM=F ISym2X=0 I1Cent= 0 IOpClX= 0 NMat=1 NMatS=1 NMatT=0.
 FoFJK:  IHMeth= 1 ICntrl=    2127 DoSepK=T KAlg= 0 I1Cent=           0 FoldK=F
 IRaf=         1 NMat=       1 IRICut=       1 DoRegI=T DoRafI=F ISym2E= 0 IDoP0=0 IntGTp=1.
 FoFCou: FMM=F IPFlag=           0 FMFlag=      100000 FMFlg1=         800
         NFxFlg=           0 DoJE=F BraDBF=F KetDBF=F FulRan=T
         wScrn=  0.000000 ICntrl=      2527 IOpCl=  0 I1Cent=           0 NGrid=           0
         NMat0=    1 NMatS0=      1 NMatT0=    0 NMatD0=    1 NMtDS0=    0 NMtDT0=    0
 Symmetry not used in FoFCou.
 Leave Link  703 at Sat Sep 14 18:24:42 2024, MaxMem=  4294967296 cpu:             105.5 elap:               6.6
 (Enter /home/appl/Gaussian/g16/l716.exe)
 Dipole        = 2.68975137D-04 6.43322441D-04 9.50185133D-02
 ***** Axes restored to original set *****
 -------------------------------------------------------------------
 Center     Atomic                   Forces (Hartrees/Bohr)
 Number     Number              X              Y              Z
 -------------------------------------------------------------------
      1       16          -0.000062574    0.000035899   -0.000073955
      2        9           0.000014853   -0.000027583    0.000112751
      3        8           0.000086874   -0.000095242   -0.000068304
      4        8          -0.000017200    0.000012848   -0.000000636
      5        7          -0.000080279    0.000098533    0.000017619
      6       16           0.000051667   -0.000045902    0.000229390
      7        9           0.000030984   -0.000010752   -0.000131485
      8        8          -0.000001125   -0.000009789   -0.000037427
      9        8          -0.000023200    0.000041988   -0.000047951
 -------------------------------------------------------------------
 Cartesian Forces:  Max     0.000229390 RMS     0.000073140
 Leave Link  716 at Sat Sep 14 18:24:43 2024, MaxMem=  4294967296 cpu:               1.8 elap:               0.2
 (Enter /home/appl/Gaussian/g16/l103.exe)

 GradGradGradGradGradGradGradGradGradGradGradGradGradGradGradGradGradGrad
 Berny optimization.
 Using GEDIIS/GDIIS optimizer.
 FormGI is forming the generalized inverse of G from B-inverse, IUseBI=4.
 Internal  Forces:  Max     0.000146060 RMS     0.000055535
 Search for a local minimum.
 Step number  15 out of a maximum of  100
 All quantities printed in internal units (Hartrees-Bohrs-Radians)
 RMS Force = .55535D-04 SwitMx=.10000D-02 MixMth= 2
 Mixed Optimization -- En-DIIS/RFO-DIIS
 Swapping is turned off.
 Update second derivatives using D2CorX and points    3    4    5    6    7
                                                      8    9   10   11   12
                                                     13   14   15
 DE= -3.81D-07 DEPred=-2.78D-07 R= 1.37D+00
 Trust test= 1.37D+00 RLast= 5.08D-03 DXMaxT set to 8.49D-01
 ITU=  0  0  1  1  1  1  1  1  1  1  1  1  1  1  0
     Eigenvalues ---    0.00599   0.03699   0.17060   0.18548   0.19610
     Eigenvalues ---    0.20187   0.24042   0.24767   0.25244   0.26435
     Eigenvalues ---    0.26904   0.27617   0.37909   0.39705   0.41792
     Eigenvalues ---    0.66004   0.73972   0.81747   0.99012   1.16616
     Eigenvalues ---    1.19457
 En-DIIS/RFO-DIIS/Sim-DIIS IScMMF=       -3 using points:    15   14   13   12   11   10    9
 RFO step:  Lambda=-2.55572109D-07.
 NNeg= 0 NGDIIS= 7 SimSw=  2.50D-01 Rises=F DC= -3.81D-07 SmlDif=  1.00D-05
 NRisDI= 0 DoIntr=F SqrtH=F CThrHd= 10.0 CDAdj=  3.0
 RMS Error=  0.5734635675D-03 NUsed= 7 OKEnD=F EnDIS=F
 InvSVX:  RCond= 2.49D-09 Info=           0 Equed=N FErr=  1.12D-11 BErr=  8.29D-17
 DIIS inversion failure, remove point   7.
 InvSVX:  RCond= 4.56D-09 Info=           0 Equed=N FErr=  5.41D-12 BErr=  4.98D-17
 DIIS inversion failure, remove point   6.
 InvSVX:  RCond= 5.98D-09 Info=           0 Equed=N FErr=  4.09D-12 BErr=  2.39D-17
 DIIS inversion failure, remove point   5.
 InvSVX:  RCond= 8.59D-09 Info=           0 Equed=N FErr=  2.69D-12 BErr=  4.21D-17
 DIIS inversion failure, remove point   4.
 InvSVX:  RCond= 3.28D-08 Info=           0 Equed=N FErr=  4.75D-13 BErr=  2.48D-17
 DIIS inversion failure, remove point   3.
 InvSVX:  RCond= 6.45D-06 Info=           0 Equed=N FErr=  2.65D-15 BErr=  3.52D-17
 RFO-DIIS uses    2 points instead of    7
 DidBck=F Rises=F RFO-DIIS coefs:    1.57506   -0.57506    0.00000    0.00000    0.00000
                  RFO-DIIS coefs:    0.00000    0.00000
 Iteration  1 RMS(Cart)=  0.00064537 RMS(Int)=  0.00000023
 Iteration  2 RMS(Cart)=  0.00000043 RMS(Int)=  0.00000001
 ITry= 1 IFail=0 DXMaxC= 1.69D-03 DCOld= 1.00D+10 DXMaxT= 8.49D-01 DXLimC= 3.00D+00 Rises=F
 Variable       Old X    -DE/DX   Delta X   Delta X   Delta X     New X
                                 (Linear)    (Quad)   (Total)
    R1        3.10336  -0.00012  -0.00013  -0.00020  -0.00033   3.10303
    R2        2.72294  -0.00015  -0.00019  -0.00005  -0.00024   2.72270
    R3        2.71766  -0.00002   0.00011  -0.00013  -0.00002   2.71764
    R4        3.00001  -0.00007  -0.00000  -0.00012  -0.00012   2.99988
    R5        2.99998  -0.00005   0.00013  -0.00015  -0.00002   2.99997
    R6        3.10345  -0.00013  -0.00021  -0.00020  -0.00041   3.10304
    R7        2.71762   0.00002  -0.00010   0.00004  -0.00006   2.71756
    R8        2.72263   0.00006   0.00001   0.00007   0.00008   2.72270
    A1        1.80973  -0.00000   0.00009  -0.00003   0.00006   1.80980
    A2        1.80674  -0.00001  -0.00003  -0.00006  -0.00009   1.80665
    A3        1.78940   0.00003   0.00010   0.00008   0.00018   1.78957
    A4        2.08756  -0.00001   0.00003  -0.00007  -0.00004   2.08752
    A5        2.03136  -0.00002  -0.00007  -0.00003  -0.00010   2.03125
    A6        1.89549   0.00003  -0.00008   0.00012   0.00004   1.89553
    A7        2.15856   0.00009  -0.00001   0.00032   0.00031   2.15887
    A8        1.78944   0.00005  -0.00008   0.00014   0.00006   1.78950
    A9        1.89548   0.00000   0.00001   0.00005   0.00006   1.89554
   A10        2.03138  -0.00005  -0.00005  -0.00010  -0.00015   2.03122
   A11        1.80663   0.00003  -0.00009   0.00008  -0.00001   1.80663
   A12        1.80976   0.00000   0.00003  -0.00000   0.00003   1.80979
   A13        2.08758  -0.00001   0.00013  -0.00010   0.00003   2.08762
    D1       -1.32786   0.00001   0.00118  -0.00001   0.00116  -1.32669
    D2        0.63366   0.00002   0.00132  -0.00001   0.00130   0.63497
    D3        3.05094   0.00000   0.00119  -0.00002   0.00117   3.05212
    D4       -1.32505   0.00000  -0.00115   0.00002  -0.00113  -1.32618
    D5        3.05385  -0.00005  -0.00102  -0.00014  -0.00117   3.05268
    D6        0.63654   0.00002  -0.00119   0.00006  -0.00113   0.63541
         Item               Value     Threshold  Converged?
 Maximum Force            0.000146     0.000450     YES
 RMS     Force            0.000056     0.000300     YES
 Maximum Displacement     0.001688     0.001800     YES
 RMS     Displacement     0.000645     0.001200     YES
 Predicted change in Energy=-1.277869D-07
 Optimization completed.
    -- Stationary point found.
                           ----------------------------
                           !   Optimized Parameters   !
                           ! (Angstroms and Degrees)  !
 --------------------------                            --------------------------
 ! Name  Definition              Value          Derivative Info.                !
 --------------------------------------------------------------------------------
 ! R1    R(1,2)                  1.6422         -DE/DX =   -0.0001              !
 ! R2    R(1,3)                  1.4409         -DE/DX =   -0.0001              !
 ! R3    R(1,4)                  1.4381         -DE/DX =    0.0                 !
 ! R4    R(1,5)                  1.5875         -DE/DX =   -0.0001              !
 ! R5    R(5,6)                  1.5875         -DE/DX =   -0.0001              !
 ! R6    R(6,7)                  1.6423         -DE/DX =   -0.0001              !
 ! R7    R(6,8)                  1.4381         -DE/DX =    0.0                 !
 ! R8    R(6,9)                  1.4408         -DE/DX =    0.0001              !
 ! A1    A(2,1,3)              103.6901         -DE/DX =    0.0                 !
 ! A2    A(2,1,4)              103.5185         -DE/DX =    0.0                 !
 ! A3    A(2,1,5)              102.5249         -DE/DX =    0.0                 !
 ! A4    A(3,1,4)              119.6084         -DE/DX =    0.0                 !
 ! A5    A(3,1,5)              116.3881         -DE/DX =    0.0                 !
 ! A6    A(4,1,5)              108.6037         -DE/DX =    0.0                 !
 ! A7    A(1,5,6)              123.6766         -DE/DX =    0.0001              !
 ! A8    A(5,6,7)              102.5271         -DE/DX =    0.0                 !
 ! A9    A(5,6,8)              108.6028         -DE/DX =    0.0                 !
 ! A10   A(5,6,9)              116.3893         -DE/DX =    0.0                 !
 ! A11   A(7,6,8)              103.5126         -DE/DX =    0.0                 !
 ! A12   A(7,6,9)              103.6917         -DE/DX =    0.0                 !
 ! A13   A(8,6,9)              119.6097         -DE/DX =    0.0                 !
 ! D1    D(2,1,5,6)            -76.0805         -DE/DX =    0.0                 !
 ! D2    D(3,1,5,6)             36.3063         -DE/DX =    0.0                 !
 ! D3    D(4,1,5,6)            174.8061         -DE/DX =    0.0                 !
 ! D4    D(1,5,6,7)            -75.9198         -DE/DX =    0.0                 !
 ! D5    D(1,5,6,8)            174.9729         -DE/DX =   -0.0001              !
 ! D6    D(1,5,6,9)             36.4709         -DE/DX =    0.0                 !
 --------------------------------------------------------------------------------
 Lowest energy point so far.  Saving SCF results.
 Largest change from initial coordinates is atom    4       0.183 Angstoms.
 GradGradGradGradGradGradGradGradGradGradGradGradGradGradGradGradGradGrad

 Leave Link  103 at Sat Sep 14 18:24:52 2024, MaxMem=  4294967296 cpu:             104.1 elap:               8.8
 (Enter /home/appl/Gaussian/g16/l202.exe)
                          Input orientation:                          
 ---------------------------------------------------------------------
 Center     Atomic      Atomic             Coordinates (Angstroms)
 Number     Number       Type             X           Y           Z
 ---------------------------------------------------------------------
      1         16           0        0.981297    7.036295    5.178712
      2          9           0        0.815605    7.588563    3.641031
      3          8           0        0.127982    7.906477    5.947399
      4          8           0        2.402913    7.063371    5.394282
      5          7           0        0.516821    5.523433    5.053094
      6         16           0       -1.001281    5.076119    4.928570
      7          9           0       -1.551325    5.250644    6.466120
      8          8           0       -1.044675    3.654554    4.715495
      9          8           0       -1.861714    5.937920    4.158687
 ---------------------------------------------------------------------
                    Distance matrix (angstroms):
                    1          2          3          4          5
     1  S    0.000000
     2  F    1.642228   0.000000
     3  O    1.440918   2.427597   0.000000
     4  O    1.438122   2.422656   2.488389   0.000000
     5  N    1.587536   2.519515   2.574855   2.458691   0.000000
     6  S    2.799192   3.357262   3.213125   3.969206   1.587523
     7  F    3.355614   4.364556   3.184744   4.480046   2.519580
     8  O    3.969296   4.482359   4.579472   4.895575   2.458649
     9  O    3.213968   3.187574   3.321686   4.580435   2.574722
                    6          7          8          9
     6  S    0.000000
     7  F    1.642274   0.000000
     8  O    1.438100   2.422578   0.000000
     9  O    1.440752   2.427537   2.488243   0.000000
 Stoichiometry    F2NO4S2(1-)
 Framework group  C1[X(F2NO4S2)]
 Deg. of freedom    21
 Full point group                 C1      NOp   1
 RotChk:  IX=0 Diff= 1.09D-15
 Largest Abelian subgroup         C1      NOp   1
 Largest concise Abelian subgroup C1      NOp   1
                         Standard orientation:                         
 ---------------------------------------------------------------------
 Center     Atomic      Atomic             Coordinates (Angstroms)
 Number     Number       Type             X           Y           Z
 ---------------------------------------------------------------------
      1         16           0        1.391297   -0.151394   -0.086860
      2          9           0        1.690770    1.381143    0.421628
      3          8           0        1.381703   -0.919446    1.132258
      4          8           0        2.417047   -0.386883   -1.066950
      5          7           0        0.000003    0.000202   -0.836251
      6         16           0       -1.391466    0.151434   -0.087137
      7          9           0       -1.688962   -1.380514    0.424425
      8          8           0       -2.417535    0.383483   -1.067682
      9          8           0       -1.382913    0.921884    1.130279
 ---------------------------------------------------------------------
 Rotational constants (GHZ):           2.5247438           0.8791319           0.8622377
 Leave Link  202 at Sat Sep 14 18:24:54 2024, MaxMem=  4294967296 cpu:               4.5 elap:               0.5
 (Enter /home/appl/Gaussian/g16/l601.exe)
 Copying SCF densities to generalized density rwf, IOpCl= 0 IROHF=0.

 **********************************************************************

            Population analysis using the SCF Density.

 **********************************************************************

 Orbital symmetries:
       Occupied  (A) (A) (A) (A) (A) (A) (A) (A) (A) (A) (A) (A)
                 (A) (A) (A) (A) (A) (A) (A) (A) (A) (A) (A) (A)
                 (A) (A) (A) (A) (A) (A) (A) (A) (A) (A) (A) (A)
                 (A) (A) (A) (A) (A) (A) (A) (A) (A)
       Virtual   (A) (A) (A) (A) (A) (A) (A) (A) (A) (A) (A) (A)
                 (A) (A) (A) (A) (A) (A) (A) (A) (A) (A) (A) (A)
                 (A) (A) (A) (A) (A) (A) (A) (A) (A) (A) (A) (A)
                 (A) (A) (A) (A) (A) (A) (A) (A) (A) (A) (A) (A)
                 (A) (A) (A) (A) (A) (A) (A) (A) (A) (A) (A) (A)
                 (A) (A) (A) (A) (A) (A) (A) (A) (A) (A) (A) (A)
                 (A) (A) (A) (A) (A) (A) (A) (A) (A) (A) (A) (A)
                 (A) (A) (A) (A) (A) (A) (A) (A) (A) (A) (A) (A)
                 (A) (A) (A) (A) (A) (A) (A) (A) (A) (A) (A) (A)
                 (A) (A) (A) (A) (A) (A) (A) (A) (A) (A) (A) (A)
                 (A) (A) (A) (A) (A) (A) (A) (A) (A) (A) (A) (A)
                 (A) (A) (A) (A) (A) (A) (A) (A) (A) (A) (A) (A)
                 (A) (A) (A) (A) (A) (A) (A) (A) (A) (A) (A) (A)
                 (A) (A) (A) (A) (A) (A) (A) (A) (A) (A) (A) (A)
                 (A)
 The electronic state is 1-A.
 Alpha  occ. eigenvalues --  -89.14860 -89.14858 -24.68898 -24.68894 -19.12711
 Alpha  occ. eigenvalues --  -19.12709 -19.12586 -19.12585 -14.31815  -8.16013
 Alpha  occ. eigenvalues --   -8.16012  -6.11015  -6.11014  -6.10697  -6.10696
 Alpha  occ. eigenvalues --   -6.10648  -6.10647  -1.21530  -1.20941  -1.09749
 Alpha  occ. eigenvalues --   -1.08881  -1.00560  -1.00316  -0.90439  -0.68528
 Alpha  occ. eigenvalues --   -0.58233  -0.55372  -0.48353  -0.48350  -0.46440
 Alpha  occ. eigenvalues --   -0.44746  -0.41765  -0.40101  -0.39399  -0.39212
 Alpha  occ. eigenvalues --   -0.35613  -0.34221  -0.32970  -0.32555  -0.31528
 Alpha  occ. eigenvalues --   -0.28684  -0.27996  -0.27055  -0.24490  -0.24257
 Alpha virt. eigenvalues --    0.18590   0.20381   0.21203   0.21622   0.22075
 Alpha virt. eigenvalues --    0.23934   0.24021   0.24159   0.24816   0.26388
 Alpha virt. eigenvalues --    0.29199   0.31471   0.32498   0.32825   0.33974
 Alpha virt. eigenvalues --    0.35464   0.36196   0.39577   0.39915   0.40295
 Alpha virt. eigenvalues --    0.40437   0.42684   0.43397   0.44186   0.44518
 Alpha virt. eigenvalues --    0.45873   0.45935   0.47156   0.47492   0.48111
 Alpha virt. eigenvalues --    0.49206   0.49416   0.49939   0.50018   0.51395
 Alpha virt. eigenvalues --    0.52282   0.53311   0.54225   0.55903   0.58312
 Alpha virt. eigenvalues --    0.58662   0.59862   0.60113   0.62972   0.64041
 Alpha virt. eigenvalues --    0.64658   0.65964   0.68237   0.71750   0.74001
 Alpha virt. eigenvalues --    0.83859   0.85799   0.86977   0.88103   1.02232
 Alpha virt. eigenvalues --    1.07100   1.12217   1.13612   1.15213   1.17247
 Alpha virt. eigenvalues --    1.18029   1.21990   1.22976   1.25734   1.26907
 Alpha virt. eigenvalues --    1.30336   1.30898   1.31788   1.32808   1.34161
 Alpha virt. eigenvalues --    1.34687   1.35121   1.35681   1.37302   1.40057
 Alpha virt. eigenvalues --    1.42325   1.42681   1.50755   1.59079   1.59486
 Alpha virt. eigenvalues --    1.60319   1.64827   1.65442   1.66334   1.77532
 Alpha virt. eigenvalues --    1.78460   1.88640   1.90180   1.93828   1.96773
 Alpha virt. eigenvalues --    1.98220   2.06210   2.07467   2.11911   2.21557
 Alpha virt. eigenvalues --    2.26747   2.36741   2.39353   2.45003   2.78899
 Alpha virt. eigenvalues --    2.78930   3.02079   3.02768   3.03702   3.03947
 Alpha virt. eigenvalues --    3.04701   3.04911   3.07379   3.08326   3.09670
 Alpha virt. eigenvalues --    3.10374   3.20644   3.22447   3.22921   3.24059
 Alpha virt. eigenvalues --    3.34915   3.36867   3.67944   3.68826   3.79988
 Alpha virt. eigenvalues --    3.80863   3.97056   3.99190   4.00166   4.00827
 Alpha virt. eigenvalues --    4.02185   4.02897   4.06769   4.09683   4.12548
 Alpha virt. eigenvalues --    4.24296   4.32507   4.33767   4.46881   5.21067
 Alpha virt. eigenvalues --    5.21633   5.22828   5.23052   5.25013   5.25750
 Alpha virt. eigenvalues --    5.27812   5.30503   5.37685   5.40075   5.53707
 Alpha virt. eigenvalues --    5.53947   6.56684   6.57162   6.58165   6.59043
 Alpha virt. eigenvalues --    6.61243   6.65147   8.32264   8.39687  17.48821
 Alpha virt. eigenvalues --   17.50765  17.59555  17.66433  17.70555  17.76414
 Alpha virt. eigenvalues --   35.66134  50.11447  50.11576  50.15661  50.16700
 Alpha virt. eigenvalues --   67.05842  67.07958 189.49586 189.57845
          Condensed to atoms (all electrons):
               1          2          3          4          5          6
     1  S   15.435623   0.121630   0.213858  -0.062814  -0.305141   0.081439
     2  F    0.121630   9.224260  -0.007608  -0.088358  -0.037269  -0.052631
     3  O    0.213858  -0.007608   8.767763  -0.428064  -0.223081  -0.046413
     4  O   -0.062814  -0.088358  -0.428064   8.860988  -0.094585   0.063505
     5  N   -0.305141  -0.037269  -0.223081  -0.094585   9.013708  -0.304846
     6  S    0.081439  -0.052631  -0.046413   0.063505  -0.304846  15.435439
     7  F   -0.052628   0.001570   0.035743  -0.006504  -0.037420   0.121663
     8  O    0.063506  -0.006462   0.005126  -0.001869  -0.094935  -0.062489
     9  O   -0.046795   0.035691  -0.051329   0.005075  -0.222160   0.213004
               7          8          9
     1  S   -0.052628   0.063506  -0.046795
     2  F    0.001570  -0.006462   0.035691
     3  O    0.035743   0.005126  -0.051329
     4  O   -0.006504  -0.001869   0.005075
     5  N   -0.037420  -0.094935  -0.222160
     6  S    0.121663  -0.062489   0.213004
     7  F    9.224420  -0.088347  -0.007507
     8  O   -0.088347   8.861157  -0.428345
     9  O   -0.007507  -0.428345   8.768225
 Mulliken charges:
               1
     1  S    0.551323
     2  F   -0.190822
     3  O   -0.265995
     4  O   -0.247375
     5  N   -0.694269
     6  S    0.551329
     7  F   -0.190990
     8  O   -0.247342
     9  O   -0.265858
 Sum of Mulliken charges =  -1.00000
 Mulliken charges with hydrogens summed into heavy atoms:
               1
     1  S    0.551323
     2  F   -0.190822
     3  O   -0.265995
     4  O   -0.247375
     5  N   -0.694269
     6  S    0.551329
     7  F   -0.190990
     8  O   -0.247342
     9  O   -0.265858
 Electronic spatial extent (au):  <R**2>=           1371.4270
 Charge=             -1.0000 electrons
 Dipole moment (field-independent basis, Debye):
    X=              0.0007    Y=              0.0016    Z=              0.2415  Tot=              0.2415
 Quadrupole moment (field-independent basis, Debye-Ang):
   XX=            -86.9412   YY=            -70.5816   ZZ=            -75.7701
   XY=              2.4596   XZ=             -0.0024   YZ=             -0.0056
 Traceless Quadrupole moment (field-independent basis, Debye-Ang):
   XX=             -9.1769   YY=              7.1827   ZZ=              1.9942
   XY=              2.4596   XZ=             -0.0024   YZ=             -0.0056
 Octapole moment (field-independent basis, Debye-Ang**2):
  XXX=              0.0186  YYY=             -0.0128  ZZZ=              8.1886  XYY=             -0.0046
  XXY=              0.0166  XXZ=             17.1049  XZZ=              0.0055  YZZ=              0.0154
  YYZ=             -3.8915  XYZ=             -0.1398
 Hexadecapole moment (field-independent basis, Debye-Ang**3):
 XXXX=          -1196.3844 YYYY=           -258.4244 ZZZZ=           -284.1981 XXXY=             36.9150
 XXXZ=             -0.0480 YYYX=             13.0536 YYYZ=             -0.0242 ZZZX=             -0.0519
 ZZZY=             -0.0129 XXYY=           -239.1954 XXZZ=           -260.1347 YYZZ=            -92.1842
 XXYZ=             -0.0517 YYXZ=              0.0311 ZZXY=             17.8185
 N-N= 7.720718806877D+02 E-N=-4.766232226639D+03  KE= 1.349386587721D+03
 No NMR shielding tensors so no spin-rotation constants.
 Leave Link  601 at Sat Sep 14 18:24:57 2024, MaxMem=  4294967296 cpu:              50.0 elap:               3.0
 (Enter /home/appl/Gaussian/g16/l9999.exe)
 Unable to Open any file for archive entry.
 1\1\GINC-VODKA06\FOpt\RwB97XD\6-311++G(d,p)\F2N1O4S2(1-)\SASAKIRAK\14-
 Sep-2024\0\\#P wb97xd/6-311++g(d,p) opt(maxcycle=256)\\Gaussian input 
 prepared by ASE\\-1,1\S,0.981297325,7.0362950614,5.1787118496\F,0.8156
 054069,7.5885626242,3.6410314617\O,0.1279822369,7.9064770984,5.9473993
 182\O,2.4029134209,7.0633708158,5.3942821632\N,0.5168211915,5.52343311
 44,5.0530943305\S,-1.0012806635,5.0761188958,4.9285703816\F,-1.5513249
 148,5.2506437197,6.4661196034\O,-1.0446748956,3.654553639,4.7154947295
 \O,-1.8617143073,5.9379202312,4.1586873624\\Version=ES64L-G16RevC.01\S
 tate=1-A\HF=-1351.6949613\RMSD=3.876e-09\RMSF=7.314e-05\Dipole=-0.0666
 192,0.0677534,-0.0006022\Quadrupole=-2.7495876,-2.6553906,5.4049782,-4
 .1848883,-1.1375495,-1.1213179\PG=C01 [X(F2N1O4S2)]\\@
 The archive entry for this job was punched.


 IT IS BETTER TO THINK YOU ARE HALF DRY THAN TO KNOW YOU
 ARE ALL WET.  -- SNOOPY
 Job cpu time:       0 days  7 hours 10 minutes 29.5 seconds.
 Elapsed time:       0 days  0 hours 31 minutes 13.9 seconds.
 File lengths (MBytes):  RWF=     22 Int=      0 D2E=      0 Chk=      4 Scr=      1
 Normal termination of Gaussian 16 at Sat Sep 14 18:24:58 2024.
