 Entering Gaussian System, Link 0=g16
 Initial command:
 /home/appl/Gaussian/g16/l1.exe "/scr/Gau-139337.inp" -scrdir="/scr/"
 Entering Link 1 = /home/appl/Gaussian/g16/l1.exe PID=    139338.
  
 Copyright (c) 1988-2019, Gaussian, Inc.  All Rights Reserved.
  
 This is part of the Gaussian(R) 16 program.  It is based on
 the Gaussian(R) 09 system (copyright 2009, Gaussian, Inc.),
 the Gaussian(R) 03 system (copyright 2003, Gaussian, Inc.),
 the Gaussian(R) 98 system (copyright 1998, Gaussian, Inc.),
 the Gaussian(R) 94 system (copyright 1995, Gaussian, Inc.),
 the Gaussian 92(TM) system (copyright 1992, Gaussian, Inc.),
 the Gaussian 90(TM) system (copyright 1990, Gaussian, Inc.),
 the Gaussian 88(TM) system (copyright 1988, Gaussian, Inc.),
 the Gaussian 86(TM) system (copyright 1986, Carnegie Mellon
 University), and the Gaussian 82(TM) system (copyright 1983,
 Carnegie Mellon University). Gaussian is a federally registered
 trademark of Gaussian, Inc.
  
 This software contains proprietary and confidential information,
 including trade secrets, belonging to Gaussian, Inc.
  
 This software is provided under written license and may be
 used, copied, transmitted, or stored only in accord with that
 written license.
  
 The following legend is applicable only to US Government
 contracts under FAR:
  
                    RESTRICTED RIGHTS LEGEND
  
 Use, reproduction and disclosure by the US Government is
 subject to restrictions as set forth in subparagraphs (a)
 and (c) of the Commercial Computer Software - Restricted
 Rights clause in FAR 52.227-19.
  
 Gaussian, Inc.
 340 Quinnipiac St., Bldg. 40, Wallingford CT 06492
  
  
 ---------------------------------------------------------------
 Warning -- This program may not be used in any manner that
 competes with the business of Gaussian, Inc. or will provide
 assistance to any competitor of Gaussian, Inc.  The licensee
 of this program is prohibited from giving any competitor of
 Gaussian, Inc. access to this program.  By using this program,
 the user acknowledges that Gaussian, Inc. is engaged in the
 business of creating and licensing software in the field of
 computational chemistry and represents and warrants to the
 licensee that it is not a competitor of Gaussian, Inc. and that
 it will not use this program in any manner prohibited above.
 ---------------------------------------------------------------
  

 Cite this work as:
 Gaussian 16, Revision C.01,
 M. J. Frisch, G. W. Trucks, H. B. Schlegel, G. E. Scuseria, 
 M. A. Robb, J. R. Cheeseman, G. Scalmani, V. Barone, 
 G. A. Petersson, H. Nakatsuji, X. Li, M. Caricato, A. V. Marenich, 
 J. Bloino, B. G. Janesko, R. Gomperts, B. Mennucci, H. P. Hratchian, 
 J. V. Ortiz, A. F. Izmaylov, J. L. Sonnenberg, D. Williams-Young, 
 F. Ding, F. Lipparini, F. Egidi, J. Goings, B. Peng, A. Petrone, 
 T. Henderson, D. Ranasinghe, V. G. Zakrzewski, J. Gao, N. Rega, 
 G. Zheng, W. Liang, M. Hada, M. Ehara, K. Toyota, R. Fukuda, 
 J. Hasegawa, M. Ishida, T. Nakajima, Y. Honda, O. Kitao, H. Nakai, 
 T. Vreven, K. Throssell, J. A. Montgomery, Jr., J. E. Peralta, 
 F. Ogliaro, M. J. Bearpark, J. J. Heyd, E. N. Brothers, K. N. Kudin, 
 V. N. Staroverov, T. A. Keith, R. Kobayashi, J. Normand, 
 K. Raghavachari, A. P. Rendell, J. C. Burant, S. S. Iyengar, 
 J. Tomasi, M. Cossi, J. M. Millam, M. Klene, C. Adamo, R. Cammi, 
 J. W. Ochterski, R. L. Martin, K. Morokuma, O. Farkas, 
 J. B. Foresman, and D. J. Fox, Gaussian, Inc., Wallingford CT, 2019.
 
 ******************************************
 Gaussian 16:  ES64L-G16RevC.01  3-Jul-2019
                14-Sep-2024 
 ******************************************
 %mem=32GB
 %nprocshared=40
 Will use up to   40 processors via shared memory.
 -----------------------------------------
 #P wb97xd/6-311++g(d,p) opt(maxcycle=256)
 -----------------------------------------
 1/6=256,18=20,19=15,26=3,38=1/1,3;
 2/9=110,12=2,17=6,18=5,40=1/2;
 3/5=4,6=6,7=1111,11=2,25=1,30=1,71=1,74=-58/1,2,3;
 4//1;
 5/5=2,38=5/2;
 6/7=2,8=2,9=2,10=2,28=1/1;
 7//1,2,3,16;
 1/6=256,18=20,19=15,26=3/3(2);
 2/9=110/2;
 99//99;
 2/9=110/2;
 3/5=4,6=6,7=1111,11=2,25=1,30=1,71=1,74=-58/1,2,3;
 4/5=5,16=3,69=1/1;
 5/5=2,38=5/2;
 7//1,2,3,16;
 1/6=256,18=20,19=15,26=3/3(-5);
 2/9=110/2;
 6/7=2,8=2,9=2,10=2,19=2,28=1/1;
 99/9=1/99;
 Leave Link    1 at Sat Sep 14 17:13:46 2024, MaxMem=  4294967296 cpu:              13.8 elap:               0.8
 (Enter /home/appl/Gaussian/g16/l101.exe)
 ------------------------------
 Gaussian input prepared by ASE
 ------------------------------
 Symbolic Z-matrix:
 Charge = -1 Multiplicity = 1
 S                     6.94558   11.13253   4.90625 
 F                     7.4499    11.34296   6.4093 
 O                     7.77644   12.04562   4.26784 
 O                     7.03024   9.91345   4.55437 
 N                     5.52575   11.57275   5.0269 
 S                     5.08553   12.99258   5.14755 
 F                     5.29596   13.4969   3.6445 
 O                     3.86645   13.07724   5.49943 
 O                     5.99862   13.82344   5.78596 
 
 ITRead=  0  0  0  0  0  0  0  0  0
 MicOpt= -1 -1 -1 -1 -1 -1 -1 -1 -1
 NAtoms=      9 NQM=        9 NQMF=       0 NMMI=      0 NMMIF=      0
                NMic=       0 NMicF=      0.
                    Isotopes and Nuclear Properties:
 (Nuclear quadrupole moments (NQMom) in fm**2, nuclear magnetic moments (NMagM)
  in nuclear magnetons)

  Atom         1           2           3           4           5           6           7           8           9
 IAtWgt=          32          19          16          16          14          32          19          16          16
 AtmWgt=  31.9720718  18.9984032  15.9949146  15.9949146  14.0030740  31.9720718  18.9984032  15.9949146  15.9949146
 NucSpn=           0           1           0           0           2           0           1           0           0
 AtZEff=  -0.0000000  -0.0000000  -0.0000000  -0.0000000  -0.0000000  -0.0000000  -0.0000000  -0.0000000  -0.0000000
 NQMom=    0.0000000   0.0000000   0.0000000   0.0000000   2.0440000   0.0000000   0.0000000   0.0000000   0.0000000
 NMagM=    0.0000000   2.6288670   0.0000000   0.0000000   0.4037610   0.0000000   2.6288670   0.0000000   0.0000000
 AtZNuc=  16.0000000   9.0000000   8.0000000   8.0000000   7.0000000  16.0000000   9.0000000   8.0000000   8.0000000
 Leave Link  101 at Sat Sep 14 17:13:54 2024, MaxMem=  4294967296 cpu:             149.0 elap:               8.9
 (Enter /home/appl/Gaussian/g16/l103.exe)

 GradGradGradGradGradGradGradGradGradGradGradGradGradGradGradGradGradGrad
 Berny optimization.
 Initialization pass.
                           ----------------------------
                           !    Initial Parameters    !
                           ! (Angstroms and Degrees)  !
 --------------------------                            --------------------------
 ! Name  Definition              Value          Derivative Info.                !
 --------------------------------------------------------------------------------
 ! R1    R(1,2)                  1.5993         estimate D2E/DX2                !
 ! R2    R(1,3)                  1.3898         estimate D2E/DX2                !
 ! R3    R(1,4)                  1.2717         estimate D2E/DX2                !
 ! R4    R(1,5)                  1.4914         estimate D2E/DX2                !
 ! R5    R(5,6)                  1.4914         estimate D2E/DX2                !
 ! R6    R(6,7)                  1.5993         estimate D2E/DX2                !
 ! R7    R(6,8)                  1.2717         estimate D2E/DX2                !
 ! R8    R(6,9)                  1.3898         estimate D2E/DX2                !
 ! A1    A(2,1,3)               99.0178         estimate D2E/DX2                !
 ! A2    A(2,1,4)              111.42           estimate D2E/DX2                !
 ! A3    A(2,1,5)              100.6811         estimate D2E/DX2                !
 ! A4    A(3,1,4)              117.5749         estimate D2E/DX2                !
 ! A5    A(3,1,5)              114.353          estimate D2E/DX2                !
 ! A6    A(4,1,5)              111.6372         estimate D2E/DX2                !
 ! A7    A(1,5,6)              124.6499         estimate D2E/DX2                !
 ! A8    A(5,6,7)              100.6811         estimate D2E/DX2                !
 ! A9    A(5,6,8)              111.6372         estimate D2E/DX2                !
 ! A10   A(5,6,9)              114.353          estimate D2E/DX2                !
 ! A11   A(7,6,8)              111.42           estimate D2E/DX2                !
 ! A12   A(7,6,9)               99.0178         estimate D2E/DX2                !
 ! A13   A(8,6,9)              117.5749         estimate D2E/DX2                !
 ! D1    D(2,1,5,6)             74.6796         estimate D2E/DX2                !
 ! D2    D(3,1,5,6)            -30.4175         estimate D2E/DX2                !
 ! D3    D(4,1,5,6)           -166.9852         estimate D2E/DX2                !
 ! D4    D(1,5,6,7)             74.6796         estimate D2E/DX2                !
 ! D5    D(1,5,6,8)           -166.9852         estimate D2E/DX2                !
 ! D6    D(1,5,6,9)            -30.4175         estimate D2E/DX2                !
 --------------------------------------------------------------------------------
 Trust Radius=3.00D-01 FncErr=1.00D-07 GrdErr=1.00D-06 EigMax=2.50D+02 EigMin=1.00D-04
 Number of steps in this run=    100 maximum allowed number of steps=    100.
 GradGradGradGradGradGradGradGradGradGradGradGradGradGradGradGradGradGrad

 Leave Link  103 at Sat Sep 14 17:14:02 2024, MaxMem=  4294967296 cpu:               2.7 elap:               0.6
 (Enter /home/appl/Gaussian/g16/l202.exe)
                          Input orientation:                          
 ---------------------------------------------------------------------
 Center     Atomic      Atomic             Coordinates (Angstroms)
 Number     Number       Type             X           Y           Z
 ---------------------------------------------------------------------
      1         16           0        6.945584   11.132527    4.906254
      2          9           0        7.449904   11.342963    6.409298
      3          8           0        7.776442   12.045624    4.267838
      4          8           0        7.030242    9.913452    4.554371
      5          7           0        5.525749   11.572749    5.026900
      6         16           0        5.085527   12.992584    5.147546
      7          9           0        5.295963   13.496904    3.644503
      8          8           0        3.866452   13.077242    5.499429
      9          8           0        5.998624   13.823442    5.785962
 ---------------------------------------------------------------------
                    Distance matrix (angstroms):
                    1          2          3          4          5
     1  S    0.000000
     2  F    1.599300   0.000000
     3  O    1.389837   2.277325   0.000000
     4  O    1.271665   2.379153   2.277076   0.000000
     5  N    1.491403   2.380378   2.421860   2.289116   0.000000
     6  S    2.641561   3.146990   2.985237   3.689828   1.491403
     7  F    3.146990   4.113760   2.940670   4.083714   2.380378
     8  O    3.689828   4.083714   4.227183   4.572994   2.289116
     9  O    2.985237   2.940670   2.937001   4.227183   2.421860
                    6          7          8          9
     6  S    0.000000
     7  F    1.599300   0.000000
     8  O    1.271665   2.379153   0.000000
     9  O    1.389837   2.277325   2.277076   0.000000
 Stoichiometry    F2NO4S2(1-)
 Framework group  C2[C2(N),X(F2O4S2)]
 Deg. of freedom    11
 Full point group                 C2      NOp   2
 Largest Abelian subgroup         C2      NOp   2
 Largest concise Abelian subgroup C2      NOp   2
                         Standard orientation:                         
 ---------------------------------------------------------------------
 Center     Atomic      Atomic             Coordinates (Angstroms)
 Number     Number       Type             X           Y           Z
 ---------------------------------------------------------------------
      1         16           0        0.000000    1.320781    0.125221
      2          9           0       -1.515741    1.390425   -0.380188
      3          8           0        0.641059    1.321188   -1.107942
      4          8           0        0.266204    2.270948    0.927375
      5          7           0        0.000000    0.000000    0.817912
      6         16           0       -0.000000   -1.320781    0.125221
      7          9           0        1.515741   -1.390425   -0.380188
      8          8           0       -0.266204   -2.270948    0.927375
      9          8           0       -0.641059   -1.321188   -1.107942
 ---------------------------------------------------------------------
 Rotational constants (GHZ):           2.7820028           1.0268716           0.9937956
 Leave Link  202 at Sat Sep 14 17:14:03 2024, MaxMem=  4294967296 cpu:               5.4 elap:               0.5
 (Enter /home/appl/Gaussian/g16/l301.exe)
 Standard basis: 6-311++G(d,p) (5D, 7F)
 Ernie: Thresh=  0.10000D-02 Tol=  0.10000D-05 Strict=F.
 There are   113 symmetry adapted cartesian basis functions of A   symmetry.
 There are   110 symmetry adapted cartesian basis functions of B   symmetry.
 There are   108 symmetry adapted basis functions of A   symmetry.
 There are   106 symmetry adapted basis functions of B   symmetry.
   214 basis functions,   352 primitive gaussians,   223 cartesian basis functions
    45 alpha electrons       45 beta electrons
       nuclear repulsion energy       824.1428089363 Hartrees.
 IExCor= 4639 DFT=T Ex+Corr=wB97XD ExCW=0 ScaHFX=  1.000000
 ScaDFX=  1.000000  1.000000  1.000000  1.000000 ScalE2=  1.000000  1.000000
 IRadAn=      5 IRanWt=     -1 IRanGd=            0 ICorTp=0 IEmpDi=121
 HFx  wShort=  0.000000 wLong=  0.200000 cFull=  0.222036 cShort=  0.000000 cLong=  0.777964
 DFx  wShort=  0.000000 wLong=  0.200000 cFull=  0.000000 cShort=  0.000000 cLong=  1.000000
 NAtoms=    9 NActive=    9 NUniq=    5 SFac= 3.24D+00 NAtFMM=   60 NAOKFM=F Big=F
 Integral buffers will be    131072 words long.
 Raffenetti 2 integral format.
 Two-electron integral symmetry is turned on.
 R6Disp:  Grimme-D2 Dispersion energy=       -0.0026088553 Hartrees.
 Nuclear repulsion after empirical dispersion term =      824.1402000810 Hartrees.
 Leave Link  301 at Sat Sep 14 17:14:04 2024, MaxMem=  4294967296 cpu:               4.5 elap:               0.3
 (Enter /home/appl/Gaussian/g16/l302.exe)
 NPDir=0 NMtPBC=     1 NCelOv=     1 NCel=       1 NClECP=     1 NCelD=      1
         NCelK=      1 NCelE2=     1 NClLst=     1 CellRange=     0.0.
 One-electron integrals computed using PRISM.
 One-electron integral symmetry used in STVInt
 NBasis=   214 RedAO= T EigKep=  9.63D-05  NBF=   108   106
 NBsUse=   214 1.00D-06 EigRej= -1.00D+00 NBFU=   108   106
 Precomputing XC quadrature grid using
 IXCGrd= 4 IRadAn=           5 IRanWt=          -1 IRanGd=           0 AccXCQ= 0.00D+00.
 Generated NRdTot=       0 NPtTot=           0 NUsed=           0 NTot=          32
 NSgBfM=   223   223   223   223   223 MxSgAt=     9 MxSgA2=     9.
 Leave Link  302 at Sat Sep 14 17:14:15 2024, MaxMem=  4294967296 cpu:             190.0 elap:              10.0
 (Enter /home/appl/Gaussian/g16/l303.exe)
 DipDrv:  MaxL=1.
 Leave Link  303 at Sat Sep 14 17:14:17 2024, MaxMem=  4294967296 cpu:              16.4 elap:               1.0
 (Enter /home/appl/Gaussian/g16/l401.exe)
 ExpMin= 4.05D-02 ExpMax= 9.34D+04 ExpMxC= 3.17D+03 IAcc=3 IRadAn=         5 AccDes= 0.00D+00
 Harris functional with IExCor= 4639 and IRadAn=       5 diagonalized for initial guess.
 HarFok:  IExCor= 4639 AccDes= 0.00D+00 IRadAn=         5 IDoV= 1 UseB2=F ITyADJ=14
 ICtDFT=  3500011 ScaDFX=  1.000000  1.000000  1.000000  1.000000
 FoFCou: FMM=F IPFlag=           0 FMFlag=      100000 FMFlg1=           0
         NFxFlg=           0 DoJE=T BraDBF=F KetDBF=T FulRan=T
         wScrn=  0.000000 ICntrl=       500 IOpCl=  0 I1Cent=   200000004 NGrid=           0
         NMat0=    1 NMatS0=      1 NMatT0=    0 NMatD0=    1 NMtDS0=    0 NMtDT0=    0
 Petite list used in FoFCou.
 Harris En= -1319.59237081670    
 JPrj=0 DoOrth=F DoCkMO=F.
 Initial guess orbital symmetries:
       Occupied  (B) (A) (A) (B) (B) (A) (A) (B) (A) (A) (B) (B)
                 (A) (B) (A) (B) (A) (A) (B) (A) (B) (A) (B) (A)
                 (B) (A) (B) (B) (A) (A) (B) (A) (A) (B) (B) (A)
                 (A) (B) (B) (A) (B) (A) (B) (A) (B)
       Virtual   (A) (B) (B) (A) (A) (B) (A) (B) (B) (A) (A) (A)
                 (B) (B) (A) (B) (B) (A) (A) (B) (A) (B) (A) (B)
                 (A) (A) (B) (A) (B) (A) (B) (A) (B) (A) (A) (B)
                 (B) (A) (B) (B) (A) (A) (B) (B) (A) (B) (A) (B)
                 (B) (A) (B) (A) (B) (A) (A) (B) (B) (A) (B) (B)
                 (A) (A) (B) (A) (B) (A) (B) (A) (A) (B) (B) (A)
                 (B) (B) (A) (A) (A) (B) (B) (A) (B) (A) (B) (A)
                 (A) (B) (B) (A) (A) (B) (A) (A) (B) (B) (A) (B)
                 (B) (A) (A) (B) (A) (A) (B) (B) (A) (B) (A) (B)
                 (B) (A) (A) (B) (A) (B) (A) (B) (A) (B) (A) (B)
                 (A) (B) (A) (B) (A) (B) (A) (A) (B) (B) (A) (A)
                 (B) (B) (A) (B) (A) (A) (B) (B) (B) (A) (A) (B)
                 (A) (B) (A) (B) (B) (A) (A) (B) (A) (B) (A) (B)
                 (A) (B) (A) (B) (A) (A) (B) (B) (A) (B) (A) (A)
                 (B)
 The electronic state of the initial guess is 1-A.
 Leave Link  401 at Sat Sep 14 17:14:26 2024, MaxMem=  4294967296 cpu:             142.4 elap:               8.9
 (Enter /home/appl/Gaussian/g16/l502.exe)
 Keep R1 ints in memory in symmetry-blocked form, NReq=793946642.
 FoFCou: FMM=F IPFlag=           0 FMFlag=           0 FMFlg1=           0
         NFxFlg=           0 DoJE=F BraDBF=F KetDBF=F FulRan=T
         wScrn=  0.000000 ICntrl=       600 IOpCl=  0 I1Cent=           0 NGrid=           0
         NMat0=    1 NMatS0=  23005 NMatT0=    0 NMatD0=    1 NMtDS0=    0 NMtDT0=    0
 Petite list used in FoFCou.
 Closed shell SCF:
 Using DIIS extrapolation, IDIIS=  1040.
 NGot=  4294967296 LenX=  4162486518 LenY=  4162436348
 Requested convergence on RMS density matrix=1.00D-08 within 128 cycles.
 Requested convergence on MAX density matrix=1.00D-06.
 Requested convergence on             energy=1.00D-06.
 No special actions if energy rises.

 Cycle   1  Pass 1  IDiag  1:
 E= -1351.04191601695    
 DIIS: error= 1.45D-01 at cycle   1 NSaved=   1.
 NSaved= 1 IEnMin= 1 EnMin= -1351.04191601695     IErMin= 1 ErrMin= 1.45D-01
 ErrMax= 1.45D-01  0.00D+00 EMaxC= 1.00D-01 BMatC= 3.74D+00 BMatP= 3.74D+00
 IDIUse=3 WtCom= 0.00D+00 WtEn= 1.00D+00
 Coeff-Com:  0.100D+01
 Coeff-En:   0.100D+01
 Coeff:      0.100D+01
 Gap=     0.444 Goal=   None    Shift=    0.000
 GapD=    0.444 DampG=2.000 DampE=0.250 DampFc=0.5000 IDamp=-1.
 Damping current iteration by 5.00D-01
 RMSDP=9.12D-03 MaxDP=3.45D-01              OVMax= 1.83D-01

 Cycle   2  Pass 1  IDiag  1:
 E= -1351.29426961990     Delta-E=       -0.252353602946 Rises=F Damp=T
 DIIS: error= 5.49D-02 at cycle   2 NSaved=   2.
 NSaved= 2 IEnMin= 2 EnMin= -1351.29426961990     IErMin= 2 ErrMin= 5.49D-02
 ErrMax= 5.49D-02  0.00D+00 EMaxC= 1.00D-01 BMatC= 5.67D-01 BMatP= 3.74D+00
 IDIUse=3 WtCom= 4.51D-01 WtEn= 5.49D-01
 Coeff-Com: -0.423D+00 0.142D+01
 Coeff-En:   0.000D+00 0.100D+01
 Coeff:     -0.191D+00 0.119D+01
 Gap=     0.532 Goal=   None    Shift=    0.000
 RMSDP=4.10D-03 MaxDP=1.85D-01 DE=-2.52D-01 OVMax= 1.03D-01

 Cycle   3  Pass 1  IDiag  1:
 E= -1351.51347892124     Delta-E=       -0.219209301339 Rises=F Damp=F
 DIIS: error= 1.53D-02 at cycle   3 NSaved=   3.
 NSaved= 3 IEnMin= 3 EnMin= -1351.51347892124     IErMin= 3 ErrMin= 1.53D-02
 ErrMax= 1.53D-02  0.00D+00 EMaxC= 1.00D-01 BMatC= 7.63D-02 BMatP= 5.67D-01
 IDIUse=3 WtCom= 8.47D-01 WtEn= 1.53D-01
 Coeff-Com: -0.182D+00 0.501D+00 0.681D+00
 Coeff-En:   0.000D+00 0.000D+00 0.100D+01
 Coeff:     -0.154D+00 0.424D+00 0.730D+00
 Gap=     0.407 Goal=   None    Shift=    0.000
 RMSDP=2.55D-03 MaxDP=9.08D-02 DE=-2.19D-01 OVMax= 4.10D-02

 Cycle   4  Pass 1  IDiag  1:
 E= -1351.54985867260     Delta-E=       -0.036379751367 Rises=F Damp=F
 DIIS: error= 5.59D-03 at cycle   4 NSaved=   4.
 NSaved= 4 IEnMin= 4 EnMin= -1351.54985867260     IErMin= 4 ErrMin= 5.59D-03
 ErrMax= 5.59D-03  0.00D+00 EMaxC= 1.00D-01 BMatC= 1.20D-02 BMatP= 7.63D-02
 IDIUse=3 WtCom= 9.44D-01 WtEn= 5.59D-02
 Coeff-Com: -0.288D-01 0.717D-01 0.317D+00 0.640D+00
 Coeff-En:   0.000D+00 0.000D+00 0.104D+00 0.896D+00
 Coeff:     -0.272D-01 0.677D-01 0.305D+00 0.654D+00
 Gap=     0.416 Goal=   None    Shift=    0.000
 RMSDP=8.10D-04 MaxDP=2.69D-02 DE=-3.64D-02 OVMax= 1.31D-02

 Cycle   5  Pass 1  IDiag  1:
 E= -1351.55653534207     Delta-E=       -0.006676669463 Rises=F Damp=F
 DIIS: error= 1.06D-03 at cycle   5 NSaved=   5.
 NSaved= 5 IEnMin= 5 EnMin= -1351.55653534207     IErMin= 5 ErrMin= 1.06D-03
 ErrMax= 1.06D-03  0.00D+00 EMaxC= 1.00D-01 BMatC= 3.26D-04 BMatP= 1.20D-02
 IDIUse=3 WtCom= 9.89D-01 WtEn= 1.06D-02
 Coeff-Com: -0.541D-02 0.123D-01 0.108D+00 0.289D+00 0.597D+00
 Coeff-En:   0.000D+00 0.000D+00 0.000D+00 0.000D+00 0.100D+01
 Coeff:     -0.535D-02 0.122D-01 0.107D+00 0.286D+00 0.601D+00
 Gap=     0.415 Goal=   None    Shift=    0.000
 RMSDP=1.69D-04 MaxDP=4.76D-03 DE=-6.68D-03 OVMax= 3.65D-03

 Cycle   6  Pass 1  IDiag  1:
 E= -1351.55675176020     Delta-E=       -0.000216418138 Rises=F Damp=F
 DIIS: error= 2.93D-04 at cycle   6 NSaved=   6.
 NSaved= 6 IEnMin= 6 EnMin= -1351.55675176020     IErMin= 6 ErrMin= 2.93D-04
 ErrMax= 2.93D-04  0.00D+00 EMaxC= 1.00D-01 BMatC= 2.09D-05 BMatP= 3.26D-04
 IDIUse=3 WtCom= 9.97D-01 WtEn= 2.93D-03
 Coeff-Com: -0.835D-04-0.956D-04 0.209D-01 0.720D-01 0.263D+00 0.645D+00
 Coeff-En:   0.000D+00 0.000D+00 0.000D+00 0.000D+00 0.000D+00 0.100D+01
 Coeff:     -0.833D-04-0.953D-04 0.208D-01 0.718D-01 0.262D+00 0.646D+00
 Gap=     0.414 Goal=   None    Shift=    0.000
 RMSDP=5.38D-05 MaxDP=1.67D-03 DE=-2.16D-04 OVMax= 7.86D-04

 Cycle   7  Pass 1  IDiag  1:
 E= -1351.55676696342     Delta-E=       -0.000015203219 Rises=F Damp=F
 DIIS: error= 8.22D-05 at cycle   7 NSaved=   7.
 NSaved= 7 IEnMin= 7 EnMin= -1351.55676696342     IErMin= 7 ErrMin= 8.22D-05
 ErrMax= 8.22D-05  0.00D+00 EMaxC= 1.00D-01 BMatC= 2.00D-06 BMatP= 2.09D-05
 IDIUse=1 WtCom= 1.00D+00 WtEn= 0.00D+00
 Coeff-Com:  0.807D-03-0.195D-02-0.984D-02-0.198D-01 0.102D-01 0.233D+00
 Coeff-Com:  0.788D+00
 Coeff:      0.807D-03-0.195D-02-0.984D-02-0.198D-01 0.102D-01 0.233D+00
 Coeff:      0.788D+00
 Gap=     0.414 Goal=   None    Shift=    0.000
 RMSDP=1.47D-05 MaxDP=3.57D-04 DE=-1.52D-05 OVMax= 2.65D-04

 Cycle   8  Pass 1  IDiag  1:
 E= -1351.55676845122     Delta-E=       -0.000001487801 Rises=F Damp=F
 DIIS: error= 3.40D-05 at cycle   8 NSaved=   8.
 NSaved= 8 IEnMin= 8 EnMin= -1351.55676845122     IErMin= 8 ErrMin= 3.40D-05
 ErrMax= 3.40D-05  0.00D+00 EMaxC= 1.00D-01 BMatC= 3.02D-07 BMatP= 2.00D-06
 IDIUse=1 WtCom= 1.00D+00 WtEn= 0.00D+00
 Coeff-Com:  0.318D-03-0.748D-03-0.649D-02-0.165D-01-0.231D-01 0.348D-01
 Coeff-Com:  0.362D+00 0.650D+00
 Coeff:      0.318D-03-0.748D-03-0.649D-02-0.165D-01-0.231D-01 0.348D-01
 Coeff:      0.362D+00 0.650D+00
 Gap=     0.414 Goal=   None    Shift=    0.000
 RMSDP=5.47D-06 MaxDP=1.89D-04 DE=-1.49D-06 OVMax= 8.66D-05

 Cycle   9  Pass 1  IDiag  1:
 E= -1351.55676866941     Delta-E=       -0.000000218184 Rises=F Damp=F
 DIIS: error= 2.40D-06 at cycle   9 NSaved=   9.
 NSaved= 9 IEnMin= 9 EnMin= -1351.55676866941     IErMin= 9 ErrMin= 2.40D-06
 ErrMax= 2.40D-06  0.00D+00 EMaxC= 1.00D-01 BMatC= 2.37D-09 BMatP= 3.02D-07
 IDIUse=1 WtCom= 1.00D+00 WtEn= 0.00D+00
 Coeff-Com: -0.346D-04 0.823D-04 0.262D-03 0.322D-03-0.146D-02-0.970D-02
 Coeff-Com: -0.216D-01-0.178D-01 0.105D+01
 Coeff:     -0.346D-04 0.823D-04 0.262D-03 0.322D-03-0.146D-02-0.970D-02
 Coeff:     -0.216D-01-0.178D-01 0.105D+01
 Gap=     0.414 Goal=   None    Shift=    0.000
 RMSDP=1.92D-06 MaxDP=5.74D-05 DE=-2.18D-07 OVMax= 2.38D-05

 Cycle  10  Pass 1  IDiag  1:
 E= -1351.55676867412     Delta-E=       -0.000000004715 Rises=F Damp=F
 DIIS: error= 2.02D-06 at cycle  10 NSaved=  10.
 NSaved=10 IEnMin=10 EnMin= -1351.55676867412     IErMin=10 ErrMin= 2.02D-06
 ErrMax= 2.02D-06  0.00D+00 EMaxC= 1.00D-01 BMatC= 1.49D-09 BMatP= 2.37D-09
 IDIUse=1 WtCom= 1.00D+00 WtEn= 0.00D+00
 Coeff-Com: -0.314D-04 0.740D-04 0.412D-03 0.865D-03 0.120D-03-0.714D-02
 Coeff-Com: -0.285D-01-0.377D-01 0.523D+00 0.549D+00
 Coeff:     -0.314D-04 0.740D-04 0.412D-03 0.865D-03 0.120D-03-0.714D-02
 Coeff:     -0.285D-01-0.377D-01 0.523D+00 0.549D+00
 Gap=     0.414 Goal=   None    Shift=    0.000
 RMSDP=3.22D-07 MaxDP=6.79D-06 DE=-4.72D-09 OVMax= 6.61D-06

 Cycle  11  Pass 1  IDiag  1:
 E= -1351.55676867520     Delta-E=       -0.000000001081 Rises=F Damp=F
 DIIS: error= 5.26D-07 at cycle  11 NSaved=  11.
 NSaved=11 IEnMin=11 EnMin= -1351.55676867520     IErMin=11 ErrMin= 5.26D-07
 ErrMax= 5.26D-07  0.00D+00 EMaxC= 1.00D-01 BMatC= 6.27D-11 BMatP= 1.49D-09
 IDIUse=1 WtCom= 1.00D+00 WtEn= 0.00D+00
 Coeff-Com: -0.287D-05 0.659D-05 0.793D-04 0.224D-03 0.435D-03-0.120D-04
 Coeff-Com: -0.463D-02-0.704D-02-0.520D-01 0.124D+00 0.939D+00
 Coeff:     -0.287D-05 0.659D-05 0.793D-04 0.224D-03 0.435D-03-0.120D-04
 Coeff:     -0.463D-02-0.704D-02-0.520D-01 0.124D+00 0.939D+00
 Gap=     0.414 Goal=   None    Shift=    0.000
 RMSDP=1.84D-07 MaxDP=5.45D-06 DE=-1.08D-09 OVMax= 3.56D-06

 Cycle  12  Pass 1  IDiag  1:
 E= -1351.55676867528     Delta-E=       -0.000000000073 Rises=F Damp=F
 DIIS: error= 6.96D-08 at cycle  12 NSaved=  12.
 NSaved=12 IEnMin=12 EnMin= -1351.55676867528     IErMin=12 ErrMin= 6.96D-08
 ErrMax= 6.96D-08  0.00D+00 EMaxC= 1.00D-01 BMatC= 1.47D-12 BMatP= 6.27D-11
 IDIUse=1 WtCom= 1.00D+00 WtEn= 0.00D+00
 Coeff-Com:  0.116D-05-0.278D-05-0.138D-04-0.230D-04 0.379D-04 0.352D-03
 Coeff-Com:  0.987D-03 0.981D-03-0.326D-01-0.929D-02 0.109D+00 0.930D+00
 Coeff:      0.116D-05-0.278D-05-0.138D-04-0.230D-04 0.379D-04 0.352D-03
 Coeff:      0.987D-03 0.981D-03-0.326D-01-0.929D-02 0.109D+00 0.930D+00
 Gap=     0.414 Goal=   None    Shift=    0.000
 RMSDP=3.69D-08 MaxDP=8.13D-07 DE=-7.32D-11 OVMax= 8.79D-07

 Cycle  13  Pass 1  IDiag  1:
 E= -1351.55676867529     Delta-E=       -0.000000000010 Rises=F Damp=F
 DIIS: error= 2.17D-08 at cycle  13 NSaved=  13.
 NSaved=13 IEnMin=13 EnMin= -1351.55676867529     IErMin=13 ErrMin= 2.17D-08
 ErrMax= 2.17D-08  0.00D+00 EMaxC= 1.00D-01 BMatC= 9.79D-14 BMatP= 1.47D-12
 IDIUse=1 WtCom= 1.00D+00 WtEn= 0.00D+00
 Coeff-Com: -0.131D-07 0.458D-07-0.255D-05-0.880D-05-0.212D-04-0.188D-04
 Coeff-Com:  0.213D-03 0.129D-05 0.505D-02-0.375D-02-0.584D-01-0.572D-01
 Coeff-Com:  0.111D+01
 Coeff:     -0.131D-07 0.458D-07-0.255D-05-0.880D-05-0.212D-04-0.188D-04
 Coeff:      0.213D-03 0.129D-05 0.505D-02-0.375D-02-0.584D-01-0.572D-01
 Coeff:      0.111D+01
 Gap=     0.414 Goal=   None    Shift=    0.000
 RMSDP=1.04D-08 MaxDP=3.19D-07 DE=-1.05D-11 OVMax= 2.83D-07

 Cycle  14  Pass 1  IDiag  1:
 E= -1351.55676867528     Delta-E=        0.000000000005 Rises=F Damp=F
 DIIS: error= 3.99D-09 at cycle  14 NSaved=  14.
 NSaved=14 IEnMin=13 EnMin= -1351.55676867529     IErMin=14 ErrMin= 3.99D-09
 ErrMax= 3.99D-09  0.00D+00 EMaxC= 1.00D-01 BMatC= 3.16D-15 BMatP= 9.79D-14
 IDIUse=1 WtCom= 1.00D+00 WtEn= 0.00D+00
 Coeff-Com: -0.253D-07 0.590D-07 0.458D-06 0.754D-06-0.106D-05-0.909D-05
 Coeff-Com: -0.430D-04 0.212D-04 0.670D-03 0.472D-05-0.591D-03-0.255D-01
 Coeff-Com: -0.468D-01 0.107D+01
 Coeff:     -0.253D-07 0.590D-07 0.458D-06 0.754D-06-0.106D-05-0.909D-05
 Coeff:     -0.430D-04 0.212D-04 0.670D-03 0.472D-05-0.591D-03-0.255D-01
 Coeff:     -0.468D-01 0.107D+01
 Gap=     0.414 Goal=   None    Shift=    0.000
 RMSDP=2.06D-09 MaxDP=6.51D-08 DE= 5.46D-12 OVMax= 5.32D-08

 SCF Done:  E(RwB97XD) =  -1351.55676868     A.U. after   14 cycles
            NFock= 14  Conv=0.21D-08     -V/T= 1.9996
 KE= 1.352125031292D+03 PE=-4.873545155502D+03 EE= 1.345723155454D+03
 Leave Link  502 at Sat Sep 14 17:17:14 2024, MaxMem=  4294967296 cpu:            2999.6 elap:             166.8
 (Enter /home/appl/Gaussian/g16/l601.exe)
 Copying SCF densities to generalized density rwf, IOpCl= 0 IROHF=0.

 **********************************************************************

            Population analysis using the SCF Density.

 **********************************************************************

 Orbital symmetries:
       Occupied  (B) (A) (A) (B) (B) (A) (A) (B) (A) (A) (B) (B)
                 (A) (A) (B) (B) (A) (A) (B) (A) (B) (A) (B) (A)
                 (B) (A) (B) (B) (A) (A) (B) (A) (B) (A) (B) (A)
                 (A) (B) (B) (A) (B) (A) (B) (B) (A)
       Virtual   (A) (B) (B) (A) (A) (B) (A) (A) (B) (B) (A) (B)
                 (A) (B) (A) (B) (A) (B) (A) (B) (A) (A) (B) (B)
                 (A) (A) (B) (A) (B) (B) (B) (A) (A) (A) (B) (A)
                 (A) (B) (B) (B) (A) (A) (B) (B) (A) (B) (B) (A)
                 (B) (A) (A) (B) (A) (B) (A) (B) (B) (B) (A) (A)
                 (B) (A) (B) (B) (A) (A) (B) (A) (A) (B) (B) (A)
                 (B) (B) (A) (A) (A) (B) (B) (A) (B) (A) (B) (A)
                 (A) (B) (B) (A) (A) (B) (A) (A) (B) (B) (B) (A)
                 (B) (A) (A) (B) (A) (B) (A) (A) (B) (A) (B) (B)
                 (B) (A) (A) (B) (A) (B) (A) (B) (A) (B) (A) (B)
                 (B) (A) (A) (B) (A) (B) (A) (A) (B) (B) (A) (A)
                 (B) (B) (A) (B) (A) (A) (B) (B) (B) (A) (A) (B)
                 (A) (B) (A) (B) (B) (A) (A) (B) (A) (B) (A) (B)
                 (A) (B) (A) (B) (A) (A) (B) (B) (A) (B) (A) (A)
                 (B)
 The electronic state is 1-A.
 Alpha  occ. eigenvalues --  -89.10214 -89.10214 -24.67012 -24.67012 -19.11193
 Alpha  occ. eigenvalues --  -19.11193 -19.07332 -19.07331 -14.26914  -8.12509
 Alpha  occ. eigenvalues --   -8.12509  -6.07402  -6.07402  -6.07196  -6.07195
 Alpha  occ. eigenvalues --   -6.07014  -6.07014  -1.23697  -1.22536  -1.13758
 Alpha  occ. eigenvalues --   -1.13686  -1.02036  -1.00672  -0.91951  -0.68191
 Alpha  occ. eigenvalues --   -0.56964  -0.56258  -0.47591  -0.47558  -0.45811
 Alpha  occ. eigenvalues --   -0.44276  -0.41217  -0.40207  -0.39554  -0.38689
 Alpha  occ. eigenvalues --   -0.36446  -0.35794  -0.35270  -0.32377  -0.31892
 Alpha  occ. eigenvalues --   -0.28608  -0.26221  -0.24519  -0.23266  -0.22009
 Alpha virt. eigenvalues --    0.19377   0.20360   0.21636   0.22202   0.23876
 Alpha virt. eigenvalues --    0.24067   0.24494   0.27566   0.28824   0.32842
 Alpha virt. eigenvalues --    0.33097   0.35527   0.36562   0.37028   0.37473
 Alpha virt. eigenvalues --    0.39271   0.40242   0.40440   0.42510   0.42972
 Alpha virt. eigenvalues --    0.44948   0.45218   0.45633   0.46947   0.47124
 Alpha virt. eigenvalues --    0.47759   0.47991   0.48919   0.49148   0.50011
 Alpha virt. eigenvalues --    0.50650   0.50993   0.51510   0.52899   0.53577
 Alpha virt. eigenvalues --    0.54405   0.55486   0.56119   0.57998   0.61103
 Alpha virt. eigenvalues --    0.61237   0.62058   0.63514   0.65052   0.66302
 Alpha virt. eigenvalues --    0.68257   0.69327   0.71026   0.77035   0.80414
 Alpha virt. eigenvalues --    0.89517   0.90619   0.94152   0.95599   1.02572
 Alpha virt. eigenvalues --    1.09030   1.14487   1.16166   1.16989   1.22379
 Alpha virt. eigenvalues --    1.23144   1.24776   1.26131   1.27444   1.27602
 Alpha virt. eigenvalues --    1.31067   1.31159   1.33537   1.33815   1.34523
 Alpha virt. eigenvalues --    1.39485   1.40696   1.43197   1.46964   1.47839
 Alpha virt. eigenvalues --    1.52080   1.61016   1.61987   1.63562   1.64247
 Alpha virt. eigenvalues --    1.64546   1.66049   1.69261   1.71846   1.81497
 Alpha virt. eigenvalues --    1.84212   1.91000   1.96820   1.98820   2.00580
 Alpha virt. eigenvalues --    2.04743   2.08623   2.11584   2.15405   2.31077
 Alpha virt. eigenvalues --    2.31551   2.40052   2.43510   2.51528   2.82853
 Alpha virt. eigenvalues --    2.88461   3.01825   3.02070   3.02990   3.03141
 Alpha virt. eigenvalues --    3.08052   3.08082   3.11429   3.13860   3.15211
 Alpha virt. eigenvalues --    3.16371   3.29165   3.29592   3.36525   3.40124
 Alpha virt. eigenvalues --    3.52266   3.53172   3.82583   3.84322   3.97163
 Alpha virt. eigenvalues --    3.98041   3.99049   4.01213   4.02548   4.04141
 Alpha virt. eigenvalues --    4.04344   4.06078   4.10166   4.12210   4.19890
 Alpha virt. eigenvalues --    4.33826   4.41041   4.42633   4.67500   5.22936
 Alpha virt. eigenvalues --    5.23411   5.25392   5.27497   5.28260   5.29683
 Alpha virt. eigenvalues --    5.36382   5.37282   5.52711   5.55892   5.77937
 Alpha virt. eigenvalues --    5.79074   6.58425   6.58958   6.60888   6.62598
 Alpha virt. eigenvalues --    6.63796   6.68107   8.46407   8.51084  17.56241
 Alpha virt. eigenvalues --   17.58394  17.71988  17.84820  17.99462  18.09861
 Alpha virt. eigenvalues --   35.75461  50.18469  50.18686  50.21011  50.24612
 Alpha virt. eigenvalues --   67.09460  67.10962 189.71612 189.77252
          Condensed to atoms (all electrons):
               1          2          3          4          5          6
     1  S   15.772737   0.188164   0.453963  -0.510459  -0.331726  -0.020634
     2  F    0.188164   9.203540   0.008395  -0.130568  -0.038927  -0.070457
     3  O    0.453963   0.008395   8.890356  -0.678062  -0.195970  -0.053860
     4  O   -0.510459  -0.130568  -0.678062   9.492718  -0.282074   0.093980
     5  N   -0.331726  -0.038927  -0.195970  -0.282074   9.513345  -0.331726
     6  S   -0.020634  -0.070457  -0.053860   0.093980  -0.331726  15.772737
     7  F   -0.070457   0.002900   0.047606  -0.015985  -0.038927   0.188164
     8  O    0.093980  -0.015985   0.014273  -0.010773  -0.282074  -0.510459
     9  O   -0.053860   0.047606  -0.084107   0.014273  -0.195970   0.453963
               7          8          9
     1  S   -0.070457   0.093980  -0.053860
     2  F    0.002900  -0.015985   0.047606
     3  O    0.047606   0.014273  -0.084107
     4  O   -0.015985  -0.010773   0.014273
     5  N   -0.038927  -0.282074  -0.195970
     6  S    0.188164  -0.510459   0.453963
     7  F    9.203540  -0.130568   0.008395
     8  O   -0.130568   9.492718  -0.678062
     9  O    0.008395  -0.678062   8.890356
 Mulliken charges:
               1
     1  S    0.478291
     2  F   -0.194670
     3  O   -0.402593
     4  O    0.026948
     5  N   -0.815952
     6  S    0.478291
     7  F   -0.194670
     8  O    0.026948
     9  O   -0.402593
 Sum of Mulliken charges =  -1.00000
 Mulliken charges with hydrogens summed into heavy atoms:
               1
     1  S    0.478291
     2  F   -0.194670
     3  O   -0.402593
     4  O    0.026948
     5  N   -0.815952
     6  S    0.478291
     7  F   -0.194670
     8  O    0.026948
     9  O   -0.402593
 Electronic spatial extent (au):  <R**2>=           1205.4182
 Charge=             -1.0000 electrons
 Dipole moment (field-independent basis, Debye):
    X=             -0.0000    Y=              0.0000    Z=              1.5294  Tot=              1.5294
 Quadrupole moment (field-independent basis, Debye-Ang):
   XX=            -68.4737   YY=            -79.8409   ZZ=            -73.7607
   XY=             -1.7162   XZ=             -0.0000   YZ=              0.0000
 Traceless Quadrupole moment (field-independent basis, Debye-Ang):
   XX=              5.5514   YY=             -5.8158   ZZ=              0.2644
   XY=             -1.7162   XZ=             -0.0000   YZ=              0.0000
 Octapole moment (field-independent basis, Debye-Ang**2):
  XXX=              0.0000  YYY=              0.0000  ZZZ=             -2.5275  XYY=              0.0000
  XXY=              0.0000  XXZ=              4.0532  XZZ=             -0.0000  YZZ=              0.0000
  YYZ=             -8.8807  XYZ=              0.7127
 Hexadecapole moment (field-independent basis, Debye-Ang**3):
 XXXX=           -245.4195 YYYY=           -980.8947 ZZZZ=           -254.6020 XXXY=             27.6108
 XXXZ=              0.0000 YYYX=              1.2524 YYYZ=              0.0000 ZZZX=              0.0000
 ZZZY=              0.0000 XXYY=           -199.6370 XXZZ=            -81.6512 YYZZ=           -218.8214
 XXYZ=              0.0000 YYXZ=              0.0000 ZZXY=             -3.2010
 N-N= 8.241402000810D+02 E-N=-4.873545155482D+03  KE= 1.352125031292D+03
 Symmetry A    KE= 6.977781740226D+02
 Symmetry B    KE= 6.543468572694D+02
 No NMR shielding tensors so no spin-rotation constants.
 Leave Link  601 at Sat Sep 14 17:17:39 2024, MaxMem=  4294967296 cpu:              66.9 elap:               3.3
 (Enter /home/appl/Gaussian/g16/l701.exe)
 ... and contract with generalized density number  0.
 Compute integral first derivatives.
 R6Disp: Adding Grimme-D2 dispersion energy 1st derivatives to the gradient.
 Leave Link  701 at Sat Sep 14 17:17:43 2024, MaxMem=  4294967296 cpu:              50.3 elap:               2.6
 (Enter /home/appl/Gaussian/g16/l702.exe)
 L702 exits ... SP integral derivatives will be done elsewhere.
 Leave Link  702 at Sat Sep 14 17:17:44 2024, MaxMem=  4294967296 cpu:               1.5 elap:               0.1
 (Enter /home/appl/Gaussian/g16/l703.exe)
 Integral derivatives from FoFJK, PRISM(SPDF).
 Compute integral first derivatives, UseDBF=F ICtDFT=           0.
 Calling FoFJK, ICntrl=      2127 FMM=F ISym2X=1 I1Cent= 0 IOpClX= 0 NMat=1 NMatS=1 NMatT=0.
 FoFJK:  IHMeth= 1 ICntrl=    2127 DoSepK=T KAlg= 0 I1Cent=           0 FoldK=F
 IRaf=         1 NMat=       1 IRICut=       1 DoRegI=T DoRafI=F ISym2E= 1 IDoP0=0 IntGTp=1.
 FoFCou: FMM=F IPFlag=           0 FMFlag=      100000 FMFlg1=         800
         NFxFlg=           0 DoJE=F BraDBF=F KetDBF=F FulRan=T
         wScrn=  0.000000 ICntrl=      2527 IOpCl=  0 I1Cent=           0 NGrid=           0
         NMat0=    1 NMatS0=      1 NMatT0=    0 NMatD0=    1 NMtDS0=    0 NMtDT0=    0
 Petite list used in FoFCou.
 Leave Link  703 at Sat Sep 14 17:17:50 2024, MaxMem=  4294967296 cpu:             106.3 elap:               5.3
 (Enter /home/appl/Gaussian/g16/l716.exe)
 Dipole        = 1.77635684D-15 7.10542736D-15 6.01727453D-01
 ***** Axes restored to original set *****
 -------------------------------------------------------------------
 Center     Atomic                   Forces (Hartrees/Bohr)
 Number     Number              X              Y              Z
 -------------------------------------------------------------------
      1       16           0.008967216    0.305127256    0.087580084
      2        9           0.006759083   -0.019005973    0.031010230
      3        8           0.053813177    0.057006467   -0.047581482
      4        8           0.025935988   -0.380087300   -0.083208612
      5        7          -0.058515914   -0.058515914   -0.000000000
      6       16           0.305127256    0.008967216   -0.087580084
      7        9          -0.019005973    0.006759083   -0.031010230
      8        8          -0.380087300    0.025935988    0.083208612
      9        8           0.057006467    0.053813177    0.047581482
 -------------------------------------------------------------------
 Cartesian Forces:  Max     0.380087300 RMS     0.140401087
 Leave Link  716 at Sat Sep 14 17:17:51 2024, MaxMem=  4294967296 cpu:               1.3 elap:               0.1
 (Enter /home/appl/Gaussian/g16/l103.exe)

 GradGradGradGradGradGradGradGradGradGradGradGradGradGradGradGradGradGrad
 Berny optimization.
 FormGI is forming the generalized inverse of G from B-inverse, IUseBI=4.
 Internal  Forces:  Max     0.389119043 RMS     0.113854901
 Search for a local minimum.
 Step number   1 out of a maximum of  100
 All quantities printed in internal units (Hartrees-Bohrs-Radians)
 RMS Force = .11385D+00 SwitMx=.10000D-02 MixMth= 1
 Mixed Optimization -- RFO/linear search
 Second derivative matrix not updated -- first step.
 ITU=  0
     Eigenvalues ---    0.04055   0.04055   0.15185   0.15185   0.18138
     Eigenvalues ---    0.18138   0.25000   0.25000   0.25000   0.25000
     Eigenvalues ---    0.25000   0.25000   0.25000   0.51353   0.51353
     Eigenvalues ---    0.79596   0.79596   1.28723   1.28723   2.53498
     Eigenvalues ---    2.53498
 RFO step:  Lambda=-1.68772004D-01 EMin= 4.05546992D-02
 Linear search not attempted -- first point.
 Maximum step size (   0.300) exceeded in Quadratic search.
    -- Step size scaled by   0.874
 Iteration  1 RMS(Cart)=  0.14538084 RMS(Int)=  0.00352458
 Iteration  2 RMS(Cart)=  0.00551141 RMS(Int)=  0.00041563
 Iteration  3 RMS(Cart)=  0.00002509 RMS(Int)=  0.00041525
 Iteration  4 RMS(Cart)=  0.00000001 RMS(Int)=  0.00041525
 ITry= 1 IFail=0 DXMaxC= 3.01D-01 DCOld= 1.00D+10 DXMaxT= 3.00D-01 DXLimC= 3.00D+00 Rises=F
 ClnCor:  largest displacement from symmetrization is 7.63D-11 for atom     8.
 Variable       Old X    -DE/DX   Delta X   Delta X   Delta X     New X
                                 (Linear)    (Quad)   (Total)
    R1        3.02224   0.02878   0.00000   0.03685   0.03685   3.05909
    R2        2.62641   0.09148   0.00000   0.05488   0.05488   2.68130
    R3        2.40310   0.38912   0.00000   0.12573   0.12573   2.52882
    R4        2.81834   0.10279   0.00000   0.09308   0.09308   2.91142
    R5        2.81834   0.10279   0.00000   0.09308   0.09308   2.91142
    R6        3.02224   0.02878   0.00000   0.03685   0.03685   3.05909
    R7        2.40310   0.38912   0.00000   0.12573   0.12573   2.52882
    R8        2.62641   0.09148   0.00000   0.05488   0.05488   2.68130
    A1        1.72819   0.01782   0.00000   0.04491   0.04423   1.77242
    A2        1.94465  -0.03574   0.00000  -0.08890  -0.08962   1.85503
    A3        1.75722   0.00396   0.00000   0.00495   0.00430   1.76152
    A4        2.05207   0.00770   0.00000   0.02068   0.02029   2.07236
    A5        1.99584   0.01182   0.00000   0.03002   0.02953   2.02536
    A6        1.94844  -0.00742   0.00000  -0.01751  -0.01803   1.93040
    A7        2.17555   0.04558   0.00000   0.09509   0.09509   2.27064
    A8        1.75722   0.00396   0.00000   0.00495   0.00430   1.76152
    A9        1.94844  -0.00742   0.00000  -0.01751  -0.01803   1.93040
   A10        1.99584   0.01182   0.00000   0.03002   0.02953   2.02536
   A11        1.94465  -0.03574   0.00000  -0.08890  -0.08962   1.85503
   A12        1.72819   0.01782   0.00000   0.04491   0.04423   1.77242
   A13        2.05207   0.00770   0.00000   0.02068   0.02029   2.07236
    D1        1.30340   0.02141   0.00000   0.05102   0.05096   1.35436
    D2       -0.53089  -0.00476   0.00000  -0.01239  -0.01272  -0.54360
    D3       -2.91444  -0.02097   0.00000  -0.05667  -0.05628  -2.97072
    D4        1.30340   0.02141   0.00000   0.05102   0.05096   1.35436
    D5       -2.91444  -0.02097   0.00000  -0.05667  -0.05628  -2.97072
    D6       -0.53089  -0.00476   0.00000  -0.01239  -0.01272  -0.54360
         Item               Value     Threshold  Converged?
 Maximum Force            0.389119     0.000450     NO 
 RMS     Force            0.113855     0.000300     NO 
 Maximum Displacement     0.300556     0.001800     NO 
 RMS     Displacement     0.147919     0.001200     NO 
 Predicted change in Energy=-9.161857D-02
 Lowest energy point so far.  Saving SCF results.
 GradGradGradGradGradGradGradGradGradGradGradGradGradGradGradGradGradGrad

 Leave Link  103 at Sat Sep 14 17:18:00 2024, MaxMem=  4294967296 cpu:             129.4 elap:               8.4
 (Enter /home/appl/Gaussian/g16/l202.exe)
                          Input orientation:                          
 ---------------------------------------------------------------------
 Center     Atomic      Atomic             Coordinates (Angstroms)
 Number     Number       Type             X           Y           Z
 ---------------------------------------------------------------------
      1         16           0        7.021426   11.102125    4.892482
      2          9           0        7.531907   11.212381    6.424723
      3          8           0        7.935490   11.958672    4.226121
      4          8           0        7.023038    9.798730    4.589282
      5          7           0        5.578717   11.625717    5.026900
      6         16           0        5.055125   13.068426    5.161318
      7          9           0        5.165381   13.578907    3.629077
      8          8           0        3.751730   13.070038    5.464518
      9          8           0        5.911672   13.982490    5.827679
 ---------------------------------------------------------------------
                    Distance matrix (angstroms):
                    1          2          3          4          5
     1  S    0.000000
     2  F    1.618798   0.000000
     3  O    1.418881   2.356624   0.000000
     4  O    1.338196   2.371960   2.372720   0.000000
     5  N    1.540658   2.437151   2.511271   2.369695   0.000000
     6  S    2.793735   3.342985   3.225314   3.858862   1.540658
     7  F    3.342985   4.360794   3.264219   4.320026   2.437151
     8  O    3.858862   4.320026   4.502511   4.708391   2.369695
     9  O    3.225314   3.264219   3.279735   4.502511   2.511271
                    6          7          8          9
     6  S    0.000000
     7  F    1.618798   0.000000
     8  O    1.338196   2.371960   0.000000
     9  O    1.418881   2.356624   2.372720   0.000000
 Stoichiometry    F2NO4S2(1-)
 Framework group  C2[C2(N),X(F2O4S2)]
 Deg. of freedom    11
 Full point group                 C2      NOp   2
 RotChk:  IX=0 Diff= 6.94D-03
 Largest Abelian subgroup         C2      NOp   2
 Largest concise Abelian subgroup C2      NOp   2
                         Standard orientation:                         
 ---------------------------------------------------------------------
 Center     Atomic      Atomic             Coordinates (Angstroms)
 Number     Number       Type             X           Y           Z
 ---------------------------------------------------------------------
      1         16           0       -0.000000    1.396868    0.097253
      2          9           0       -1.552362    1.531112   -0.341675
      3          8           0        0.659355    1.501471   -1.154758
      4          8           0        0.212996    2.344540    1.017752
      5          7           0       -0.000000    0.000000    0.747166
      6         16           0       -0.000000   -1.396868    0.097253
      7          9           0        1.552362   -1.531112   -0.341675
      8          8           0       -0.212996   -2.344540    1.017752
      9          8           0       -0.659355   -1.501471   -1.154758
 ---------------------------------------------------------------------
 Rotational constants (GHZ):           2.6526961           0.9097491           0.8886046
 Leave Link  202 at Sat Sep 14 17:18:01 2024, MaxMem=  4294967296 cpu:               1.8 elap:               0.3
 (Enter /home/appl/Gaussian/g16/l301.exe)
 Standard basis: 6-311++G(d,p) (5D, 7F)
 Ernie: Thresh=  0.10000D-02 Tol=  0.10000D-05 Strict=F.
 There are   113 symmetry adapted cartesian basis functions of A   symmetry.
 There are   110 symmetry adapted cartesian basis functions of B   symmetry.
 There are   108 symmetry adapted basis functions of A   symmetry.
 There are   106 symmetry adapted basis functions of B   symmetry.
   214 basis functions,   352 primitive gaussians,   223 cartesian basis functions
    45 alpha electrons       45 beta electrons
       nuclear repulsion energy       791.3343646639 Hartrees.
 IExCor= 4639 DFT=T Ex+Corr=wB97XD ExCW=0 ScaHFX=  1.000000
 ScaDFX=  1.000000  1.000000  1.000000  1.000000 ScalE2=  1.000000  1.000000
 IRadAn=      5 IRanWt=     -1 IRanGd=            0 ICorTp=0 IEmpDi=121
 HFx  wShort=  0.000000 wLong=  0.200000 cFull=  0.222036 cShort=  0.000000 cLong=  0.777964
 DFx  wShort=  0.000000 wLong=  0.200000 cFull=  0.000000 cShort=  0.000000 cLong=  1.000000
 NAtoms=    9 NActive=    9 NUniq=    5 SFac= 3.24D+00 NAtFMM=   60 NAOKFM=F Big=F
 Integral buffers will be    131072 words long.
 Raffenetti 2 integral format.
 Two-electron integral symmetry is turned on.
 R6Disp:  Grimme-D2 Dispersion energy=       -0.0027544933 Hartrees.
 Nuclear repulsion after empirical dispersion term =      791.3316101707 Hartrees.
 Leave Link  301 at Sat Sep 14 17:18:02 2024, MaxMem=  4294967296 cpu:               2.9 elap:               0.2
 (Enter /home/appl/Gaussian/g16/l302.exe)
 NPDir=0 NMtPBC=     1 NCelOv=     1 NCel=       1 NClECP=     1 NCelD=      1
         NCelK=      1 NCelE2=     1 NClLst=     1 CellRange=     0.0.
 One-electron integrals computed using PRISM.
 One-electron integral symmetry used in STVInt
 NBasis=   214 RedAO= T EigKep=  1.73D-04  NBF=   108   106
 NBsUse=   214 1.00D-06 EigRej= -1.00D+00 NBFU=   108   106
 Precomputing XC quadrature grid using
 IXCGrd= 4 IRadAn=           5 IRanWt=          -1 IRanGd=           0 AccXCQ= 0.00D+00.
 Generated NRdTot=       0 NPtTot=           0 NUsed=           0 NTot=          32
 NSgBfM=   223   223   223   223   223 MxSgAt=     9 MxSgA2=     9.
 Leave Link  302 at Sat Sep 14 17:18:08 2024, MaxMem=  4294967296 cpu:             127.2 elap:               6.1
 (Enter /home/appl/Gaussian/g16/l303.exe)
 DipDrv:  MaxL=1.
 Leave Link  303 at Sat Sep 14 17:18:09 2024, MaxMem=  4294967296 cpu:               9.7 elap:               0.5
 (Enter /home/appl/Gaussian/g16/l401.exe)
 Initial guess from the checkpoint file:  "/scr/Gau-139338.chk"
 B after Tr=     0.000000   -0.000000    0.000000
         Rot=    0.999999    0.000000   -0.000000   -0.001489 Ang=  -0.17 deg.
 Guess basis will be translated and rotated to current coordinates.
 JPrj=2 DoOrth=T DoCkMO=T.
 Initial guess orbital symmetries:
       Occupied  (B) (A) (A) (B) (B) (A) (A) (B) (A) (A) (B) (B)
                 (A) (A) (B) (B) (A) (A) (B) (A) (B) (A) (B) (A)
                 (B) (A) (B) (B) (A) (A) (B) (A) (B) (A) (B) (A)
                 (A) (B) (B) (A) (B) (A) (B) (B) (A)
       Virtual   (A) (B) (B) (A) (A) (B) (A) (A) (B) (B) (A) (B)
                 (A) (B) (A) (B) (A) (B) (A) (B) (A) (A) (B) (B)
                 (A) (A) (B) (A) (B) (B) (B) (A) (A) (A) (B) (A)
                 (A) (B) (B) (B) (A) (A) (B) (B) (A) (B) (B) (A)
                 (B) (A) (A) (B) (A) (B) (A) (B) (B) (B) (A) (A)
                 (B) (A) (B) (B) (A) (A) (B) (A) (A) (B) (B) (A)
                 (B) (B) (A) (A) (A) (B) (B) (A) (B) (A) (B) (A)
                 (A) (B) (B) (A) (A) (B) (A) (A) (B) (B) (B) (A)
                 (B) (A) (A) (B) (A) (B) (A) (A) (B) (A) (B) (B)
                 (B) (A) (A) (B) (A) (B) (A) (B) (A) (B) (A) (B)
                 (B) (A) (A) (B) (A) (B) (A) (A) (B) (B) (A) (A)
                 (B) (B) (A) (B) (A) (A) (B) (B) (B) (A) (A) (B)
                 (A) (B) (A) (B) (B) (A) (A) (B) (A) (B) (A) (B)
                 (A) (B) (A) (B) (A) (A) (B) (B) (A) (B) (A) (A)
                 (B)
 The electronic state of the initial guess is 1-A.
 Generating alternative initial guess.
 ExpMin= 4.05D-02 ExpMax= 9.34D+04 ExpMxC= 3.17D+03 IAcc=3 IRadAn=         5 AccDes= 0.00D+00
 Harris functional with IExCor= 4639 and IRadAn=       5 diagonalized for initial guess.
 HarFok:  IExCor= 4639 AccDes= 0.00D+00 IRadAn=         5 IDoV= 1 UseB2=F ITyADJ=14
 ICtDFT=  3500011 ScaDFX=  1.000000  1.000000  1.000000  1.000000
 FoFCou: FMM=F IPFlag=           0 FMFlag=      100000 FMFlg1=           0
         NFxFlg=           0 DoJE=T BraDBF=F KetDBF=T FulRan=T
         wScrn=  0.000000 ICntrl=       500 IOpCl=  0 I1Cent=   200000004 NGrid=           0
         NMat0=    1 NMatS0=      1 NMatT0=    0 NMatD0=    1 NMtDS0=    0 NMtDT0=    0
 Petite list used in FoFCou.
 Harris En= -1319.77414035786    
 Leave Link  401 at Sat Sep 14 17:18:20 2024, MaxMem=  4294967296 cpu:             208.3 elap:              10.1
 (Enter /home/appl/Gaussian/g16/l502.exe)
 Keep R1 ints in memory in symmetry-blocked form, NReq=793946642.
 FoFCou: FMM=F IPFlag=           0 FMFlag=           0 FMFlg1=           0
         NFxFlg=           0 DoJE=F BraDBF=F KetDBF=F FulRan=T
         wScrn=  0.000000 ICntrl=       600 IOpCl=  0 I1Cent=           0 NGrid=           0
         NMat0=    1 NMatS0=  23005 NMatT0=    0 NMatD0=    1 NMtDS0=    0 NMtDT0=    0
 Petite list used in FoFCou.
 Closed shell SCF:
 Using DIIS extrapolation, IDIIS=  1040.
 NGot=  4294967296 LenX=  4162486518 LenY=  4162436348
 Requested convergence on RMS density matrix=1.00D-08 within 128 cycles.
 Requested convergence on MAX density matrix=1.00D-06.
 Requested convergence on             energy=1.00D-06.
 No special actions if energy rises.

 Cycle   1  Pass 1  IDiag  1:
 E= -1351.60877106596    
 DIIS: error= 8.21D-03 at cycle   1 NSaved=   1.
 NSaved= 1 IEnMin= 1 EnMin= -1351.60877106596     IErMin= 1 ErrMin= 8.21D-03
 ErrMax= 8.21D-03  0.00D+00 EMaxC= 1.00D-01 BMatC= 4.15D-02 BMatP= 4.15D-02
 IDIUse=3 WtCom= 9.18D-01 WtEn= 8.21D-02
 Coeff-Com:  0.100D+01
 Coeff-En:   0.100D+01
 Coeff:      0.100D+01
 Gap=     0.427 Goal=   None    Shift=    0.000
 GapD=    0.427 DampG=2.000 DampE=1.000 DampFc=2.0000 IDamp=-1.
 RMSDP=3.66D-03 MaxDP=1.81D-01              OVMax= 3.83D-02

 Cycle   2  Pass 1  IDiag  1:
 E= -1351.65252680440     Delta-E=       -0.043755738442 Rises=F Damp=F
 DIIS: error= 4.49D-03 at cycle   2 NSaved=   2.
 NSaved= 2 IEnMin= 2 EnMin= -1351.65252680440     IErMin= 2 ErrMin= 4.49D-03
 ErrMax= 4.49D-03  0.00D+00 EMaxC= 1.00D-01 BMatC= 6.69D-03 BMatP= 4.15D-02
 IDIUse=3 WtCom= 9.55D-01 WtEn= 4.49D-02
 Coeff-Com:  0.143D+00 0.857D+00
 Coeff-En:   0.000D+00 0.100D+01
 Coeff:      0.136D+00 0.864D+00
 Gap=     0.423 Goal=   None    Shift=    0.000
 RMSDP=8.75D-04 MaxDP=2.83D-02 DE=-4.38D-02 OVMax= 1.96D-02

 Cycle   3  Pass 1  IDiag  1:
 E= -1351.65373314944     Delta-E=       -0.001206345045 Rises=F Damp=F
 DIIS: error= 5.02D-03 at cycle   3 NSaved=   3.
 NSaved= 3 IEnMin= 3 EnMin= -1351.65373314944     IErMin= 2 ErrMin= 4.49D-03
 ErrMax= 5.02D-03  0.00D+00 EMaxC= 1.00D-01 BMatC= 6.25D-03 BMatP= 6.69D-03
 IDIUse=3 WtCom= 9.50D-01 WtEn= 5.02D-02
 Coeff-Com: -0.636D-01 0.507D+00 0.557D+00
 Coeff-En:   0.000D+00 0.429D+00 0.571D+00
 Coeff:     -0.604D-01 0.503D+00 0.558D+00
 Gap=     0.422 Goal=   None    Shift=    0.000
 RMSDP=5.56D-04 MaxDP=1.13D-02 DE=-1.21D-03 OVMax= 1.31D-02

 Cycle   4  Pass 1  IDiag  1:
 E= -1351.65791041108     Delta-E=       -0.004177261636 Rises=F Damp=F
 DIIS: error= 6.41D-04 at cycle   4 NSaved=   4.
 NSaved= 4 IEnMin= 4 EnMin= -1351.65791041108     IErMin= 4 ErrMin= 6.41D-04
 ErrMax= 6.41D-04  0.00D+00 EMaxC= 1.00D-01 BMatC= 1.26D-04 BMatP= 6.25D-03
 IDIUse=3 WtCom= 9.94D-01 WtEn= 6.41D-03
 Coeff-Com: -0.271D-01 0.109D+00 0.191D+00 0.728D+00
 Coeff-En:   0.000D+00 0.000D+00 0.000D+00 0.100D+01
 Coeff:     -0.269D-01 0.108D+00 0.189D+00 0.729D+00
 Gap=     0.419 Goal=   None    Shift=    0.000
 RMSDP=1.00D-04 MaxDP=2.86D-03 DE=-4.18D-03 OVMax= 1.88D-03

 Cycle   5  Pass 1  IDiag  1:
 E= -1351.65800197509     Delta-E=       -0.000091564013 Rises=F Damp=F
 DIIS: error= 1.59D-04 at cycle   5 NSaved=   5.
 NSaved= 5 IEnMin= 5 EnMin= -1351.65800197509     IErMin= 5 ErrMin= 1.59D-04
 ErrMax= 1.59D-04  0.00D+00 EMaxC= 1.00D-01 BMatC= 1.15D-05 BMatP= 1.26D-04
 IDIUse=3 WtCom= 9.98D-01 WtEn= 1.59D-03
 Coeff-Com: -0.238D-02-0.166D-01 0.915D-02 0.243D+00 0.767D+00
 Coeff-En:   0.000D+00 0.000D+00 0.000D+00 0.000D+00 0.100D+01
 Coeff:     -0.238D-02-0.166D-01 0.913D-02 0.243D+00 0.767D+00
 Gap=     0.419 Goal=   None    Shift=    0.000
 RMSDP=5.13D-05 MaxDP=1.91D-03 DE=-9.16D-05 OVMax= 6.38D-04

 Cycle   6  Pass 1  IDiag  1:
 E= -1351.65801012670     Delta-E=       -0.000008151611 Rises=F Damp=F
 DIIS: error= 8.68D-05 at cycle   6 NSaved=   6.
 NSaved= 6 IEnMin= 6 EnMin= -1351.65801012670     IErMin= 6 ErrMin= 8.68D-05
 ErrMax= 8.68D-05  0.00D+00 EMaxC= 1.00D-01 BMatC= 2.89D-06 BMatP= 1.15D-05
 IDIUse=1 WtCom= 1.00D+00 WtEn= 0.00D+00
 Coeff-Com:  0.170D-02-0.205D-01-0.165D-01 0.446D-01 0.397D+00 0.594D+00
 Coeff:      0.170D-02-0.205D-01-0.165D-01 0.446D-01 0.397D+00 0.594D+00
 Gap=     0.419 Goal=   None    Shift=    0.000
 RMSDP=1.08D-05 MaxDP=2.64D-04 DE=-8.15D-06 OVMax= 2.27D-04

 Cycle   7  Pass 1  IDiag  1:
 E= -1351.65801216434     Delta-E=       -0.000002037634 Rises=F Damp=F
 DIIS: error= 1.54D-05 at cycle   7 NSaved=   7.
 NSaved= 7 IEnMin= 7 EnMin= -1351.65801216434     IErMin= 7 ErrMin= 1.54D-05
 ErrMax= 1.54D-05  0.00D+00 EMaxC= 1.00D-01 BMatC= 8.50D-08 BMatP= 2.89D-06
 IDIUse=1 WtCom= 1.00D+00 WtEn= 0.00D+00
 Coeff-Com:  0.723D-03-0.463D-02-0.625D-02-0.901D-02 0.387D-01 0.153D+00
 Coeff-Com:  0.827D+00
 Coeff:      0.723D-03-0.463D-02-0.625D-02-0.901D-02 0.387D-01 0.153D+00
 Coeff:      0.827D+00
 Gap=     0.419 Goal=   None    Shift=    0.000
 RMSDP=4.47D-06 MaxDP=9.07D-05 DE=-2.04D-06 OVMax= 9.67D-05

 Cycle   8  Pass 1  IDiag  1:
 E= -1351.65801225182     Delta-E=       -0.000000087487 Rises=F Damp=F
 DIIS: error= 8.54D-06 at cycle   8 NSaved=   8.
 NSaved= 8 IEnMin= 8 EnMin= -1351.65801225182     IErMin= 8 ErrMin= 8.54D-06
 ErrMax= 8.54D-06  0.00D+00 EMaxC= 1.00D-01 BMatC= 1.75D-08 BMatP= 8.50D-08
 IDIUse=1 WtCom= 1.00D+00 WtEn= 0.00D+00
 Coeff-Com:  0.167D-03-0.215D-03-0.129D-02-0.775D-02-0.192D-01 0.991D-02
 Coeff-Com:  0.350D+00 0.668D+00
 Coeff:      0.167D-03-0.215D-03-0.129D-02-0.775D-02-0.192D-01 0.991D-02
 Coeff:      0.350D+00 0.668D+00
 Gap=     0.419 Goal=   None    Shift=    0.000
 RMSDP=1.42D-06 MaxDP=4.56D-05 DE=-8.75D-08 OVMax= 3.24D-05

 Cycle   9  Pass 1  IDiag  1:
 E= -1351.65801226735     Delta-E=       -0.000000015527 Rises=F Damp=F
 DIIS: error= 1.71D-06 at cycle   9 NSaved=   9.
 NSaved= 9 IEnMin= 9 EnMin= -1351.65801226735     IErMin= 9 ErrMin= 1.71D-06
 ErrMax= 1.71D-06  0.00D+00 EMaxC= 1.00D-01 BMatC= 9.38D-10 BMatP= 1.75D-08
 IDIUse=1 WtCom= 1.00D+00 WtEn= 0.00D+00
 Coeff-Com: -0.474D-04 0.587D-03 0.500D-03-0.102D-02-0.107D-01-0.166D-01
 Coeff-Com: -0.711D-02 0.177D+00 0.858D+00
 Coeff:     -0.474D-04 0.587D-03 0.500D-03-0.102D-02-0.107D-01-0.166D-01
 Coeff:     -0.711D-02 0.177D+00 0.858D+00
 Gap=     0.419 Goal=   None    Shift=    0.000
 RMSDP=4.90D-07 MaxDP=8.90D-06 DE=-1.55D-08 OVMax= 1.31D-05

 Cycle  10  Pass 1  IDiag  1:
 E= -1351.65801226843     Delta-E=       -0.000000001078 Rises=F Damp=F
 DIIS: error= 5.53D-07 at cycle  10 NSaved=  10.
 NSaved=10 IEnMin=10 EnMin= -1351.65801226843     IErMin=10 ErrMin= 5.53D-07
 ErrMax= 5.53D-07  0.00D+00 EMaxC= 1.00D-01 BMatC= 8.78D-11 BMatP= 9.38D-10
 IDIUse=1 WtCom= 1.00D+00 WtEn= 0.00D+00
 Coeff-Com: -0.226D-04 0.223D-03 0.226D-03-0.136D-03-0.318D-02-0.665D-02
 Coeff-Com: -0.150D-01 0.430D-01 0.309D+00 0.672D+00
 Coeff:     -0.226D-04 0.223D-03 0.226D-03-0.136D-03-0.318D-02-0.665D-02
 Coeff:     -0.150D-01 0.430D-01 0.309D+00 0.672D+00
 Gap=     0.419 Goal=   None    Shift=    0.000
 RMSDP=1.26D-07 MaxDP=3.46D-06 DE=-1.08D-09 OVMax= 3.14D-06

 Cycle  11  Pass 1  IDiag  1:
 E= -1351.65801226851     Delta-E=       -0.000000000081 Rises=F Damp=F
 DIIS: error= 2.95D-07 at cycle  11 NSaved=  11.
 NSaved=11 IEnMin=11 EnMin= -1351.65801226851     IErMin=11 ErrMin= 2.95D-07
 ErrMax= 2.95D-07  0.00D+00 EMaxC= 1.00D-01 BMatC= 2.13D-11 BMatP= 8.78D-11
 IDIUse=1 WtCom= 1.00D+00 WtEn= 0.00D+00
 Coeff-Com:  0.323D-05-0.706D-04-0.399D-04 0.270D-03 0.162D-02 0.144D-02
 Coeff-Com: -0.577D-02-0.296D-01-0.977D-01 0.317D+00 0.813D+00
 Coeff:      0.323D-05-0.706D-04-0.399D-04 0.270D-03 0.162D-02 0.144D-02
 Coeff:     -0.577D-02-0.296D-01-0.977D-01 0.317D+00 0.813D+00
 Gap=     0.419 Goal=   None    Shift=    0.000
 RMSDP=7.08D-08 MaxDP=1.48D-06 DE=-8.09D-11 OVMax= 2.49D-06

 Cycle  12  Pass 1  IDiag  1:
 E= -1351.65801226853     Delta-E=       -0.000000000019 Rises=F Damp=F
 DIIS: error= 3.36D-08 at cycle  12 NSaved=  12.
 NSaved=12 IEnMin=12 EnMin= -1351.65801226853     IErMin=12 ErrMin= 3.36D-08
 ErrMax= 3.36D-08  0.00D+00 EMaxC= 1.00D-01 BMatC= 2.35D-13 BMatP= 2.13D-11
 IDIUse=1 WtCom= 1.00D+00 WtEn= 0.00D+00
 Coeff-Com:  0.473D-06-0.150D-05-0.642D-05-0.131D-04-0.321D-04 0.224D-03
 Coeff-Com:  0.924D-03 0.704D-03-0.312D-02-0.491D-01-0.753D-01 0.113D+01
 Coeff:      0.473D-06-0.150D-05-0.642D-05-0.131D-04-0.321D-04 0.224D-03
 Coeff:      0.924D-03 0.704D-03-0.312D-02-0.491D-01-0.753D-01 0.113D+01
 Gap=     0.419 Goal=   None    Shift=    0.000
 RMSDP=1.57D-08 MaxDP=2.99D-07 DE=-1.86D-11 OVMax= 6.80D-07

 Cycle  13  Pass 1  IDiag  1:
 E= -1351.65801226853     Delta-E=        0.000000000001 Rises=F Damp=F
 DIIS: error= 1.16D-08 at cycle  13 NSaved=  13.
 NSaved=13 IEnMin=12 EnMin= -1351.65801226853     IErMin=13 ErrMin= 1.16D-08
 ErrMax= 1.16D-08  0.00D+00 EMaxC= 1.00D-01 BMatC= 1.07D-14 BMatP= 2.35D-13
 IDIUse=1 WtCom= 1.00D+00 WtEn= 0.00D+00
 Coeff-Com: -0.145D-06 0.368D-05 0.229D-05-0.160D-04-0.864D-04-0.803D-04
 Coeff-Com:  0.364D-03 0.163D-02 0.539D-02-0.186D-01-0.453D-01-0.359D-03
 Coeff-Com:  0.106D+01
 Coeff:     -0.145D-06 0.368D-05 0.229D-05-0.160D-04-0.864D-04-0.803D-04
 Coeff:      0.364D-03 0.163D-02 0.539D-02-0.186D-01-0.453D-01-0.359D-03
 Coeff:      0.106D+01
 Gap=     0.419 Goal=   None    Shift=    0.000
 RMSDP=3.54D-09 MaxDP=5.87D-08 DE= 9.09D-13 OVMax= 1.77D-07

 SCF Done:  E(RwB97XD) =  -1351.65801227     A.U. after   13 cycles
            NFock= 13  Conv=0.35D-08     -V/T= 2.0008
 KE= 1.350632293262D+03 PE=-4.806168958803D+03 EE= 1.312547043101D+03
 Leave Link  502 at Sat Sep 14 17:20:53 2024, MaxMem=  4294967296 cpu:            3276.3 elap:             152.6
 (Enter /home/appl/Gaussian/g16/l701.exe)
 ... and contract with generalized density number  0.
 Compute integral first derivatives.
 R6Disp: Adding Grimme-D2 dispersion energy 1st derivatives to the gradient.
 Leave Link  701 at Sat Sep 14 17:21:23 2024, MaxMem=  4294967296 cpu:              61.9 elap:               3.1
 (Enter /home/appl/Gaussian/g16/l702.exe)
 L702 exits ... SP integral derivatives will be done elsewhere.
 Leave Link  702 at Sat Sep 14 17:21:24 2024, MaxMem=  4294967296 cpu:               1.2 elap:               0.1
 (Enter /home/appl/Gaussian/g16/l703.exe)
 Integral derivatives from FoFJK, PRISM(SPDF).
 Compute integral first derivatives, UseDBF=F ICtDFT=           0.
 Calling FoFJK, ICntrl=      2127 FMM=F ISym2X=1 I1Cent= 0 IOpClX= 0 NMat=1 NMatS=1 NMatT=0.
 FoFJK:  IHMeth= 1 ICntrl=    2127 DoSepK=T KAlg= 0 I1Cent=           0 FoldK=F
 IRaf=         1 NMat=       1 IRICut=       1 DoRegI=T DoRafI=F ISym2E= 1 IDoP0=0 IntGTp=1.
 FoFCou: FMM=F IPFlag=           0 FMFlag=      100000 FMFlg1=         800
         NFxFlg=           0 DoJE=F BraDBF=F KetDBF=F FulRan=T
         wScrn=  0.000000 ICntrl=      2527 IOpCl=  0 I1Cent=           0 NGrid=           0
         NMat0=    1 NMatS0=      1 NMatT0=    0 NMatD0=    1 NMtDS0=    0 NMtDT0=    0
 Petite list used in FoFCou.
 Leave Link  703 at Sat Sep 14 17:21:29 2024, MaxMem=  4294967296 cpu:              92.0 elap:               4.6
 (Enter /home/appl/Gaussian/g16/l716.exe)
 Dipole        =-3.55271368D-15 3.55271368D-15 3.11393839D-01
 ***** Axes restored to original set *****
 -------------------------------------------------------------------
 Center     Atomic                   Forces (Hartrees/Bohr)
 Number     Number              X              Y              Z
 -------------------------------------------------------------------
      1       16           0.007350242    0.155248523    0.037271071
      2        9           0.003755764   -0.006386995    0.015517269
      3        8           0.020513734    0.022354903   -0.019905450
      4        8          -0.001422858   -0.179003588   -0.034217415
      5        7          -0.022409725   -0.022409725   -0.000000000
      6       16           0.155248523    0.007350242   -0.037271071
      7        9          -0.006386995    0.003755764   -0.015517269
      8        8          -0.179003588   -0.001422858    0.034217415
      9        8           0.022354903    0.020513734    0.019905450
 -------------------------------------------------------------------
 Cartesian Forces:  Max     0.179003588 RMS     0.067151055
 Leave Link  716 at Sat Sep 14 17:21:30 2024, MaxMem=  4294967296 cpu:               2.1 elap:               0.1
 (Enter /home/appl/Gaussian/g16/l103.exe)

 GradGradGradGradGradGradGradGradGradGradGradGradGradGradGradGradGradGrad
 Berny optimization.
 Using GEDIIS/GDIIS optimizer.
 FormGI is forming the generalized inverse of G from B-inverse, IUseBI=4.
 Internal  Forces:  Max     0.182099005 RMS     0.051617739
 Search for a local minimum.
 Step number   2 out of a maximum of  100
 All quantities printed in internal units (Hartrees-Bohrs-Radians)
 RMS Force = .51618D-01 SwitMx=.10000D-02 MixMth= 1
 Mixed Optimization -- RFO/linear search
 Update second derivatives using D2CorX and points    1    2
 DE= -1.01D-01 DEPred=-9.16D-02 R= 1.11D+00
 TightC=F SS=  1.41D+00  RLast= 3.19D-01 DXNew= 5.0454D-01 9.5720D-01
 Trust test= 1.11D+00 RLast= 3.19D-01 DXMaxT set to 5.05D-01
 ITU=  1  0
 Use linear search instead of GDIIS.
     Eigenvalues ---    0.04055   0.04057   0.14885   0.14995   0.18168
     Eigenvalues ---    0.19399   0.24928   0.25000   0.25000   0.25000
     Eigenvalues ---    0.25000   0.25000   0.26984   0.50972   0.51353
     Eigenvalues ---    0.79596   0.81390   1.23195   1.28723   1.75351
     Eigenvalues ---    2.53498
 RFO step:  Lambda=-9.33264289D-03 EMin= 4.05546992D-02
 Quartic linear search produced a step of  1.07646.
 Iteration  1 RMS(Cart)=  0.13015502 RMS(Int)=  0.00630577
 Iteration  2 RMS(Cart)=  0.00746548 RMS(Int)=  0.00134388
 Iteration  3 RMS(Cart)=  0.00003454 RMS(Int)=  0.00134359
 Iteration  4 RMS(Cart)=  0.00000005 RMS(Int)=  0.00134359
 ITry= 1 IFail=0 DXMaxC= 2.24D-01 DCOld= 1.00D+10 DXMaxT= 5.05D-01 DXLimC= 3.00D+00 Rises=F
 ClnCor:  largest displacement from symmetrization is 7.64D-10 for atom     9.
 Variable       Old X    -DE/DX   Delta X   Delta X   Delta X     New X
                                 (Linear)    (Quad)   (Total)
    R1        3.05909   0.01544   0.03966   0.02519   0.06486   3.12394
    R2        2.68130   0.03606   0.05908  -0.00406   0.05502   2.73631
    R3        2.52882   0.18210   0.13534   0.00091   0.13625   2.66508
    R4        2.91142   0.03104   0.10019  -0.01916   0.08104   2.99246
    R5        2.91142   0.03104   0.10019  -0.01916   0.08104   2.99246
    R6        3.05909   0.01544   0.03966   0.02519   0.06486   3.12394
    R7        2.52882   0.18210   0.13534   0.00091   0.13625   2.66508
    R8        2.68130   0.03606   0.05908  -0.00406   0.05502   2.73631
    A1        1.77242   0.00757   0.04761   0.05908   0.10429   1.87671
    A2        1.85503  -0.01042  -0.09647  -0.06086  -0.15961   1.69542
    A3        1.76152   0.00365   0.00463   0.02094   0.02347   1.78499
    A4        2.07236   0.00482   0.02184   0.03191   0.05311   2.12547
    A5        2.02536  -0.00158   0.03178  -0.01940   0.01095   2.03631
    A6        1.93040  -0.00408  -0.01941  -0.02889  -0.04939   1.88102
    A7        2.27064  -0.00287   0.10236  -0.09237   0.00999   2.28063
    A8        1.76152   0.00365   0.00463   0.02094   0.02347   1.78499
    A9        1.93040  -0.00408  -0.01941  -0.02889  -0.04939   1.88102
   A10        2.02536  -0.00158   0.03178  -0.01940   0.01095   2.03631
   A11        1.85503  -0.01042  -0.09647  -0.06086  -0.15961   1.69542
   A12        1.77242   0.00757   0.04761   0.05908   0.10429   1.87671
   A13        2.07236   0.00482   0.02184   0.03191   0.05311   2.12547
    D1        1.35436   0.00665   0.05485   0.01287   0.06760   1.42196
    D2       -0.54360  -0.00376  -0.01369  -0.06143  -0.07669  -0.62030
    D3       -2.97072  -0.00482  -0.06058  -0.05608  -0.11497  -3.08569
    D4        1.35436   0.00665   0.05485   0.01287   0.06760   1.42196
    D5       -2.97072  -0.00482  -0.06058  -0.05608  -0.11497  -3.08569
    D6       -0.54360  -0.00376  -0.01369  -0.06143  -0.07669  -0.62030
         Item               Value     Threshold  Converged?
 Maximum Force            0.182099     0.000450     NO 
 RMS     Force            0.051618     0.000300     NO 
 Maximum Displacement     0.223962     0.001800     NO 
 RMS     Displacement     0.131989     0.001200     NO 
 Predicted change in Energy=-1.450942D-02
 Lowest energy point so far.  Saving SCF results.
 GradGradGradGradGradGradGradGradGradGradGradGradGradGradGradGradGradGrad

 Leave Link  103 at Sat Sep 14 17:21:38 2024, MaxMem=  4294967296 cpu:             125.8 elap:               7.1
 (Enter /home/appl/Gaussian/g16/l202.exe)
                          Input orientation:                          
 ---------------------------------------------------------------------
 Center     Atomic      Atomic             Coordinates (Angstroms)
 Number     Number       Type             X           Y           Z
 ---------------------------------------------------------------------
      1         16           0        7.085263   11.108184    4.877001
      2          9           0        7.614809   11.093865    6.442944
      3          8           0        8.004638   11.925536    4.113211
      4          8           0        7.013795    9.710447    4.703330
      5          7           0        5.605950   11.652950    5.026900
      6         16           0        5.061184   13.132263    5.176799
      7          9           0        5.046865   13.661809    3.610856
      8          8           0        3.663447   13.060795    5.350470
      9          8           0        5.878536   14.051638    5.940589
 ---------------------------------------------------------------------
                    Distance matrix (angstroms):
                    1          2          3          4          5
     1  S    0.000000
     2  F    1.653118   0.000000
     3  O    1.447995   2.504256   0.000000
     4  O    1.410298   2.302460   2.497324   0.000000
     5  N    1.583542   2.520569   2.581246   2.420753   0.000000
     6  S    2.878135   3.504167   3.354300   3.968083   1.583542
     7  F    3.504167   4.605365   3.466327   4.547040   2.520569
     8  O    3.968083   4.547040   4.654628   4.782098   2.420753
     9  O    3.354300   3.466327   3.518513   4.654628   2.581246
                    6          7          8          9
     6  S    0.000000
     7  F    1.653118   0.000000
     8  O    1.410298   2.302460   0.000000
     9  O    1.447995   2.504256   2.497324   0.000000
 Stoichiometry    F2NO4S2(1-)
 Framework group  C2[C2(N),X(F2O4S2)]
 Deg. of freedom    11
 Full point group                 C2      NOp   2
 RotChk:  IX=0 Diff= 1.13D-02
 Largest Abelian subgroup         C2      NOp   2
 Largest concise Abelian subgroup C2      NOp   2
                         Standard orientation:                         
 ---------------------------------------------------------------------
 Center     Atomic      Atomic             Coordinates (Angstroms)
 Number     Number       Type             X           Y           Z
 ---------------------------------------------------------------------
      1         16           0        0.000000    1.439068    0.055715
      2          9           0       -1.597482    1.658432   -0.308605
      3          8           0        0.752121    1.590376   -1.172336
      4          8           0        0.075041    2.389871    1.094600
      5          7           0       -0.000000   -0.000000    0.716539
      6         16           0       -0.000000   -1.439068    0.055715
      7          9           0        1.597482   -1.658432   -0.308605
      8          8           0       -0.075041   -2.389871    1.094600
      9          8           0       -0.752121   -1.590376   -1.172336
 ---------------------------------------------------------------------
 Rotational constants (GHZ):           2.5220877           0.8394864           0.8206967
 Leave Link  202 at Sat Sep 14 17:21:39 2024, MaxMem=  4294967296 cpu:               2.4 elap:               0.3
 (Enter /home/appl/Gaussian/g16/l301.exe)
 Standard basis: 6-311++G(d,p) (5D, 7F)
 Ernie: Thresh=  0.10000D-02 Tol=  0.10000D-05 Strict=F.
 There are   113 symmetry adapted cartesian basis functions of A   symmetry.
 There are   110 symmetry adapted cartesian basis functions of B   symmetry.
 There are   108 symmetry adapted basis functions of A   symmetry.
 There are   106 symmetry adapted basis functions of B   symmetry.
   214 basis functions,   352 primitive gaussians,   223 cartesian basis functions
    45 alpha electrons       45 beta electrons
       nuclear repulsion energy       765.6000652049 Hartrees.
 IExCor= 4639 DFT=T Ex+Corr=wB97XD ExCW=0 ScaHFX=  1.000000
 ScaDFX=  1.000000  1.000000  1.000000  1.000000 ScalE2=  1.000000  1.000000
 IRadAn=      5 IRanWt=     -1 IRanGd=            0 ICorTp=0 IEmpDi=121
 HFx  wShort=  0.000000 wLong=  0.200000 cFull=  0.222036 cShort=  0.000000 cLong=  0.777964
 DFx  wShort=  0.000000 wLong=  0.200000 cFull=  0.000000 cShort=  0.000000 cLong=  1.000000
 NAtoms=    9 NActive=    9 NUniq=    5 SFac= 3.24D+00 NAtFMM=   60 NAOKFM=F Big=F
 Integral buffers will be    131072 words long.
 Raffenetti 2 integral format.
 Two-electron integral symmetry is turned on.
 R6Disp:  Grimme-D2 Dispersion energy=       -0.0027918360 Hartrees.
 Nuclear repulsion after empirical dispersion term =      765.5972733689 Hartrees.
 Leave Link  301 at Sat Sep 14 17:21:40 2024, MaxMem=  4294967296 cpu:               3.3 elap:               0.2
 (Enter /home/appl/Gaussian/g16/l302.exe)
 NPDir=0 NMtPBC=     1 NCelOv=     1 NCel=       1 NClECP=     1 NCelD=      1
         NCelK=      1 NCelE2=     1 NClLst=     1 CellRange=     0.0.
 One-electron integrals computed using PRISM.
 One-electron integral symmetry used in STVInt
 NBasis=   214 RedAO= T EigKep=  2.39D-04  NBF=   108   106
 NBsUse=   214 1.00D-06 EigRej= -1.00D+00 NBFU=   108   106
 Precomputing XC quadrature grid using
 IXCGrd= 4 IRadAn=           5 IRanWt=          -1 IRanGd=           0 AccXCQ= 0.00D+00.
 Generated NRdTot=       0 NPtTot=           0 NUsed=           0 NTot=          32
 NSgBfM=   223   223   223   223   223 MxSgAt=     9 MxSgA2=     9.
 Leave Link  302 at Sat Sep 14 17:21:47 2024, MaxMem=  4294967296 cpu:             146.1 elap:               6.8
 (Enter /home/appl/Gaussian/g16/l303.exe)
 DipDrv:  MaxL=1.
 Leave Link  303 at Sat Sep 14 17:21:48 2024, MaxMem=  4294967296 cpu:              11.2 elap:               0.6
 (Enter /home/appl/Gaussian/g16/l401.exe)
 Initial guess from the checkpoint file:  "/scr/Gau-139338.chk"
 B after Tr=    -0.000000    0.000000   -0.000000
         Rot=    0.999996    0.000000   -0.000000   -0.002966 Ang=  -0.34 deg.
 Guess basis will be translated and rotated to current coordinates.
 JPrj=2 DoOrth=T DoCkMO=T.
 Initial guess orbital symmetries:
       Occupied  (B) (A) (A) (B) (B) (A) (B) (A) (A) (B) (A) (B)
                 (A) (A) (B) (B) (A) (A) (B) (A) (B) (A) (B) (A)
                 (B) (A) (B) (B) (A) (A) (B) (A) (B) (A) (B) (A)
                 (B) (A) (A) (B) (B) (A) (B) (B) (A)
       Virtual   (A) (B) (B) (A) (A) (B) (A) (A) (B) (A) (B) (B)
                 (A) (B) (A) (A) (B) (B) (B) (A) (A) (A) (B) (A)
                 (B) (A) (B) (B) (A) (B) (B) (A) (A) (B) (A) (A)
                 (A) (B) (B) (A) (B) (A) (B) (B) (A) (B) (B) (A)
                 (B) (A) (A) (B) (A) (B) (A) (B) (B) (A) (B) (A)
                 (B) (B) (A) (A) (B) (B) (A) (B) (A) (A) (B) (B)
                 (A) (A) (B) (A) (A) (B) (B) (A) (B) (A) (B) (A)
                 (A) (B) (B) (A) (A) (A) (B) (B) (A) (B) (B) (A)
                 (B) (A) (A) (B) (A) (B) (A) (A) (B) (A) (B) (B)
                 (B) (A) (A) (B) (A) (B) (A) (B) (A) (B) (A) (B)
                 (A) (B) (A) (B) (A) (B) (A) (A) (B) (B) (A) (A)
                 (B) (B) (A) (B) (A) (B) (A) (B) (B) (A) (A) (B)
                 (A) (B) (A) (B) (B) (A) (A) (B) (A) (B) (A) (B)
                 (A) (B) (A) (B) (A) (A) (B) (A) (B) (B) (A) (A)
                 (B)
 The electronic state of the initial guess is 1-A.
 Generating alternative initial guess.
 ExpMin= 4.05D-02 ExpMax= 9.34D+04 ExpMxC= 3.17D+03 IAcc=3 IRadAn=         5 AccDes= 0.00D+00
 Harris functional with IExCor= 4639 and IRadAn=       5 diagonalized for initial guess.
 HarFok:  IExCor= 4639 AccDes= 0.00D+00 IRadAn=         5 IDoV= 1 UseB2=F ITyADJ=14
 ICtDFT=  3500011 ScaDFX=  1.000000  1.000000  1.000000  1.000000
 FoFCou: FMM=F IPFlag=           0 FMFlag=      100000 FMFlg1=           0
         NFxFlg=           0 DoJE=T BraDBF=F KetDBF=T FulRan=T
         wScrn=  0.000000 ICntrl=       500 IOpCl=  0 I1Cent=   200000004 NGrid=           0
         NMat0=    1 NMatS0=      1 NMatT0=    0 NMatD0=    1 NMtDS0=    0 NMtDT0=    0
 Petite list used in FoFCou.
 Harris En= -1319.88803846496    
 Leave Link  401 at Sat Sep 14 17:21:58 2024, MaxMem=  4294967296 cpu:             189.9 elap:               9.2
 (Enter /home/appl/Gaussian/g16/l502.exe)
 Keep R1 ints in memory in symmetry-blocked form, NReq=793946642.
 FoFCou: FMM=F IPFlag=           0 FMFlag=           0 FMFlg1=           0
         NFxFlg=           0 DoJE=F BraDBF=F KetDBF=F FulRan=T
         wScrn=  0.000000 ICntrl=       600 IOpCl=  0 I1Cent=           0 NGrid=           0
         NMat0=    1 NMatS0=  23005 NMatT0=    0 NMatD0=    1 NMtDS0=    0 NMtDT0=    0
 Petite list used in FoFCou.
 Closed shell SCF:
 Using DIIS extrapolation, IDIIS=  1040.
 NGot=  4294967296 LenX=  4162486518 LenY=  4162436348
 Requested convergence on RMS density matrix=1.00D-08 within 128 cycles.
 Requested convergence on MAX density matrix=1.00D-06.
 Requested convergence on             energy=1.00D-06.
 No special actions if energy rises.

 Cycle   1  Pass 1  IDiag  1:
 E= -1351.62209232005    
 DIIS: error= 1.06D-02 at cycle   1 NSaved=   1.
 NSaved= 1 IEnMin= 1 EnMin= -1351.62209232005     IErMin= 1 ErrMin= 1.06D-02
 ErrMax= 1.06D-02  0.00D+00 EMaxC= 1.00D-01 BMatC= 4.58D-02 BMatP= 4.58D-02
 IDIUse=3 WtCom= 8.94D-01 WtEn= 1.06D-01
 Coeff-Com:  0.100D+01
 Coeff-En:   0.100D+01
 Coeff:      0.100D+01
 Recover alternate guess density for next cycle.
 RMSDP=5.79D-03 MaxDP=1.67D-01              OVMax= 0.00D+00

 Cycle   2  Pass 1  IDiag  1:
 E= -1351.07458257203     Delta-E=        0.547509748026 Rises=F Damp=F
 Switch densities from cycles 1 and 2 for lowest energy.
 DIIS: error= 1.26D-01 at cycle   2 NSaved=   2.
 NSaved= 2 IEnMin= 1 EnMin= -1351.62209232005     IErMin= 1 ErrMin= 1.06D-02
 ErrMax= 1.26D-01  0.00D+00 EMaxC= 1.00D+00 BMatC= 3.88D+00 BMatP= 4.58D-02
 IDIUse=1 WtCom= 1.00D+00 WtEn= 0.00D+00
 Coeff-Com:  0.988D+00 0.121D-01
 Coeff:      0.988D+00 0.121D-01
 Gap=     0.433 Goal=   None    Shift=    0.000
 RMSDP=3.61D-03 MaxDP=1.20D-01 DE= 5.48D-01 OVMax= 5.52D-02

 Cycle   3  Pass 1  IDiag  1:
 E= -1351.67509474664     Delta-E=       -0.600512174617 Rises=F Damp=F
 DIIS: error= 7.42D-03 at cycle   3 NSaved=   3.
 NSaved= 3 IEnMin= 3 EnMin= -1351.67509474664     IErMin= 3 ErrMin= 7.42D-03
 ErrMax= 7.42D-03  0.00D+00 EMaxC= 1.00D+00 BMatC= 1.20D-02 BMatP= 4.58D-02
 IDIUse=1 WtCom= 1.00D+00 WtEn= 0.00D+00
 Coeff-Com:  0.220D+00 0.658D-02 0.773D+00
 Coeff:      0.220D+00 0.658D-02 0.773D+00
 Gap=     0.429 Goal=   None    Shift=    0.000
 RMSDP=1.04D-03 MaxDP=2.78D-02 DE=-6.01D-01 OVMax= 3.00D-02

 Cycle   4  Pass 1  IDiag  1:
 E= -1351.67811733209     Delta-E=       -0.003022585448 Rises=F Damp=F
 DIIS: error= 6.61D-03 at cycle   4 NSaved=   4.
 NSaved= 4 IEnMin= 4 EnMin= -1351.67811733209     IErMin= 4 ErrMin= 6.61D-03
 ErrMax= 6.61D-03  0.00D+00 EMaxC= 1.00D+00 BMatC= 9.20D-03 BMatP= 1.20D-02
 IDIUse=1 WtCom= 1.00D+00 WtEn= 0.00D+00
 Coeff-Com: -0.839D-01 0.107D-02 0.483D+00 0.600D+00
 Coeff:     -0.839D-01 0.107D-02 0.483D+00 0.600D+00
 Gap=     0.427 Goal=   None    Shift=    0.000
 RMSDP=6.08D-04 MaxDP=9.67D-03 DE=-3.02D-03 OVMax= 1.76D-02

 Cycle   5  Pass 1  IDiag  1:
 E= -1351.68462060662     Delta-E=       -0.006503274527 Rises=F Damp=F
 DIIS: error= 6.35D-04 at cycle   5 NSaved=   5.
 NSaved= 5 IEnMin= 5 EnMin= -1351.68462060662     IErMin= 5 ErrMin= 6.35D-04
 ErrMax= 6.35D-04  0.00D+00 EMaxC= 1.00D+00 BMatC= 1.34D-04 BMatP= 9.20D-03
 IDIUse=1 WtCom= 1.00D+00 WtEn= 0.00D+00
 Coeff-Com: -0.304D-01 0.380D-03 0.981D-01 0.179D+00 0.753D+00
 Coeff:     -0.304D-01 0.380D-03 0.981D-01 0.179D+00 0.753D+00
 Gap=     0.423 Goal=   None    Shift=    0.000
 RMSDP=8.84D-05 MaxDP=1.74D-03 DE=-6.50D-03 OVMax= 2.27D-03

 Cycle   6  Pass 1  IDiag  1:
 E= -1351.68472142170     Delta-E=       -0.000100815079 Rises=F Damp=F
 DIIS: error= 2.48D-04 at cycle   6 NSaved=   6.
 NSaved= 6 IEnMin= 6 EnMin= -1351.68472142170     IErMin= 6 ErrMin= 2.48D-04
 ErrMax= 2.48D-04  0.00D+00 EMaxC= 1.00D+00 BMatC= 3.50D-05 BMatP= 1.34D-04
 IDIUse=1 WtCom= 1.00D+00 WtEn= 0.00D+00
 Coeff-Com: -0.282D-02 0.315D-03-0.230D-01 0.315D-02 0.360D+00 0.662D+00
 Coeff:     -0.282D-02 0.315D-03-0.230D-01 0.315D-02 0.360D+00 0.662D+00
 Gap=     0.424 Goal=   None    Shift=    0.000
 RMSDP=6.02D-05 MaxDP=1.82D-03 DE=-1.01D-04 OVMax= 1.10D-03

 Cycle   7  Pass 1  IDiag  1:
 E= -1351.68474787912     Delta-E=       -0.000026457420 Rises=F Damp=F
 DIIS: error= 9.82D-05 at cycle   7 NSaved=   7.
 NSaved= 7 IEnMin= 7 EnMin= -1351.68474787912     IErMin= 7 ErrMin= 9.82D-05
 ErrMax= 9.82D-05  0.00D+00 EMaxC= 1.00D+00 BMatC= 3.53D-06 BMatP= 3.50D-05
 IDIUse=1 WtCom= 1.00D+00 WtEn= 0.00D+00
 Coeff-Com:  0.302D-02-0.949D-04-0.235D-01-0.242D-01 0.475D-01 0.279D+00
 Coeff-Com:  0.718D+00
 Coeff:      0.302D-02-0.949D-04-0.235D-01-0.242D-01 0.475D-01 0.279D+00
 Coeff:      0.718D+00
 Gap=     0.424 Goal=   None    Shift=    0.000
 RMSDP=1.64D-05 MaxDP=3.31D-04 DE=-2.65D-05 OVMax= 4.29D-04

 Cycle   8  Pass 1  IDiag  1:
 E= -1351.68475111246     Delta-E=       -0.000003233344 Rises=F Damp=F
 DIIS: error= 3.73D-05 at cycle   8 NSaved=   8.
 NSaved= 8 IEnMin= 8 EnMin= -1351.68475111246     IErMin= 8 ErrMin= 3.73D-05
 ErrMax= 3.73D-05  0.00D+00 EMaxC= 1.00D+00 BMatC= 2.92D-07 BMatP= 3.53D-06
 IDIUse=1 WtCom= 1.00D+00 WtEn= 0.00D+00
 Coeff-Com:  0.142D-02-0.607D-04-0.755D-02-0.104D-01-0.854D-02 0.552D-01
 Coeff-Com:  0.286D+00 0.684D+00
 Coeff:      0.142D-02-0.607D-04-0.755D-02-0.104D-01-0.854D-02 0.552D-01
 Coeff:      0.286D+00 0.684D+00
 Gap=     0.424 Goal=   None    Shift=    0.000
 RMSDP=5.70D-06 MaxDP=1.17D-04 DE=-3.23D-06 OVMax= 1.90D-04

 Cycle   9  Pass 1  IDiag  1:
 E= -1351.68475140938     Delta-E=       -0.000000296918 Rises=F Damp=F
 DIIS: error= 1.65D-05 at cycle   9 NSaved=   9.
 NSaved= 9 IEnMin= 9 EnMin= -1351.68475140938     IErMin= 9 ErrMin= 1.65D-05
 ErrMax= 1.65D-05  0.00D+00 EMaxC= 1.00D+00 BMatC= 4.13D-08 BMatP= 2.92D-07
 IDIUse=1 WtCom= 1.00D+00 WtEn= 0.00D+00
 Coeff-Com:  0.123D-04 0.133D-04 0.116D-02-0.161D-04-0.116D-01-0.296D-01
 Coeff-Com: -0.195D-01 0.268D+00 0.792D+00
 Coeff:      0.123D-04 0.133D-04 0.116D-02-0.161D-04-0.116D-01-0.296D-01
 Coeff:     -0.195D-01 0.268D+00 0.792D+00
 Gap=     0.424 Goal=   None    Shift=    0.000
 RMSDP=2.57D-06 MaxDP=5.78D-05 DE=-2.97D-07 OVMax= 6.33D-05

 Cycle  10  Pass 1  IDiag  1:
 E= -1351.68475145652     Delta-E=       -0.000000047142 Rises=F Damp=F
 DIIS: error= 2.57D-06 at cycle  10 NSaved=  10.
 NSaved=10 IEnMin=10 EnMin= -1351.68475145652     IErMin=10 ErrMin= 2.57D-06
 ErrMax= 2.57D-06  0.00D+00 EMaxC= 1.00D+00 BMatC= 2.26D-09 BMatP= 4.13D-08
 IDIUse=1 WtCom= 1.00D+00 WtEn= 0.00D+00
 Coeff-Com: -0.664D-04 0.353D-05 0.755D-03 0.609D-03-0.257D-02-0.117D-01
 Coeff-Com: -0.233D-01 0.454D-01 0.238D+00 0.753D+00
 Coeff:     -0.664D-04 0.353D-05 0.755D-03 0.609D-03-0.257D-02-0.117D-01
 Coeff:     -0.233D-01 0.454D-01 0.238D+00 0.753D+00
 Gap=     0.424 Goal=   None    Shift=    0.000
 RMSDP=4.99D-07 MaxDP=1.19D-05 DE=-4.71D-08 OVMax= 1.86D-05

 Cycle  11  Pass 1  IDiag  1:
 E= -1351.68475145865     Delta-E=       -0.000000002133 Rises=F Damp=F
 DIIS: error= 1.28D-06 at cycle  11 NSaved=  11.
 NSaved=11 IEnMin=11 EnMin= -1351.68475145865     IErMin=11 ErrMin= 1.28D-06
 ErrMax= 1.28D-06  0.00D+00 EMaxC= 1.00D+00 BMatC= 6.86D-10 BMatP= 2.26D-09
 IDIUse=1 WtCom= 1.00D+00 WtEn= 0.00D+00
 Coeff-Com: -0.387D-04-0.477D-06 0.235D-03 0.341D-03 0.394D-03-0.139D-02
 Coeff-Com: -0.856D-02-0.188D-01-0.939D-02 0.375D+00 0.663D+00
 Coeff:     -0.387D-04-0.477D-06 0.235D-03 0.341D-03 0.394D-03-0.139D-02
 Coeff:     -0.856D-02-0.188D-01-0.939D-02 0.375D+00 0.663D+00
 Gap=     0.424 Goal=   None    Shift=    0.000
 RMSDP=3.14D-07 MaxDP=9.46D-06 DE=-2.13D-09 OVMax= 7.70D-06

 Cycle  12  Pass 1  IDiag  1:
 E= -1351.68475145928     Delta-E=       -0.000000000629 Rises=F Damp=F
 DIIS: error= 3.11D-07 at cycle  12 NSaved=  12.
 NSaved=12 IEnMin=12 EnMin= -1351.68475145928     IErMin=12 ErrMin= 3.11D-07
 ErrMax= 3.11D-07  0.00D+00 EMaxC= 1.00D+00 BMatC= 2.02D-11 BMatP= 6.86D-10
 IDIUse=1 WtCom= 1.00D+00 WtEn= 0.00D+00
 Coeff-Com:  0.685D-05-0.237D-06-0.930D-04-0.765D-04 0.387D-03 0.135D-02
 Coeff-Com:  0.243D-02-0.708D-02-0.318D-01-0.703D-01 0.454D-01 0.106D+01
 Coeff:      0.685D-05-0.237D-06-0.930D-04-0.765D-04 0.387D-03 0.135D-02
 Coeff:      0.243D-02-0.708D-02-0.318D-01-0.703D-01 0.454D-01 0.106D+01
 Gap=     0.424 Goal=   None    Shift=    0.000
 RMSDP=1.12D-07 MaxDP=2.59D-06 DE=-6.29D-10 OVMax= 5.04D-06

 Cycle  13  Pass 1  IDiag  1:
 E= -1351.68475145934     Delta-E=       -0.000000000059 Rises=F Damp=F
 DIIS: error= 5.32D-08 at cycle  13 NSaved=  13.
 NSaved=13 IEnMin=13 EnMin= -1351.68475145934     IErMin=13 ErrMin= 5.32D-08
 ErrMax= 5.32D-08  0.00D+00 EMaxC= 1.00D+00 BMatC= 6.70D-13 BMatP= 2.02D-11
 IDIUse=1 WtCom= 1.00D+00 WtEn= 0.00D+00
 Coeff-Com:  0.817D-06 0.588D-07 0.245D-06-0.758D-05-0.373D-04-0.653D-04
 Coeff-Com:  0.227D-03 0.137D-02 0.244D-02-0.753D-02-0.348D-01-0.101D+00
 Coeff-Com:  0.114D+01
 Coeff:      0.817D-06 0.588D-07 0.245D-06-0.758D-05-0.373D-04-0.653D-04
 Coeff:      0.227D-03 0.137D-02 0.244D-02-0.753D-02-0.348D-01-0.101D+00
 Coeff:      0.114D+01
 Gap=     0.424 Goal=   None    Shift=    0.000
 RMSDP=2.73D-08 MaxDP=5.74D-07 DE=-5.91D-11 OVMax= 1.11D-06

 Cycle  14  Pass 1  IDiag  1:
 E= -1351.68475145935     Delta-E=       -0.000000000008 Rises=F Damp=F
 DIIS: error= 1.17D-08 at cycle  14 NSaved=  14.
 NSaved=14 IEnMin=14 EnMin= -1351.68475145935     IErMin=14 ErrMin= 1.17D-08
 ErrMax= 1.17D-08  0.00D+00 EMaxC= 1.00D+00 BMatC= 3.52D-14 BMatP= 6.70D-13
 IDIUse=1 WtCom= 1.00D+00 WtEn= 0.00D+00
 Coeff-Com: -0.265D-06-0.140D-08 0.399D-05 0.386D-05-0.203D-04-0.607D-04
 Coeff-Com: -0.110D-03 0.405D-03 0.132D-02 0.349D-02-0.607D-03-0.529D-01
 Coeff-Com: -0.649D-02 0.105D+01
 Coeff:     -0.265D-06-0.140D-08 0.399D-05 0.386D-05-0.203D-04-0.607D-04
 Coeff:     -0.110D-03 0.405D-03 0.132D-02 0.349D-02-0.607D-03-0.529D-01
 Coeff:     -0.649D-02 0.105D+01
 Gap=     0.424 Goal=   None    Shift=    0.000
 RMSDP=6.31D-09 MaxDP=1.62D-07 DE=-8.19D-12 OVMax= 2.12D-07

 SCF Done:  E(RwB97XD) =  -1351.68475146     A.U. after   14 cycles
            NFock= 14  Conv=0.63D-08     -V/T= 2.0016
 KE= 1.349516739880D+03 PE=-4.753412609656D+03 EE= 1.286613844948D+03
 Leave Link  502 at Sat Sep 14 17:24:22 2024, MaxMem=  4294967296 cpu:            2531.8 elap:             143.4
 (Enter /home/appl/Gaussian/g16/l701.exe)
 ... and contract with generalized density number  0.
 Compute integral first derivatives.
 R6Disp: Adding Grimme-D2 dispersion energy 1st derivatives to the gradient.
 Leave Link  701 at Sat Sep 14 17:25:07 2024, MaxMem=  4294967296 cpu:              75.7 elap:               4.4
 (Enter /home/appl/Gaussian/g16/l702.exe)
 L702 exits ... SP integral derivatives will be done elsewhere.
 Leave Link  702 at Sat Sep 14 17:25:07 2024, MaxMem=  4294967296 cpu:               2.1 elap:               0.2
 (Enter /home/appl/Gaussian/g16/l703.exe)
 Integral derivatives from FoFJK, PRISM(SPDF).
 Compute integral first derivatives, UseDBF=F ICtDFT=           0.
 Calling FoFJK, ICntrl=      2127 FMM=F ISym2X=1 I1Cent= 0 IOpClX= 0 NMat=1 NMatS=1 NMatT=0.
 FoFJK:  IHMeth= 1 ICntrl=    2127 DoSepK=T KAlg= 0 I1Cent=           0 FoldK=F
 IRaf=         1 NMat=       1 IRICut=       1 DoRegI=T DoRafI=F ISym2E= 1 IDoP0=0 IntGTp=1.
 FoFCou: FMM=F IPFlag=           0 FMFlag=      100000 FMFlg1=         800
         NFxFlg=           0 DoJE=F BraDBF=F KetDBF=F FulRan=T
         wScrn=  0.000000 ICntrl=      2527 IOpCl=  0 I1Cent=           0 NGrid=           0
         NMat0=    1 NMatS0=      1 NMatT0=    0 NMatD0=    1 NMtDS0=    0 NMtDT0=    0
 Petite list used in FoFCou.
 Leave Link  703 at Sat Sep 14 17:25:14 2024, MaxMem=  4294967296 cpu:             105.5 elap:               6.2
 (Enter /home/appl/Gaussian/g16/l716.exe)
 Dipole        = 5.32907052D-15 2.48689958D-14-1.60143432D-01
 ***** Axes restored to original set *****
 -------------------------------------------------------------------
 Center     Atomic                   Forces (Hartrees/Bohr)
 Number     Number              X              Y              Z
 -------------------------------------------------------------------
      1       16          -0.005121375    0.028130666    0.016878973
      2        9           0.006076104    0.017528797    0.000123210
      3        8          -0.004516783   -0.004984718    0.009237233
      4        8          -0.000481408   -0.038736575   -0.023333356
      5        7           0.002105291    0.002105291   -0.000000000
      6       16           0.028130666   -0.005121375   -0.016878973
      7        9           0.017528797    0.006076104   -0.000123210
      8        8          -0.038736575   -0.000481408    0.023333356
      9        8          -0.004984718   -0.004516783   -0.009237233
 -------------------------------------------------------------------
 Cartesian Forces:  Max     0.038736575 RMS     0.016390744
 Leave Link  716 at Sat Sep 14 17:25:15 2024, MaxMem=  4294967296 cpu:               2.6 elap:               0.2
 (Enter /home/appl/Gaussian/g16/l103.exe)

 GradGradGradGradGradGradGradGradGradGradGradGradGradGradGradGradGradGrad
 Berny optimization.
 Using GEDIIS/GDIIS optimizer.
 FormGI is forming the generalized inverse of G from B-inverse, IUseBI=4.
 Internal  Forces:  Max     0.041289324 RMS     0.016908204
 Search for a local minimum.
 Step number   3 out of a maximum of  100
 All quantities printed in internal units (Hartrees-Bohrs-Radians)
 RMS Force = .16908D-01 SwitMx=.10000D-02 MixMth= 1
 Mixed Optimization -- RFO/linear search
 Update second derivatives using D2CorX and points    2    3
 DE= -2.67D-02 DEPred=-1.45D-02 R= 1.84D+00
 TightC=F SS=  1.41D+00  RLast= 4.44D-01 DXNew= 8.4853D-01 1.3306D+00
 Trust test= 1.84D+00 RLast= 4.44D-01 DXMaxT set to 8.49D-01
 ITU=  1  1  0
 Use linear search instead of GDIIS.
     Eigenvalues ---    0.04026   0.04055   0.14778   0.14816   0.18190
     Eigenvalues ---    0.21612   0.24957   0.25000   0.25000   0.25000
     Eigenvalues ---    0.25000   0.25268   0.27156   0.47509   0.51353
     Eigenvalues ---    0.71402   0.79596   1.14985   1.28723   1.50608
     Eigenvalues ---    2.53498
 RFO step:  Lambda=-1.83708322D-02 EMin= 4.02590613D-02
 Quartic linear search produced a step of -0.16090.
 Iteration  1 RMS(Cart)=  0.10131286 RMS(Int)=  0.00440491
 Iteration  2 RMS(Cart)=  0.00619052 RMS(Int)=  0.00056942
 Iteration  3 RMS(Cart)=  0.00001377 RMS(Int)=  0.00056935
 Iteration  4 RMS(Cart)=  0.00000001 RMS(Int)=  0.00056935
 ITry= 1 IFail=0 DXMaxC= 2.30D-01 DCOld= 1.00D+10 DXMaxT= 8.49D-01 DXLimC= 3.00D+00 Rises=F
 ClnCor:  largest displacement from symmetrization is 7.80D-11 for atom     8.
 Variable       Old X    -DE/DX   Delta X   Delta X   Delta X     New X
                                 (Linear)    (Quad)   (Total)
    R1        3.12394   0.00191  -0.01043   0.01779   0.00736   3.13130
    R2        2.73631  -0.01055  -0.00885   0.01000   0.00114   2.73746
    R3        2.66508   0.04129  -0.02192   0.05609   0.03417   2.69925
    R4        2.99246  -0.00472  -0.01304   0.01985   0.00681   2.99927
    R5        2.99246  -0.00472  -0.01304   0.01985   0.00681   2.99927
    R6        3.12394   0.00191  -0.01043   0.01779   0.00736   3.13130
    R7        2.66508   0.04129  -0.02192   0.05609   0.03417   2.69925
    R8        2.73631  -0.01055  -0.00885   0.01000   0.00114   2.73746
    A1        1.87671  -0.01436  -0.01678  -0.04489  -0.06257   1.81414
    A2        1.69542   0.02858   0.02568   0.09912   0.12376   1.81918
    A3        1.78499  -0.00060  -0.00378   0.00547   0.00083   1.78582
    A4        2.12547  -0.00817  -0.00854  -0.02412  -0.03318   2.09229
    A5        2.03631  -0.00752  -0.00176  -0.03292  -0.03536   2.00095
    A6        1.88102   0.00837   0.00795   0.02267   0.02991   1.91093
    A7        2.28063  -0.02137  -0.00161  -0.06191  -0.06351   2.21712
    A8        1.78499  -0.00060  -0.00378   0.00547   0.00083   1.78582
    A9        1.88102   0.00837   0.00795   0.02267   0.02991   1.91093
   A10        2.03631  -0.00752  -0.00176  -0.03292  -0.03536   2.00095
   A11        1.69542   0.02858   0.02568   0.09912   0.12376   1.81918
   A12        1.87671  -0.01436  -0.01678  -0.04489  -0.06257   1.81414
   A13        2.12547  -0.00817  -0.00854  -0.02412  -0.03318   2.09229
    D1        1.42196  -0.01832  -0.01088  -0.05902  -0.07006   1.35189
    D2       -0.62030   0.00345   0.01234   0.00879   0.02071  -0.59959
    D3       -3.08569   0.01499   0.01850   0.05751   0.07659  -3.00910
    D4        1.42196  -0.01832  -0.01088  -0.05902  -0.07006   1.35189
    D5       -3.08569   0.01499   0.01850   0.05751   0.07659  -3.00910
    D6       -0.62030   0.00345   0.01234   0.00879   0.02071  -0.59959
         Item               Value     Threshold  Converged?
 Maximum Force            0.041289     0.000450     NO 
 RMS     Force            0.016908     0.000300     NO 
 Maximum Displacement     0.230142     0.001800     NO 
 RMS     Displacement     0.104133     0.001200     NO 
 Predicted change in Energy=-1.000800D-02
 Lowest energy point so far.  Saving SCF results.
 GradGradGradGradGradGradGradGradGradGradGradGradGradGradGradGradGradGrad

 Leave Link  103 at Sat Sep 14 17:25:32 2024, MaxMem=  4294967296 cpu:             184.9 elap:              16.2
 (Enter /home/appl/Gaussian/g16/l202.exe)
                          Input orientation:                          
 ---------------------------------------------------------------------
 Center     Atomic      Atomic             Coordinates (Angstroms)
 Number     Number       Type             X           Y           Z
 ---------------------------------------------------------------------
      1         16           0        7.049161   11.095423    4.898097
      2          9           0        7.596898   11.215651    6.457334
      3          8           0        7.919366   11.982088    4.153108
      4          8           0        7.062771    9.692820    4.628300
      5          7           0        5.548308   11.595308    5.026900
      6         16           0        5.048423   13.096161    5.155703
      7          9           0        5.168651   13.643898    3.596466
      8          8           0        3.645820   13.109771    5.425500
      9          8           0        5.935088   13.966366    5.900692
 ---------------------------------------------------------------------
                    Distance matrix (angstroms):
                    1          2          3          4          5
     1  S    0.000000
     2  F    1.657013   0.000000
     3  O    1.448600   2.449667   0.000000
     4  O    1.428380   2.439195   2.490042   0.000000
     5  N    1.587146   2.527252   2.556370   2.464131   0.000000
     6  S    2.841173   3.424221   3.238621   3.989797   1.587146
     7  F    3.424221   4.469601   3.261579   4.501488   2.527252
     8  O    3.989797   4.501488   4.599331   4.897616   2.464131
     9  O    3.238621   3.261579   3.305869   4.599331   2.556370
                    6          7          8          9
     6  S    0.000000
     7  F    1.657013   0.000000
     8  O    1.428380   2.439195   0.000000
     9  O    1.448600   2.449667   2.490042   0.000000
 Stoichiometry    F2NO4S2(1-)
 Framework group  C2[C2(N),X(F2O4S2)]
 Deg. of freedom    11
 Full point group                 C2      NOp   2
 RotChk:  IX=0 Diff= 1.92D-02
 Largest Abelian subgroup         C2      NOp   2
 Largest concise Abelian subgroup C2      NOp   2
                         Standard orientation:                         
 ---------------------------------------------------------------------
 Center     Atomic      Atomic             Coordinates (Angstroms)
 Number     Number       Type             X           Y           Z
 ---------------------------------------------------------------------
      1         16           0       -0.000000    1.420587    0.086622
      2          9           0       -1.580223    1.580262   -0.385701
      3          8           0        0.742976    1.476543   -1.155673
      4          8           0        0.177889    2.442338    1.068788
      5          7           0        0.000000    0.000000    0.794413
      6         16           0        0.000000   -1.420587    0.086622
      7          9           0        1.580223   -1.580262   -0.385701
      8          8           0       -0.177889   -2.442338    1.068788
      9          8           0       -0.742976   -1.476543   -1.155673
 ---------------------------------------------------------------------
 Rotational constants (GHZ):           2.4994842           0.8649006           0.8450494
 Leave Link  202 at Sat Sep 14 17:25:33 2024, MaxMem=  4294967296 cpu:               4.2 elap:               0.4
 (Enter /home/appl/Gaussian/g16/l301.exe)
 Standard basis: 6-311++G(d,p) (5D, 7F)
 Ernie: Thresh=  0.10000D-02 Tol=  0.10000D-05 Strict=F.
 There are   113 symmetry adapted cartesian basis functions of A   symmetry.
 There are   110 symmetry adapted cartesian basis functions of B   symmetry.
 There are   108 symmetry adapted basis functions of A   symmetry.
 There are   106 symmetry adapted basis functions of B   symmetry.
   214 basis functions,   352 primitive gaussians,   223 cartesian basis functions
    45 alpha electrons       45 beta electrons
       nuclear repulsion energy       767.9268141804 Hartrees.
 IExCor= 4639 DFT=T Ex+Corr=wB97XD ExCW=0 ScaHFX=  1.000000
 ScaDFX=  1.000000  1.000000  1.000000  1.000000 ScalE2=  1.000000  1.000000
 IRadAn=      5 IRanWt=     -1 IRanGd=            0 ICorTp=0 IEmpDi=121
 HFx  wShort=  0.000000 wLong=  0.200000 cFull=  0.222036 cShort=  0.000000 cLong=  0.777964
 DFx  wShort=  0.000000 wLong=  0.200000 cFull=  0.000000 cShort=  0.000000 cLong=  1.000000
 NAtoms=    9 NActive=    9 NUniq=    5 SFac= 3.24D+00 NAtFMM=   60 NAOKFM=F Big=F
 Integral buffers will be    131072 words long.
 Raffenetti 2 integral format.
 Two-electron integral symmetry is turned on.
 R6Disp:  Grimme-D2 Dispersion energy=       -0.0028702506 Hartrees.
 Nuclear repulsion after empirical dispersion term =      767.9239439297 Hartrees.
 Leave Link  301 at Sat Sep 14 17:25:34 2024, MaxMem=  4294967296 cpu:               4.3 elap:               0.3
 (Enter /home/appl/Gaussian/g16/l302.exe)
 NPDir=0 NMtPBC=     1 NCelOv=     1 NCel=       1 NClECP=     1 NCelD=      1
         NCelK=      1 NCelE2=     1 NClLst=     1 CellRange=     0.0.
 One-electron integrals computed using PRISM.
 One-electron integral symmetry used in STVInt
 NBasis=   214 RedAO= T EigKep=  2.50D-04  NBF=   108   106
 NBsUse=   214 1.00D-06 EigRej= -1.00D+00 NBFU=   108   106
 Precomputing XC quadrature grid using
 IXCGrd= 4 IRadAn=           5 IRanWt=          -1 IRanGd=           0 AccXCQ= 0.00D+00.
 Generated NRdTot=       0 NPtTot=           0 NUsed=           0 NTot=          32
 NSgBfM=   223   223   223   223   223 MxSgAt=     9 MxSgA2=     9.
 Leave Link  302 at Sat Sep 14 17:25:43 2024, MaxMem=  4294967296 cpu:             182.2 elap:               8.6
 (Enter /home/appl/Gaussian/g16/l303.exe)
 DipDrv:  MaxL=1.
 Leave Link  303 at Sat Sep 14 17:25:44 2024, MaxMem=  4294967296 cpu:               9.1 elap:               0.5
 (Enter /home/appl/Gaussian/g16/l401.exe)
 Initial guess from the checkpoint file:  "/scr/Gau-139338.chk"
 B after Tr=     0.000000   -0.000000   -0.000000
         Rot=    0.999985   -0.000000    0.000000    0.005491 Ang=   0.63 deg.
 Guess basis will be translated and rotated to current coordinates.
 JPrj=2 DoOrth=T DoCkMO=T.
 Initial guess orbital symmetries:
       Occupied  (B) (A) (A) (B) (B) (A) (B) (A) (A) (B) (A) (B)
                 (A) (B) (A) (A) (B) (A) (B) (A) (B) (A) (B) (A)
                 (B) (A) (B) (B) (A) (A) (B) (A) (B) (A) (B) (A)
                 (B) (A) (A) (B) (B) (A) (B) (B) (A)
       Virtual   (A) (B) (A) (B) (A) (B) (A) (A) (B) (A) (B) (B)
                 (A) (B) (A) (B) (A) (A) (B) (B) (A) (A) (B) (B)
                 (A) (A) (B) (B) (A) (B) (A) (B) (B) (A) (A) (A)
                 (A) (B) (B) (A) (B) (B) (A) (B) (A) (B) (B) (A)
                 (B) (A) (A) (B) (A) (B) (A) (B) (A) (B) (B) (A)
                 (B) (B) (A) (A) (B) (B) (A) (A) (B) (B) (A) (B)
                 (A) (A) (A) (B) (B) (A) (A) (B) (B) (A) (A) (B)
                 (B) (A) (A) (B) (A) (B) (A) (B) (A) (B) (B) (A)
                 (A) (B) (A) (B) (A) (A) (B) (B) (A) (A) (B) (B)
                 (A) (B) (A) (B) (A) (B) (A) (B) (A) (B) (A) (A)
                 (B) (B) (A) (B) (A) (B) (A) (A) (B) (B) (A) (B)
                 (A) (B) (A) (B) (B) (A) (B) (A) (B) (A) (B) (A)
                 (A) (B) (A) (B) (B) (A) (A) (B) (A) (B) (A) (B)
                 (A) (B) (A) (B) (A) (A) (B) (A) (B) (B) (A) (A)
                 (B)
 The electronic state of the initial guess is 1-A.
 Generating alternative initial guess.
 ExpMin= 4.05D-02 ExpMax= 9.34D+04 ExpMxC= 3.17D+03 IAcc=3 IRadAn=         5 AccDes= 0.00D+00
 Harris functional with IExCor= 4639 and IRadAn=       5 diagonalized for initial guess.
 HarFok:  IExCor= 4639 AccDes= 0.00D+00 IRadAn=         5 IDoV= 1 UseB2=F ITyADJ=14
 ICtDFT=  3500011 ScaDFX=  1.000000  1.000000  1.000000  1.000000
 FoFCou: FMM=F IPFlag=           0 FMFlag=      100000 FMFlg1=           0
         NFxFlg=           0 DoJE=T BraDBF=F KetDBF=T FulRan=T
         wScrn=  0.000000 ICntrl=       500 IOpCl=  0 I1Cent=   200000004 NGrid=           0
         NMat0=    1 NMatS0=      1 NMatT0=    0 NMatD0=    1 NMtDS0=    0 NMtDT0=    0
 Petite list used in FoFCou.
 Harris En= -1319.91405622380    
 Leave Link  401 at Sat Sep 14 17:25:56 2024, MaxMem=  4294967296 cpu:             205.6 elap:              10.7
 (Enter /home/appl/Gaussian/g16/l502.exe)
 Keep R1 ints in memory in symmetry-blocked form, NReq=793946642.
 FoFCou: FMM=F IPFlag=           0 FMFlag=           0 FMFlg1=           0
         NFxFlg=           0 DoJE=F BraDBF=F KetDBF=F FulRan=T
         wScrn=  0.000000 ICntrl=       600 IOpCl=  0 I1Cent=           0 NGrid=           0
         NMat0=    1 NMatS0=  23005 NMatT0=    0 NMatD0=    1 NMtDS0=    0 NMtDT0=    0
 Petite list used in FoFCou.
 Closed shell SCF:
 Using DIIS extrapolation, IDIIS=  1040.
 NGot=  4294967296 LenX=  4162486518 LenY=  4162436348
 Requested convergence on RMS density matrix=1.00D-08 within 128 cycles.
 Requested convergence on MAX density matrix=1.00D-06.
 Requested convergence on             energy=1.00D-06.
 No special actions if energy rises.

 Cycle   1  Pass 1  IDiag  1:
 E= -1351.66229802994    
 DIIS: error= 6.35D-03 at cycle   1 NSaved=   1.
 NSaved= 1 IEnMin= 1 EnMin= -1351.66229802994     IErMin= 1 ErrMin= 6.35D-03
 ErrMax= 6.35D-03  0.00D+00 EMaxC= 1.00D-01 BMatC= 1.96D-02 BMatP= 1.96D-02
 IDIUse=3 WtCom= 9.37D-01 WtEn= 6.35D-02
 Coeff-Com:  0.100D+01
 Coeff-En:   0.100D+01
 Coeff:      0.100D+01
 Gap=     0.426 Goal=   None    Shift=    0.000
 GapD=    0.426 DampG=2.000 DampE=1.000 DampFc=2.0000 IDamp=-1.
 RMSDP=2.31D-03 MaxDP=5.80D-02              OVMax= 3.28D-02

 Cycle   2  Pass 1  IDiag  1:
 E= -1351.69106898210     Delta-E=       -0.028770952165 Rises=F Damp=F
 DIIS: error= 2.17D-03 at cycle   2 NSaved=   2.
 NSaved= 2 IEnMin= 2 EnMin= -1351.69106898210     IErMin= 2 ErrMin= 2.17D-03
 ErrMax= 2.17D-03  0.00D+00 EMaxC= 1.00D-01 BMatC= 2.02D-03 BMatP= 1.96D-02
 IDIUse=3 WtCom= 9.78D-01 WtEn= 2.17D-02
 Coeff-Com: -0.200D-01 0.102D+01
 Coeff-En:   0.000D+00 0.100D+01
 Coeff:     -0.196D-01 0.102D+01
 Gap=     0.424 Goal=   None    Shift=    0.000
 RMSDP=5.83D-04 MaxDP=1.10D-02 DE=-2.88D-02 OVMax= 1.30D-02

 Cycle   3  Pass 1  IDiag  1:
 E= -1351.69130661129     Delta-E=       -0.000237629190 Rises=F Damp=F
 DIIS: error= 3.95D-03 at cycle   3 NSaved=   3.
 NSaved= 3 IEnMin= 3 EnMin= -1351.69130661129     IErMin= 2 ErrMin= 2.17D-03
 ErrMax= 3.95D-03  0.00D+00 EMaxC= 1.00D-01 BMatC= 3.25D-03 BMatP= 2.02D-03
 IDIUse=3 WtCom= 1.37D-01 WtEn= 8.63D-01
 Coeff-Com: -0.111D+00 0.639D+00 0.472D+00
 Coeff-En:   0.000D+00 0.462D+00 0.538D+00
 Coeff:     -0.153D-01 0.486D+00 0.529D+00
 Gap=     0.421 Goal=   None    Shift=    0.000
 RMSDP=3.92D-04 MaxDP=6.75D-03 DE=-2.38D-04 OVMax= 1.28D-02

 Cycle   4  Pass 1  IDiag  1:
 E= -1351.69326907096     Delta-E=       -0.001962459664 Rises=F Damp=F
 DIIS: error= 1.28D-03 at cycle   4 NSaved=   4.
 NSaved= 4 IEnMin= 4 EnMin= -1351.69326907096     IErMin= 4 ErrMin= 1.28D-03
 ErrMax= 1.28D-03  0.00D+00 EMaxC= 1.00D-01 BMatC= 4.14D-04 BMatP= 2.02D-03
 IDIUse=3 WtCom= 9.87D-01 WtEn= 1.28D-02
 Coeff-Com:  0.475D-03-0.153D+00 0.228D+00 0.925D+00
 Coeff-En:   0.000D+00 0.000D+00 0.899D-01 0.910D+00
 Coeff:      0.469D-03-0.151D+00 0.226D+00 0.925D+00
 Gap=     0.421 Goal=   None    Shift=    0.000
 RMSDP=1.28D-04 MaxDP=2.01D-03 DE=-1.96D-03 OVMax= 3.16D-03

 Cycle   5  Pass 1  IDiag  1:
 E= -1351.69358055087     Delta-E=       -0.000311479916 Rises=F Damp=F
 DIIS: error= 1.80D-04 at cycle   5 NSaved=   5.
 NSaved= 5 IEnMin= 5 EnMin= -1351.69358055087     IErMin= 5 ErrMin= 1.80D-04
 ErrMax= 1.80D-04  0.00D+00 EMaxC= 1.00D-01 BMatC= 6.91D-06 BMatP= 4.14D-04
 IDIUse=3 WtCom= 9.98D-01 WtEn= 1.80D-03
 Coeff-Com:  0.659D-02-0.114D+00 0.815D-01 0.458D+00 0.568D+00
 Coeff-En:   0.000D+00 0.000D+00 0.000D+00 0.000D+00 0.100D+01
 Coeff:      0.658D-02-0.114D+00 0.813D-01 0.457D+00 0.568D+00
 Gap=     0.421 Goal=   None    Shift=    0.000
 RMSDP=2.10D-05 MaxDP=4.65D-04 DE=-3.11D-04 OVMax= 4.65D-04

 Cycle   6  Pass 1  IDiag  1:
 E= -1351.69358560858     Delta-E=       -0.000005057710 Rises=F Damp=F
 DIIS: error= 4.81D-05 at cycle   6 NSaved=   6.
 NSaved= 6 IEnMin= 6 EnMin= -1351.69358560858     IErMin= 6 ErrMin= 4.81D-05
 ErrMax= 4.81D-05  0.00D+00 EMaxC= 1.00D-01 BMatC= 5.41D-07 BMatP= 6.91D-06
 IDIUse=1 WtCom= 1.00D+00 WtEn= 0.00D+00
 Coeff-Com:  0.235D-02-0.148D-01-0.148D-01-0.644D-02 0.210D+00 0.824D+00
 Coeff:      0.235D-02-0.148D-01-0.148D-01-0.644D-02 0.210D+00 0.824D+00
 Gap=     0.421 Goal=   None    Shift=    0.000
 RMSDP=9.34D-06 MaxDP=1.91D-04 DE=-5.06D-06 OVMax= 2.83D-04

 Cycle   7  Pass 1  IDiag  1:
 E= -1351.69358622033     Delta-E=       -0.000000611748 Rises=F Damp=F
 DIIS: error= 4.68D-06 at cycle   7 NSaved=   7.
 NSaved= 7 IEnMin= 7 EnMin= -1351.69358622033     IErMin= 7 ErrMin= 4.68D-06
 ErrMax= 4.68D-06  0.00D+00 EMaxC= 1.00D-01 BMatC= 1.11D-08 BMatP= 5.41D-07
 IDIUse=1 WtCom= 1.00D+00 WtEn= 0.00D+00
 Coeff-Com: -0.230D-03 0.681D-02-0.659D-02-0.320D-01-0.237D-01 0.627D-01
 Coeff-Com:  0.993D+00
 Coeff:     -0.230D-03 0.681D-02-0.659D-02-0.320D-01-0.237D-01 0.627D-01
 Coeff:      0.993D+00
 Gap=     0.421 Goal=   None    Shift=    0.000
 RMSDP=2.69D-06 MaxDP=4.82D-05 DE=-6.12D-07 OVMax= 8.91D-05

 Cycle   8  Pass 1  IDiag  1:
 E= -1351.69358624818     Delta-E=       -0.000000027848 Rises=F Damp=F
 DIIS: error= 1.06D-06 at cycle   8 NSaved=   8.
 NSaved= 8 IEnMin= 8 EnMin= -1351.69358624818     IErMin= 8 ErrMin= 1.06D-06
 ErrMax= 1.06D-06  0.00D+00 EMaxC= 1.00D-01 BMatC= 4.63D-10 BMatP= 1.11D-08
 IDIUse=1 WtCom= 1.00D+00 WtEn= 0.00D+00
 Coeff-Com: -0.867D-04 0.488D-03 0.651D-03 0.765D-03-0.888D-02-0.329D-01
 Coeff-Com: -0.149D-01 0.105D+01
 Coeff:     -0.867D-04 0.488D-03 0.651D-03 0.765D-03-0.888D-02-0.329D-01
 Coeff:     -0.149D-01 0.105D+01
 Gap=     0.421 Goal=   None    Shift=    0.000
 RMSDP=6.28D-07 MaxDP=1.13D-05 DE=-2.78D-08 OVMax= 2.69D-05

 Cycle   9  Pass 1  IDiag  1:
 E= -1351.69358624976     Delta-E=       -0.000000001581 Rises=F Damp=F
 DIIS: error= 3.06D-07 at cycle   9 NSaved=   9.
 NSaved= 9 IEnMin= 9 EnMin= -1351.69358624976     IErMin= 9 ErrMin= 3.06D-07
 ErrMax= 3.06D-07  0.00D+00 EMaxC= 1.00D-01 BMatC= 4.85D-11 BMatP= 4.63D-10
 IDIUse=1 WtCom= 1.00D+00 WtEn= 0.00D+00
 Coeff-Com:  0.146D-04-0.517D-03 0.526D-03 0.255D-02 0.106D-02-0.789D-02
 Coeff-Com: -0.748D-01 0.109D+00 0.970D+00
 Coeff:      0.146D-04-0.517D-03 0.526D-03 0.255D-02 0.106D-02-0.789D-02
 Coeff:     -0.748D-01 0.109D+00 0.970D+00
 Gap=     0.421 Goal=   None    Shift=    0.000
 RMSDP=1.67D-07 MaxDP=3.47D-06 DE=-1.58D-09 OVMax= 7.70D-06

 Cycle  10  Pass 1  IDiag  1:
 E= -1351.69358624987     Delta-E=       -0.000000000111 Rises=F Damp=F
 DIIS: error= 1.12D-07 at cycle  10 NSaved=  10.
 NSaved=10 IEnMin=10 EnMin= -1351.69358624987     IErMin=10 ErrMin= 1.12D-07
 ErrMax= 1.12D-07  0.00D+00 EMaxC= 1.00D-01 BMatC= 6.80D-12 BMatP= 4.85D-11
 IDIUse=1 WtCom= 1.00D+00 WtEn= 0.00D+00
 Coeff-Com:  0.100D-04-0.192D-03 0.123D-03 0.747D-03 0.906D-03-0.170D-03
 Coeff-Com: -0.212D-01-0.362D-01 0.284D+00 0.772D+00
 Coeff:      0.100D-04-0.192D-03 0.123D-03 0.747D-03 0.906D-03-0.170D-03
 Coeff:     -0.212D-01-0.362D-01 0.284D+00 0.772D+00
 Gap=     0.421 Goal=   None    Shift=    0.000
 RMSDP=4.59D-08 MaxDP=1.24D-06 DE=-1.11D-10 OVMax= 1.69D-06

 Cycle  11  Pass 1  IDiag  1:
 E= -1351.69358624987     Delta-E=        0.000000000002 Rises=F Damp=F
 DIIS: error= 6.61D-08 at cycle  11 NSaved=  11.
 NSaved=11 IEnMin=10 EnMin= -1351.69358624987     IErMin=11 ErrMin= 6.61D-08
 ErrMax= 6.61D-08  0.00D+00 EMaxC= 1.00D-01 BMatC= 1.71D-12 BMatP= 6.80D-12
 IDIUse=1 WtCom= 1.00D+00 WtEn= 0.00D+00
 Coeff-Com:  0.284D-05-0.206D-04-0.858D-05 0.179D-04 0.253D-03 0.952D-03
 Coeff-Com:  0.316D-03-0.269D-01-0.248D-01 0.332D+00 0.718D+00
 Coeff:      0.284D-05-0.206D-04-0.858D-05 0.179D-04 0.253D-03 0.952D-03
 Coeff:      0.316D-03-0.269D-01-0.248D-01 0.332D+00 0.718D+00
 Gap=     0.421 Goal=   None    Shift=    0.000
 RMSDP=1.52D-08 MaxDP=4.16D-07 DE= 1.82D-12 OVMax= 6.22D-07

 Cycle  12  Pass 1  IDiag  1:
 E= -1351.69358624988     Delta-E=       -0.000000000009 Rises=F Damp=F
 DIIS: error= 2.73D-08 at cycle  12 NSaved=  12.
 NSaved=12 IEnMin=12 EnMin= -1351.69358624988     IErMin=12 ErrMin= 2.73D-08
 ErrMax= 2.73D-08  0.00D+00 EMaxC= 1.00D-01 BMatC= 1.85D-13 BMatP= 1.71D-12
 IDIUse=1 WtCom= 1.00D+00 WtEn= 0.00D+00
 Coeff-Com: -0.264D-06 0.167D-04-0.180D-04-0.874D-04-0.259D-04 0.341D-03
 Coeff-Com:  0.273D-02-0.412D-02-0.489D-01 0.223D-01 0.272D+00 0.756D+00
 Coeff:     -0.264D-06 0.167D-04-0.180D-04-0.874D-04-0.259D-04 0.341D-03
 Coeff:      0.273D-02-0.412D-02-0.489D-01 0.223D-01 0.272D+00 0.756D+00
 Gap=     0.421 Goal=   None    Shift=    0.000
 RMSDP=5.27D-09 MaxDP=9.17D-08 DE=-9.09D-12 OVMax= 2.35D-07

 SCF Done:  E(RwB97XD) =  -1351.69358625     A.U. after   12 cycles
            NFock= 12  Conv=0.53D-08     -V/T= 2.0018
 KE= 1.349320262510D+03 PE=-4.757919556056D+03 EE= 1.288981763366D+03
 Leave Link  502 at Sat Sep 14 17:28:02 2024, MaxMem=  4294967296 cpu:            2236.4 elap:             126.6
 (Enter /home/appl/Gaussian/g16/l701.exe)
 ... and contract with generalized density number  0.
 Compute integral first derivatives.
 R6Disp: Adding Grimme-D2 dispersion energy 1st derivatives to the gradient.
 Leave Link  701 at Sat Sep 14 17:28:15 2024, MaxMem=  4294967296 cpu:              61.4 elap:               3.3
 (Enter /home/appl/Gaussian/g16/l702.exe)
 L702 exits ... SP integral derivatives will be done elsewhere.
 Leave Link  702 at Sat Sep 14 17:28:16 2024, MaxMem=  4294967296 cpu:               1.1 elap:               0.1
 (Enter /home/appl/Gaussian/g16/l703.exe)
 Integral derivatives from FoFJK, PRISM(SPDF).
 Compute integral first derivatives, UseDBF=F ICtDFT=           0.
 Calling FoFJK, ICntrl=      2127 FMM=F ISym2X=1 I1Cent= 0 IOpClX= 0 NMat=1 NMatS=1 NMatT=0.
 FoFJK:  IHMeth= 1 ICntrl=    2127 DoSepK=T KAlg= 0 I1Cent=           0 FoldK=F
 IRaf=         1 NMat=       1 IRICut=       1 DoRegI=T DoRafI=F ISym2E= 1 IDoP0=0 IntGTp=1.
 FoFCou: FMM=F IPFlag=           0 FMFlag=      100000 FMFlg1=         800
         NFxFlg=           0 DoJE=F BraDBF=F KetDBF=F FulRan=T
         wScrn=  0.000000 ICntrl=      2527 IOpCl=  0 I1Cent=           0 NGrid=           0
         NMat0=    1 NMatS0=      1 NMatT0=    0 NMatD0=    1 NMtDS0=    0 NMtDT0=    0
 Petite list used in FoFCou.
 Leave Link  703 at Sat Sep 14 17:28:22 2024, MaxMem=  4294967296 cpu:             105.2 elap:               5.6
 (Enter /home/appl/Gaussian/g16/l716.exe)
 Dipole        =-7.10542736D-15-1.06581410D-14 1.09516206D-02
 ***** Axes restored to original set *****
 -------------------------------------------------------------------
 Center     Atomic                   Forces (Hartrees/Bohr)
 Number     Number              X              Y              Z
 -------------------------------------------------------------------
      1       16           0.000124005    0.030043724   -0.001455834
      2        9          -0.001634701   -0.002118656   -0.006246746
      3        8          -0.001783660   -0.007903328    0.005444160
      4        8           0.000228180   -0.011124336    0.000558556
      5        7          -0.005831227   -0.005831227    0.000000000
      6       16           0.030043724    0.000124005    0.001455834
      7        9          -0.002118656   -0.001634701    0.006246746
      8        8          -0.011124336    0.000228180   -0.000558556
      9        8          -0.007903328   -0.001783660   -0.005444160
 -------------------------------------------------------------------
 Cartesian Forces:  Max     0.030043724 RMS     0.009445140
 Leave Link  716 at Sat Sep 14 17:28:23 2024, MaxMem=  4294967296 cpu:               1.4 elap:               0.1
 (Enter /home/appl/Gaussian/g16/l103.exe)

 GradGradGradGradGradGradGradGradGradGradGradGradGradGradGradGradGradGrad
 Berny optimization.
 Using GEDIIS/GDIIS optimizer.
 FormGI is forming the generalized inverse of G from B-inverse, IUseBI=4.
 Internal  Forces:  Max     0.010819904 RMS     0.005957993
 Search for a local minimum.
 Step number   4 out of a maximum of  100
 All quantities printed in internal units (Hartrees-Bohrs-Radians)
 RMS Force = .59580D-02 SwitMx=.10000D-02 MixMth= 1
 Mixed Optimization -- RFO/linear search
 Update second derivatives using D2CorX and points    2    3    4
 DE= -8.83D-03 DEPred=-1.00D-02 R= 8.83D-01
 TightC=F SS=  1.41D+00  RLast= 2.72D-01 DXNew= 1.4270D+00 8.1573D-01
 Trust test= 8.83D-01 RLast= 2.72D-01 DXMaxT set to 8.49D-01
 ITU=  1  1  1  0
 Use linear search instead of GDIIS.
     Eigenvalues ---    0.04026   0.04055   0.15284   0.15535   0.18132
     Eigenvalues ---    0.21557   0.24221   0.24969   0.25000   0.25000
     Eigenvalues ---    0.25000   0.25320   0.30207   0.51353   0.51551
     Eigenvalues ---    0.73043   0.79596   1.12230   1.28723   1.36071
     Eigenvalues ---    2.53498
 RFO step:  Lambda=-2.08337550D-03 EMin= 4.02575674D-02
 Quartic linear search produced a step of -0.06495.
 Iteration  1 RMS(Cart)=  0.02598745 RMS(Int)=  0.00038202
 Iteration  2 RMS(Cart)=  0.00080468 RMS(Int)=  0.00006738
 Iteration  3 RMS(Cart)=  0.00000013 RMS(Int)=  0.00006738
 ITry= 1 IFail=0 DXMaxC= 5.07D-02 DCOld= 1.00D+10 DXMaxT= 8.49D-01 DXLimC= 3.00D+00 Rises=F
 ClnCor:  largest displacement from symmetrization is 4.79D-12 for atom     9.
 Variable       Old X    -DE/DX   Delta X   Delta X   Delta X     New X
                                 (Linear)    (Quad)   (Total)
    R1        3.13130  -0.00657  -0.00048  -0.00839  -0.00887   3.12243
    R2        2.73746  -0.00871  -0.00007  -0.00472  -0.00479   2.73266
    R3        2.69925   0.01082  -0.00222   0.01530   0.01308   2.71233
    R4        2.99927  -0.00556  -0.00044  -0.00269  -0.00314   2.99614
    R5        2.99927  -0.00556  -0.00044  -0.00269  -0.00314   2.99614
    R6        3.13130  -0.00657  -0.00048  -0.00839  -0.00887   3.12243
    R7        2.69925   0.01082  -0.00222   0.01530   0.01308   2.71233
    R8        2.73746  -0.00871  -0.00007  -0.00472  -0.00479   2.73266
    A1        1.81414  -0.00225   0.00406  -0.01787  -0.01379   1.80035
    A2        1.81918  -0.00459  -0.00804  -0.00515  -0.01317   1.80601
    A3        1.78582   0.00031  -0.00005  -0.00093  -0.00096   1.78485
    A4        2.09229  -0.00198   0.00215  -0.00888  -0.00687   2.08542
    A5        2.00095   0.00987   0.00230   0.03347   0.03567   2.03662
    A6        1.91093  -0.00271  -0.00194  -0.00527  -0.00730   1.90363
    A7        2.21712  -0.01071   0.00413  -0.05330  -0.04918   2.16794
    A8        1.78582   0.00031  -0.00005  -0.00093  -0.00096   1.78485
    A9        1.91093  -0.00271  -0.00194  -0.00527  -0.00730   1.90363
   A10        2.00095   0.00987   0.00230   0.03347   0.03567   2.03662
   A11        1.81918  -0.00459  -0.00804  -0.00515  -0.01317   1.80601
   A12        1.81414  -0.00225   0.00406  -0.01787  -0.01379   1.80035
   A13        2.09229  -0.00198   0.00215  -0.00888  -0.00687   2.08542
    D1        1.35189   0.00201   0.00455  -0.01268  -0.00812   1.34377
    D2       -0.59959   0.00035  -0.00135  -0.00512  -0.00636  -0.60595
    D3       -3.00910  -0.00398  -0.00497  -0.02079  -0.02587  -3.03497
    D4        1.35189   0.00201   0.00455  -0.01268  -0.00812   1.34377
    D5       -3.00910  -0.00398  -0.00497  -0.02079  -0.02587  -3.03497
    D6       -0.59959   0.00035  -0.00135  -0.00512  -0.00636  -0.60595
         Item               Value     Threshold  Converged?
 Maximum Force            0.010820     0.000450     NO 
 RMS     Force            0.005958     0.000300     NO 
 Maximum Displacement     0.050682     0.001800     NO 
 RMS     Displacement     0.026282     0.001200     NO 
 Predicted change in Energy=-1.089458D-03
 Lowest energy point so far.  Saving SCF results.
 GradGradGradGradGradGradGradGradGradGradGradGradGradGradGradGradGradGrad

 Leave Link  103 at Sat Sep 14 17:28:33 2024, MaxMem=  4294967296 cpu:             126.6 elap:               9.2
 (Enter /home/appl/Gaussian/g16/l202.exe)
                          Input orientation:                          
 ---------------------------------------------------------------------
 Center     Atomic      Atomic             Coordinates (Angstroms)
 Number     Number       Type             X           Y           Z
 ---------------------------------------------------------------------
      1         16           0        7.033806   11.108993    4.886937
      2          9           0        7.586789   11.242471    6.438244
      3          8           0        7.914726   11.985155    4.147061
      4          8           0        7.071339    9.695787    4.638869
      5          7           0        5.523420   11.570420    5.026900
      6         16           0        5.061993   13.080806    5.166863
      7          9           0        5.195471   13.633789    3.615556
      8          8           0        3.648787   13.118339    5.414931
      9          8           0        5.938155   13.961726    5.906739
 ---------------------------------------------------------------------
                    Distance matrix (angstroms):
                    1          2          3          4          5
     1  S    0.000000
     2  F    1.652320   0.000000
     3  O    1.446062   2.430770   0.000000
     4  O    1.435304   2.428100   2.488852   0.000000
     5  N    1.585487   2.521296   2.581563   2.461883   0.000000
     6  S    2.802579   3.372013   3.221573   3.971725   1.585487
     7  F    3.372013   4.405039   3.224103   4.480391   2.521296
     8  O    3.971725   4.480391   4.592367   4.902040   2.461883
     9  O    3.221573   3.224103   3.303049   4.592367   2.581563
                    6          7          8          9
     6  S    0.000000
     7  F    1.652320   0.000000
     8  O    1.435304   2.428100   0.000000
     9  O    1.446062   2.430770   2.488852   0.000000
 Stoichiometry    F2NO4S2(1-)
 Framework group  C2[C2(N),X(F2O4S2)]
 Deg. of freedom    11
 Full point group                 C2      NOp   2
 RotChk:  IX=0 Diff= 1.31D-02
 Largest Abelian subgroup         C2      NOp   2
 Largest concise Abelian subgroup C2      NOp   2
                         Standard orientation:                         
 ---------------------------------------------------------------------
 Center     Atomic      Atomic             Coordinates (Angstroms)
 Number     Number       Type             X           Y           Z
 ---------------------------------------------------------------------
      1         16           0        0.000000    1.401289    0.088318
      2          9           0       -1.573178    1.541494   -0.397083
      3          8           0        0.735840    1.478538   -1.154127
      4          8           0        0.144366    2.446765    1.061066
      5          7           0       -0.000000    0.000000    0.830045
      6         16           0       -0.000000   -1.401289    0.088318
      7          9           0        1.573178   -1.541494   -0.397083
      8          8           0       -0.144366   -2.446765    1.061066
      9          8           0       -0.735840   -1.478538   -1.154127
 ---------------------------------------------------------------------
 Rotational constants (GHZ):           2.5134105           0.8747083           0.8575635
 Leave Link  202 at Sat Sep 14 17:28:34 2024, MaxMem=  4294967296 cpu:               5.8 elap:               0.5
 (Enter /home/appl/Gaussian/g16/l301.exe)
 Standard basis: 6-311++G(d,p) (5D, 7F)
 Ernie: Thresh=  0.10000D-02 Tol=  0.10000D-05 Strict=F.
 There are   113 symmetry adapted cartesian basis functions of A   symmetry.
 There are   110 symmetry adapted cartesian basis functions of B   symmetry.
 There are   108 symmetry adapted basis functions of A   symmetry.
 There are   106 symmetry adapted basis functions of B   symmetry.
   214 basis functions,   352 primitive gaussians,   223 cartesian basis functions
    45 alpha electrons       45 beta electrons
       nuclear repulsion energy       770.4665610772 Hartrees.
 IExCor= 4639 DFT=T Ex+Corr=wB97XD ExCW=0 ScaHFX=  1.000000
 ScaDFX=  1.000000  1.000000  1.000000  1.000000 ScalE2=  1.000000  1.000000
 IRadAn=      5 IRanWt=     -1 IRanGd=            0 ICorTp=0 IEmpDi=121
 HFx  wShort=  0.000000 wLong=  0.200000 cFull=  0.222036 cShort=  0.000000 cLong=  0.777964
 DFx  wShort=  0.000000 wLong=  0.200000 cFull=  0.000000 cShort=  0.000000 cLong=  1.000000
 NAtoms=    9 NActive=    9 NUniq=    5 SFac= 3.24D+00 NAtFMM=   60 NAOKFM=F Big=F
 Integral buffers will be    131072 words long.
 Raffenetti 2 integral format.
 Two-electron integral symmetry is turned on.
 R6Disp:  Grimme-D2 Dispersion energy=       -0.0028679439 Hartrees.
 Nuclear repulsion after empirical dispersion term =      770.4636931333 Hartrees.
 Leave Link  301 at Sat Sep 14 17:28:35 2024, MaxMem=  4294967296 cpu:               4.0 elap:               0.3
 (Enter /home/appl/Gaussian/g16/l302.exe)
 NPDir=0 NMtPBC=     1 NCelOv=     1 NCel=       1 NClECP=     1 NCelD=      1
         NCelK=      1 NCelE2=     1 NClLst=     1 CellRange=     0.0.
 One-electron integrals computed using PRISM.
 One-electron integral symmetry used in STVInt
 NBasis=   214 RedAO= T EigKep=  2.30D-04  NBF=   108   106
 NBsUse=   214 1.00D-06 EigRej= -1.00D+00 NBFU=   108   106
 Precomputing XC quadrature grid using
 IXCGrd= 4 IRadAn=           5 IRanWt=          -1 IRanGd=           0 AccXCQ= 0.00D+00.
 Generated NRdTot=       0 NPtTot=           0 NUsed=           0 NTot=          32
 NSgBfM=   223   223   223   223   223 MxSgAt=     9 MxSgA2=     9.
 Leave Link  302 at Sat Sep 14 17:28:46 2024, MaxMem=  4294967296 cpu:             202.8 elap:              10.2
 (Enter /home/appl/Gaussian/g16/l303.exe)
 DipDrv:  MaxL=1.
 Leave Link  303 at Sat Sep 14 17:28:47 2024, MaxMem=  4294967296 cpu:              12.1 elap:               0.7
 (Enter /home/appl/Gaussian/g16/l401.exe)
 Initial guess from the checkpoint file:  "/scr/Gau-139338.chk"
 B after Tr=    -0.000000    0.000000   -0.000000
         Rot=    0.999991    0.000000   -0.000000   -0.004139 Ang=  -0.47 deg.
 Guess basis will be translated and rotated to current coordinates.
 JPrj=2 DoOrth=T DoCkMO=T.
 Initial guess orbital symmetries:
       Occupied  (B) (A) (A) (B) (B) (A) (B) (A) (A) (B) (A) (B)
                 (A) (B) (A) (A) (B) (A) (B) (A) (B) (A) (B) (A)
                 (B) (A) (B) (A) (B) (A) (B) (A) (B) (A) (B) (A)
                 (B) (A) (A) (B) (B) (A) (B) (B) (A)
       Virtual   (A) (B) (A) (B) (A) (B) (A) (A) (B) (A) (B) (B)
                 (A) (B) (A) (B) (A) (B) (A) (B) (A) (A) (B) (B)
                 (A) (B) (A) (B) (B) (A) (B) (A) (A) (B) (A) (A)
                 (A) (B) (B) (A) (B) (A) (B) (B) (A) (B) (B) (A)
                 (B) (A) (A) (B) (A) (B) (A) (B) (A) (B) (B) (B)
                 (A) (B) (A) (A) (B) (B) (A) (B) (A) (B) (A) (A)
                 (B) (A) (B) (A) (B) (A) (A) (B) (B) (A) (A) (B)
                 (B) (A) (A) (B) (A) (B) (A) (B) (A) (B) (B) (A)
                 (B) (A) (A) (B) (A) (A) (B) (A) (B) (B) (A) (B)
                 (B) (A) (A) (B) (A) (B) (A) (B) (A) (B) (A) (B)
                 (A) (B) (A) (B) (A) (B) (A) (A) (B) (B) (A) (B)
                 (A) (B) (A) (B) (A) (B) (A) (B) (B) (A) (B) (A)
                 (A) (B) (A) (B) (B) (A) (A) (B) (A) (B) (A) (B)
                 (A) (B) (A) (B) (A) (A) (B) (A) (B) (B) (A) (A)
                 (B)
 The electronic state of the initial guess is 1-A.
 Generating alternative initial guess.
 ExpMin= 4.05D-02 ExpMax= 9.34D+04 ExpMxC= 3.17D+03 IAcc=3 IRadAn=         5 AccDes= 0.00D+00
 Harris functional with IExCor= 4639 and IRadAn=       5 diagonalized for initial guess.
 HarFok:  IExCor= 4639 AccDes= 0.00D+00 IRadAn=         5 IDoV= 1 UseB2=F ITyADJ=14
 ICtDFT=  3500011 ScaDFX=  1.000000  1.000000  1.000000  1.000000
 FoFCou: FMM=F IPFlag=           0 FMFlag=      100000 FMFlg1=           0
         NFxFlg=           0 DoJE=T BraDBF=F KetDBF=T FulRan=T
         wScrn=  0.000000 ICntrl=       500 IOpCl=  0 I1Cent=   200000004 NGrid=           0
         NMat0=    1 NMatS0=      1 NMatT0=    0 NMatD0=    1 NMtDS0=    0 NMtDT0=    0
 Petite list used in FoFCou.
 Harris En= -1319.91416233208    
 Leave Link  401 at Sat Sep 14 17:28:59 2024, MaxMem=  4294967296 cpu:             201.7 elap:              11.1
 (Enter /home/appl/Gaussian/g16/l502.exe)
 Keep R1 ints in memory in symmetry-blocked form, NReq=793946642.
 FoFCou: FMM=F IPFlag=           0 FMFlag=           0 FMFlg1=           0
         NFxFlg=           0 DoJE=F BraDBF=F KetDBF=F FulRan=T
         wScrn=  0.000000 ICntrl=       600 IOpCl=  0 I1Cent=           0 NGrid=           0
         NMat0=    1 NMatS0=  23005 NMatT0=    0 NMatD0=    1 NMtDS0=    0 NMtDT0=    0
 Petite list used in FoFCou.
 Closed shell SCF:
 Using DIIS extrapolation, IDIIS=  1040.
 NGot=  4294967296 LenX=  4162486518 LenY=  4162436348
 Requested convergence on RMS density matrix=1.00D-08 within 128 cycles.
 Requested convergence on MAX density matrix=1.00D-06.
 Requested convergence on             energy=1.00D-06.
 No special actions if energy rises.

 Cycle   1  Pass 1  IDiag  1:
 E= -1351.69235515336    
 DIIS: error= 1.88D-03 at cycle   1 NSaved=   1.
 NSaved= 1 IEnMin= 1 EnMin= -1351.69235515336     IErMin= 1 ErrMin= 1.88D-03
 ErrMax= 1.88D-03  0.00D+00 EMaxC= 1.00D-01 BMatC= 1.56D-03 BMatP= 1.56D-03
 IDIUse=3 WtCom= 9.81D-01 WtEn= 1.88D-02
 Coeff-Com:  0.100D+01
 Coeff-En:   0.100D+01
 Coeff:      0.100D+01
 Gap=     0.431 Goal=   None    Shift=    0.000
 GapD=    0.431 DampG=2.000 DampE=1.000 DampFc=2.0000 IDamp=-1.
 RMSDP=6.40D-04 MaxDP=2.32D-02              OVMax= 9.47D-03

 Cycle   2  Pass 1  IDiag  1:
 E= -1351.69440352474     Delta-E=       -0.002048371380 Rises=F Damp=F
 DIIS: error= 1.06D-03 at cycle   2 NSaved=   2.
 NSaved= 2 IEnMin= 2 EnMin= -1351.69440352474     IErMin= 2 ErrMin= 1.06D-03
 ErrMax= 1.06D-03  0.00D+00 EMaxC= 1.00D-01 BMatC= 3.37D-04 BMatP= 1.56D-03
 IDIUse=3 WtCom= 9.89D-01 WtEn= 1.06D-02
 Coeff-Com:  0.173D+00 0.827D+00
 Coeff-En:   0.000D+00 0.100D+01
 Coeff:      0.171D+00 0.829D+00
 Gap=     0.428 Goal=   None    Shift=    0.000
 RMSDP=2.11D-04 MaxDP=4.32D-03 DE=-2.05D-03 OVMax= 4.99D-03

 Cycle   3  Pass 1  IDiag  1:
 E= -1351.69447844502     Delta-E=       -0.000074920278 Rises=F Damp=F
 DIIS: error= 1.21D-03 at cycle   3 NSaved=   3.
 NSaved= 3 IEnMin= 3 EnMin= -1351.69447844502     IErMin= 2 ErrMin= 1.06D-03
 ErrMax= 1.21D-03  0.00D+00 EMaxC= 1.00D-01 BMatC= 3.22D-04 BMatP= 3.37D-04
 IDIUse=3 WtCom= 9.88D-01 WtEn= 1.21D-02
 Coeff-Com: -0.997D-01 0.522D+00 0.578D+00
 Coeff-En:   0.000D+00 0.418D+00 0.582D+00
 Coeff:     -0.985D-01 0.521D+00 0.578D+00
 Gap=     0.429 Goal=   None    Shift=    0.000
 RMSDP=1.11D-04 MaxDP=2.61D-03 DE=-7.49D-05 OVMax= 2.92D-03

 Cycle   4  Pass 1  IDiag  1:
 E= -1351.69470807798     Delta-E=       -0.000229632962 Rises=F Damp=F
 DIIS: error= 9.55D-05 at cycle   4 NSaved=   4.
 NSaved= 4 IEnMin= 4 EnMin= -1351.69470807798     IErMin= 4 ErrMin= 9.55D-05
 ErrMax= 9.55D-05  0.00D+00 EMaxC= 1.00D-01 BMatC= 2.63D-06 BMatP= 3.22D-04
 IDIUse=1 WtCom= 1.00D+00 WtEn= 0.00D+00
 Coeff-Com: -0.203D-01 0.445D-01 0.103D+00 0.873D+00
 Coeff:     -0.203D-01 0.445D-01 0.103D+00 0.873D+00
 Gap=     0.429 Goal=   None    Shift=    0.000
 RMSDP=2.06D-05 MaxDP=5.73D-04 DE=-2.30D-04 OVMax= 5.21D-04

 Cycle   5  Pass 1  IDiag  1:
 E= -1351.69471055284     Delta-E=       -0.000002474855 Rises=F Damp=F
 DIIS: error= 8.60D-05 at cycle   5 NSaved=   5.
 NSaved= 5 IEnMin= 5 EnMin= -1351.69471055284     IErMin= 5 ErrMin= 8.60D-05
 ErrMax= 8.60D-05  0.00D+00 EMaxC= 1.00D-01 BMatC= 1.33D-06 BMatP= 2.63D-06
 IDIUse=1 WtCom= 1.00D+00 WtEn= 0.00D+00
 Coeff-Com:  0.113D-02-0.434D-01-0.164D-01 0.482D+00 0.577D+00
 Coeff:      0.113D-02-0.434D-01-0.164D-01 0.482D+00 0.577D+00
 Gap=     0.428 Goal=   None    Shift=    0.000
 RMSDP=9.08D-06 MaxDP=2.21D-04 DE=-2.47D-06 OVMax= 2.33D-04

 Cycle   6  Pass 1  IDiag  1:
 E= -1351.69471156110     Delta-E=       -0.000001008267 Rises=F Damp=F
 DIIS: error= 1.44D-05 at cycle   6 NSaved=   6.
 NSaved= 6 IEnMin= 6 EnMin= -1351.69471156110     IErMin= 6 ErrMin= 1.44D-05
 ErrMax= 1.44D-05  0.00D+00 EMaxC= 1.00D-01 BMatC= 6.21D-08 BMatP= 1.33D-06
 IDIUse=1 WtCom= 1.00D+00 WtEn= 0.00D+00
 Coeff-Com:  0.321D-02-0.200D-01-0.212D-01 0.136D-01 0.182D+00 0.843D+00
 Coeff:      0.321D-02-0.200D-01-0.212D-01 0.136D-01 0.182D+00 0.843D+00
 Gap=     0.428 Goal=   None    Shift=    0.000
 RMSDP=3.55D-06 MaxDP=6.08D-05 DE=-1.01D-06 OVMax= 1.08D-04

 Cycle   7  Pass 1  IDiag  1:
 E= -1351.69471163863     Delta-E=       -0.000000077531 Rises=F Damp=F
 DIIS: error= 4.55D-06 at cycle   7 NSaved=   7.
 NSaved= 7 IEnMin= 7 EnMin= -1351.69471163863     IErMin= 7 ErrMin= 4.55D-06
 ErrMax= 4.55D-06  0.00D+00 EMaxC= 1.00D-01 BMatC= 6.28D-09 BMatP= 6.21D-08
 IDIUse=1 WtCom= 1.00D+00 WtEn= 0.00D+00
 Coeff-Com:  0.112D-02-0.496D-02-0.719D-02-0.191D-01 0.366D-01 0.313D+00
 Coeff-Com:  0.680D+00
 Coeff:      0.112D-02-0.496D-02-0.719D-02-0.191D-01 0.366D-01 0.313D+00
 Coeff:      0.680D+00
 Gap=     0.428 Goal=   None    Shift=    0.000
 RMSDP=9.01D-07 MaxDP=2.44D-05 DE=-7.75D-08 OVMax= 2.50D-05

 Cycle   8  Pass 1  IDiag  1:
 E= -1351.69471164387     Delta-E=       -0.000000005238 Rises=F Damp=F
 DIIS: error= 2.88D-06 at cycle   8 NSaved=   8.
 NSaved= 8 IEnMin= 8 EnMin= -1351.69471164387     IErMin= 8 ErrMin= 2.88D-06
 ErrMax= 2.88D-06  0.00D+00 EMaxC= 1.00D-01 BMatC= 2.13D-09 BMatP= 6.28D-09
 IDIUse=1 WtCom= 1.00D+00 WtEn= 0.00D+00
 Coeff-Com: -0.221D-03 0.255D-02 0.153D-02-0.143D-01-0.281D-01-0.494D-01
 Coeff-Com:  0.385D+00 0.703D+00
 Coeff:     -0.221D-03 0.255D-02 0.153D-02-0.143D-01-0.281D-01-0.494D-01
 Coeff:      0.385D+00 0.703D+00
 Gap=     0.428 Goal=   None    Shift=    0.000
 RMSDP=5.65D-07 MaxDP=1.16D-05 DE=-5.24D-09 OVMax= 1.52D-05

 Cycle   9  Pass 1  IDiag  1:
 E= -1351.69471164586     Delta-E=       -0.000000001984 Rises=F Damp=F
 DIIS: error= 3.49D-07 at cycle   9 NSaved=   9.
 NSaved= 9 IEnMin= 9 EnMin= -1351.69471164586     IErMin= 9 ErrMin= 3.49D-07
 ErrMax= 3.49D-07  0.00D+00 EMaxC= 1.00D-01 BMatC= 2.11D-11 BMatP= 2.13D-09
 IDIUse=1 WtCom= 1.00D+00 WtEn= 0.00D+00
 Coeff-Com: -0.552D-04 0.242D-03 0.374D-03 0.574D-03-0.148D-02-0.173D-01
 Coeff-Com: -0.402D-01-0.355D-02 0.106D+01
 Coeff:     -0.552D-04 0.242D-03 0.374D-03 0.574D-03-0.148D-02-0.173D-01
 Coeff:     -0.402D-01-0.355D-02 0.106D+01
 Gap=     0.428 Goal=   None    Shift=    0.000
 RMSDP=1.37D-07 MaxDP=3.87D-06 DE=-1.98D-09 OVMax= 5.20D-06

 Cycle  10  Pass 1  IDiag  1:
 E= -1351.69471164591     Delta-E=       -0.000000000056 Rises=F Damp=F
 DIIS: error= 9.24D-08 at cycle  10 NSaved=  10.
 NSaved=10 IEnMin=10 EnMin= -1351.69471164591     IErMin=10 ErrMin= 9.24D-08
 ErrMax= 9.24D-08  0.00D+00 EMaxC= 1.00D-01 BMatC= 1.47D-12 BMatP= 2.11D-11
 IDIUse=1 WtCom= 1.00D+00 WtEn= 0.00D+00
 Coeff-Com:  0.103D-04-0.143D-03-0.956D-04 0.915D-03 0.168D-02 0.308D-02
 Coeff-Com: -0.263D-01-0.462D-01 0.226D-01 0.104D+01
 Coeff:      0.103D-04-0.143D-03-0.956D-04 0.915D-03 0.168D-02 0.308D-02
 Coeff:     -0.263D-01-0.462D-01 0.226D-01 0.104D+01
 Gap=     0.428 Goal=   None    Shift=    0.000
 RMSDP=3.68D-08 MaxDP=7.23D-07 DE=-5.64D-11 OVMax= 1.46D-06

 Cycle  11  Pass 1  IDiag  1:
 E= -1351.69471164592     Delta-E=       -0.000000000011 Rises=F Damp=F
 DIIS: error= 2.14D-08 at cycle  11 NSaved=  11.
 NSaved=11 IEnMin=11 EnMin= -1351.69471164592     IErMin=11 ErrMin= 2.14D-08
 ErrMax= 2.14D-08  0.00D+00 EMaxC= 1.00D-01 BMatC= 1.87D-13 BMatP= 1.47D-12
 IDIUse=1 WtCom= 1.00D+00 WtEn= 0.00D+00
 Coeff-Com:  0.491D-05-0.431D-04-0.405D-04 0.208D-03 0.511D-03 0.177D-02
 Coeff-Com: -0.465D-02-0.117D-01-0.506D-01 0.254D+00 0.810D+00
 Coeff:      0.491D-05-0.431D-04-0.405D-04 0.208D-03 0.511D-03 0.177D-02
 Coeff:     -0.465D-02-0.117D-01-0.506D-01 0.254D+00 0.810D+00
 Gap=     0.428 Goal=   None    Shift=    0.000
 RMSDP=7.71D-09 MaxDP=1.58D-07 DE=-1.09D-11 OVMax= 2.87D-07

 SCF Done:  E(RwB97XD) =  -1351.69471165     A.U. after   11 cycles
            NFock= 11  Conv=0.77D-08     -V/T= 2.0017
 KE= 1.349345961872D+03 PE=-4.762977412541D+03 EE= 1.291473045889D+03
 Leave Link  502 at Sat Sep 14 17:31:07 2024, MaxMem=  4294967296 cpu:            2318.6 elap:             128.2
 (Enter /home/appl/Gaussian/g16/l701.exe)
 ... and contract with generalized density number  0.
 Compute integral first derivatives.
 R6Disp: Adding Grimme-D2 dispersion energy 1st derivatives to the gradient.
 Leave Link  701 at Sat Sep 14 17:31:19 2024, MaxMem=  4294967296 cpu:              71.8 elap:               3.9
 (Enter /home/appl/Gaussian/g16/l702.exe)
 L702 exits ... SP integral derivatives will be done elsewhere.
 Leave Link  702 at Sat Sep 14 17:31:20 2024, MaxMem=  4294967296 cpu:               1.8 elap:               0.2
 (Enter /home/appl/Gaussian/g16/l703.exe)
 Integral derivatives from FoFJK, PRISM(SPDF).
 Compute integral first derivatives, UseDBF=F ICtDFT=           0.
 Calling FoFJK, ICntrl=      2127 FMM=F ISym2X=1 I1Cent= 0 IOpClX= 0 NMat=1 NMatS=1 NMatT=0.
 FoFJK:  IHMeth= 1 ICntrl=    2127 DoSepK=T KAlg= 0 I1Cent=           0 FoldK=F
 IRaf=         1 NMat=       1 IRICut=       1 DoRegI=T DoRafI=F ISym2E= 1 IDoP0=0 IntGTp=1.
 FoFCou: FMM=F IPFlag=           0 FMFlag=      100000 FMFlg1=         800
         NFxFlg=           0 DoJE=F BraDBF=F KetDBF=F FulRan=T
         wScrn=  0.000000 ICntrl=      2527 IOpCl=  0 I1Cent=           0 NGrid=           0
         NMat0=    1 NMatS0=      1 NMatT0=    0 NMatD0=    1 NMtDS0=    0 NMtDT0=    0
 Petite list used in FoFCou.
 Leave Link  703 at Sat Sep 14 17:31:27 2024, MaxMem=  4294967296 cpu:             111.5 elap:               6.4
 (Enter /home/appl/Gaussian/g16/l716.exe)
 Dipole        = 7.10542736D-15-1.06581410D-14-2.08654925D-02
 ***** Axes restored to original set *****
 -------------------------------------------------------------------
 Center     Atomic                   Forces (Hartrees/Bohr)
 Number     Number              X              Y              Z
 -------------------------------------------------------------------
      1       16           0.008563593    0.008620202    0.001833512
      2        9          -0.001832615   -0.000775954   -0.003074411
      3        8          -0.005210237   -0.003856226    0.002342082
      4        8          -0.001273495   -0.003055285   -0.000553635
      5        7          -0.001179983   -0.001179983    0.000000000
      6       16           0.008620202    0.008563593   -0.001833512
      7        9          -0.000775954   -0.001832615    0.003074411
      8        8          -0.003055285   -0.001273495    0.000553635
      9        8          -0.003856226   -0.005210237   -0.002342082
 -------------------------------------------------------------------
 Cartesian Forces:  Max     0.008620202 RMS     0.004078627
 Leave Link  716 at Sat Sep 14 17:31:28 2024, MaxMem=  4294967296 cpu:               2.0 elap:               0.2
 (Enter /home/appl/Gaussian/g16/l103.exe)

 GradGradGradGradGradGradGradGradGradGradGradGradGradGradGradGradGradGrad
 Berny optimization.
 Using GEDIIS/GDIIS optimizer.
 FormGI is forming the generalized inverse of G from B-inverse, IUseBI=4.
 Internal  Forces:  Max     0.006709396 RMS     0.002530045
 Search for a local minimum.
 Step number   5 out of a maximum of  100
 All quantities printed in internal units (Hartrees-Bohrs-Radians)
 RMS Force = .25300D-02 SwitMx=.10000D-02 MixMth= 1
 Mixed Optimization -- RFO/linear search
 Update second derivatives using D2CorX and points    2    3    4    5
 DE= -1.13D-03 DEPred=-1.09D-03 R= 1.03D+00
 TightC=F SS=  1.41D+00  RLast= 8.95D-02 DXNew= 1.4270D+00 2.6849D-01
 Trust test= 1.03D+00 RLast= 8.95D-02 DXMaxT set to 8.49D-01
 ITU=  1  1  1  1  0
 Use linear search instead of GDIIS.
     Eigenvalues ---    0.03973   0.04055   0.14912   0.15415   0.18102
     Eigenvalues ---    0.20761   0.23136   0.25000   0.25000   0.25000
     Eigenvalues ---    0.25044   0.27182   0.34057   0.49140   0.51353
     Eigenvalues ---    0.72340   0.79596   1.10963   1.23706   1.28723
     Eigenvalues ---    2.53498
 RFO step:  Lambda=-3.33698692D-04 EMin= 3.97315882D-02
 Quartic linear search produced a step of  0.04088.
 Iteration  1 RMS(Cart)=  0.01185453 RMS(Int)=  0.00007025
 Iteration  2 RMS(Cart)=  0.00007713 RMS(Int)=  0.00002705
 Iteration  3 RMS(Cart)=  0.00000000 RMS(Int)=  0.00002705
 ITry= 1 IFail=0 DXMaxC= 2.19D-02 DCOld= 1.00D+10 DXMaxT= 8.49D-01 DXLimC= 3.00D+00 Rises=F
 ClnCor:  largest displacement from symmetrization is 1.09D-11 for atom     7.
 Variable       Old X    -DE/DX   Delta X   Delta X   Delta X     New X
                                 (Linear)    (Quad)   (Total)
    R1        3.12243  -0.00356  -0.00036  -0.00766  -0.00802   3.11441
    R2        2.73266  -0.00671  -0.00020  -0.00562  -0.00581   2.72685
    R3        2.71233   0.00307   0.00053   0.00450   0.00504   2.71737
    R4        2.99614  -0.00008  -0.00013   0.00036   0.00023   2.99637
    R5        2.99614  -0.00008  -0.00013   0.00036   0.00023   2.99637
    R6        3.12243  -0.00356  -0.00036  -0.00766  -0.00802   3.11441
    R7        2.71233   0.00307   0.00053   0.00450   0.00504   2.71737
    R8        2.73266  -0.00671  -0.00020  -0.00562  -0.00581   2.72685
    A1        1.80035   0.00237  -0.00056   0.01054   0.00996   1.81032
    A2        1.80601   0.00063  -0.00054   0.00360   0.00305   1.80907
    A3        1.78485  -0.00009  -0.00004   0.00154   0.00149   1.78635
    A4        2.08542   0.00142  -0.00028   0.00211   0.00177   2.08719
    A5        2.03662  -0.00131   0.00146  -0.00227  -0.00086   2.03577
    A6        1.90363  -0.00242  -0.00030  -0.01194  -0.01229   1.89134
    A7        2.16794  -0.00108  -0.00201  -0.01116  -0.01317   2.15477
    A8        1.78485  -0.00009  -0.00004   0.00154   0.00149   1.78635
    A9        1.90363  -0.00242  -0.00030  -0.01194  -0.01229   1.89134
   A10        2.03662  -0.00131   0.00146  -0.00227  -0.00086   2.03577
   A11        1.80601   0.00063  -0.00054   0.00360   0.00305   1.80907
   A12        1.80035   0.00237  -0.00056   0.01054   0.00996   1.81032
   A13        2.08542   0.00142  -0.00028   0.00211   0.00177   2.08719
    D1        1.34377   0.00068  -0.00033  -0.00074  -0.00107   1.34270
    D2       -0.60595  -0.00154  -0.00026  -0.01338  -0.01361  -0.61956
    D3       -3.03497   0.00050  -0.00106  -0.00023  -0.00131  -3.03628
    D4        1.34377   0.00068  -0.00033  -0.00074  -0.00107   1.34270
    D5       -3.03497   0.00050  -0.00106  -0.00023  -0.00131  -3.03628
    D6       -0.60595  -0.00154  -0.00026  -0.01338  -0.01361  -0.61956
         Item               Value     Threshold  Converged?
 Maximum Force            0.006709     0.000450     NO 
 RMS     Force            0.002530     0.000300     NO 
 Maximum Displacement     0.021943     0.001800     NO 
 RMS     Displacement     0.011870     0.001200     NO 
 Predicted change in Energy=-1.686113D-04
 Lowest energy point so far.  Saving SCF results.
 GradGradGradGradGradGradGradGradGradGradGradGradGradGradGradGradGradGrad

 Leave Link  103 at Sat Sep 14 17:31:41 2024, MaxMem=  4294967296 cpu:             153.1 elap:              13.0
 (Enter /home/appl/Gaussian/g16/l202.exe)
                          Input orientation:                          
 ---------------------------------------------------------------------
 Center     Atomic      Atomic             Coordinates (Angstroms)
 Number     Number       Type             X           Y           Z
 ---------------------------------------------------------------------
      1         16           0        7.033954   11.115627    4.889393
      2          9           0        7.585042   11.254083    6.436415
      3          8           0        7.903468   11.987387    4.136937
      4          8           0        7.063617    9.699053    4.644048
      5          7           0        5.520256   11.567256    5.026900
      6         16           0        5.068627   13.080954    5.164407
      7          9           0        5.207083   13.632042    3.617385
      8          8           0        3.652053   13.110617    5.409752
      9          8           0        5.940387   13.950468    5.916863
 ---------------------------------------------------------------------
                    Distance matrix (angstroms):
                    1          2          3          4          5
     1  S    0.000000
     2  F    1.648073   0.000000
     3  O    1.442986   2.434487   0.000000
     4  O    1.437969   2.429523   2.489776   0.000000
     5  N    1.585610   2.519554   2.578419   2.453308   0.000000
     6  S    2.792965   3.359733   3.207477   3.960809   1.585610
     7  F    3.359733   4.388201   3.200831   4.468686   2.519554
     8  O    3.960809   4.468686   4.577798   4.885062   2.453308
     9  O    3.207477   3.200831   3.297805   4.577798   2.578419
                    6          7          8          9
     6  S    0.000000
     7  F    1.648073   0.000000
     8  O    1.437969   2.429523   0.000000
     9  O    1.442986   2.434487   2.489776   0.000000
 Stoichiometry    F2NO4S2(1-)
 Framework group  C2[C2(N),X(F2O4S2)]
 Deg. of freedom    11
 Full point group                 C2      NOp   2
 RotChk:  IX=0 Diff= 2.01D-03
 Largest Abelian subgroup         C2      NOp   2
 Largest concise Abelian subgroup C2      NOp   2
                         Standard orientation:                         
 ---------------------------------------------------------------------
 Center     Atomic      Atomic             Coordinates (Angstroms)
 Number     Number       Type             X           Y           Z
 ---------------------------------------------------------------------
      1         16           0       -0.000000    1.396482    0.084591
      2          9           0       -1.568234    1.534509   -0.402990
      3          8           0        0.748955    1.468995   -1.146675
      4          8           0        0.143456    2.438315    1.065286
      5          7           0       -0.000000    0.000000    0.835588
      6         16           0       -0.000000   -1.396482    0.084591
      7          9           0        1.568234   -1.534509   -0.402990
      8          8           0       -0.143456   -2.438315    1.065286
      9          8           0       -0.748955   -1.468995   -1.146675
 ---------------------------------------------------------------------
 Rotational constants (GHZ):           2.5107643           0.8809165           0.8632353
 Leave Link  202 at Sat Sep 14 17:31:42 2024, MaxMem=  4294967296 cpu:               3.0 elap:               0.3
 (Enter /home/appl/Gaussian/g16/l301.exe)
 Standard basis: 6-311++G(d,p) (5D, 7F)
 Ernie: Thresh=  0.10000D-02 Tol=  0.10000D-05 Strict=F.
 There are   113 symmetry adapted cartesian basis functions of A   symmetry.
 There are   110 symmetry adapted cartesian basis functions of B   symmetry.
 There are   108 symmetry adapted basis functions of A   symmetry.
 There are   106 symmetry adapted basis functions of B   symmetry.
   214 basis functions,   352 primitive gaussians,   223 cartesian basis functions
    45 alpha electrons       45 beta electrons
       nuclear repulsion energy       771.7286823603 Hartrees.
 IExCor= 4639 DFT=T Ex+Corr=wB97XD ExCW=0 ScaHFX=  1.000000
 ScaDFX=  1.000000  1.000000  1.000000  1.000000 ScalE2=  1.000000  1.000000
 IRadAn=      5 IRanWt=     -1 IRanGd=            0 ICorTp=0 IEmpDi=121
 HFx  wShort=  0.000000 wLong=  0.200000 cFull=  0.222036 cShort=  0.000000 cLong=  0.777964
 DFx  wShort=  0.000000 wLong=  0.200000 cFull=  0.000000 cShort=  0.000000 cLong=  1.000000
 NAtoms=    9 NActive=    9 NUniq=    5 SFac= 3.24D+00 NAtFMM=   60 NAOKFM=F Big=F
 Integral buffers will be    131072 words long.
 Raffenetti 2 integral format.
 Two-electron integral symmetry is turned on.
 R6Disp:  Grimme-D2 Dispersion energy=       -0.0028691166 Hartrees.
 Nuclear repulsion after empirical dispersion term =      771.7258132436 Hartrees.
 Leave Link  301 at Sat Sep 14 17:31:43 2024, MaxMem=  4294967296 cpu:               3.9 elap:               0.3
 (Enter /home/appl/Gaussian/g16/l302.exe)
 NPDir=0 NMtPBC=     1 NCelOv=     1 NCel=       1 NClECP=     1 NCelD=      1
         NCelK=      1 NCelE2=     1 NClLst=     1 CellRange=     0.0.
 One-electron integrals computed using PRISM.
 One-electron integral symmetry used in STVInt
 NBasis=   214 RedAO= T EigKep=  2.31D-04  NBF=   108   106
 NBsUse=   214 1.00D-06 EigRej= -1.00D+00 NBFU=   108   106
 Precomputing XC quadrature grid using
 IXCGrd= 4 IRadAn=           5 IRanWt=          -1 IRanGd=           0 AccXCQ= 0.00D+00.
 Generated NRdTot=       0 NPtTot=           0 NUsed=           0 NTot=          32
 NSgBfM=   223   223   223   223   223 MxSgAt=     9 MxSgA2=     9.
 Leave Link  302 at Sat Sep 14 17:31:53 2024, MaxMem=  4294967296 cpu:             170.7 elap:               8.7
 (Enter /home/appl/Gaussian/g16/l303.exe)
 DipDrv:  MaxL=1.
 Leave Link  303 at Sat Sep 14 17:31:54 2024, MaxMem=  4294967296 cpu:              13.6 elap:               0.8
 (Enter /home/appl/Gaussian/g16/l401.exe)
 Initial guess from the checkpoint file:  "/scr/Gau-139338.chk"
 B after Tr=     0.000000   -0.000000    0.000000
         Rot=    1.000000    0.000000   -0.000000    0.000599 Ang=   0.07 deg.
 Guess basis will be translated and rotated to current coordinates.
 JPrj=2 DoOrth=T DoCkMO=T.
 Initial guess orbital symmetries:
       Occupied  (B) (A) (A) (B) (B) (A) (B) (A) (A) (B) (A) (B)
                 (A) (B) (A) (A) (B) (A) (B) (A) (B) (A) (B) (A)
                 (B) (A) (B) (B) (A) (A) (B) (A) (B) (A) (B) (A)
                 (B) (A) (A) (B) (B) (A) (B) (B) (A)
       Virtual   (A) (B) (A) (B) (A) (B) (A) (A) (B) (A) (B) (B)
                 (A) (B) (A) (B) (A) (B) (A) (B) (A) (A) (B) (B)
                 (A) (A) (B) (B) (B) (A) (B) (A) (A) (B) (A) (A)
                 (A) (B) (B) (A) (B) (A) (B) (B) (A) (B) (B) (A)
                 (B) (A) (A) (B) (A) (B) (A) (B) (A) (B) (B) (A)
                 (B) (B) (A) (A) (B) (B) (A) (B) (A) (B) (A) (A)
                 (B) (A) (B) (A) (B) (A) (A) (B) (B) (A) (A) (B)
                 (B) (A) (A) (B) (A) (B) (A) (A) (B) (B) (B) (A)
                 (B) (A) (A) (B) (A) (A) (B) (A) (B) (A) (B) (B)
                 (B) (A) (A) (B) (A) (B) (A) (B) (A) (B) (A) (B)
                 (A) (B) (A) (B) (A) (B) (A) (A) (B) (B) (A) (B)
                 (A) (B) (A) (B) (A) (B) (A) (B) (B) (A) (B) (A)
                 (A) (B) (A) (B) (B) (A) (A) (B) (A) (B) (A) (B)
                 (A) (B) (A) (B) (A) (A) (B) (A) (B) (B) (A) (A)
                 (B)
 The electronic state of the initial guess is 1-A.
 Generating alternative initial guess.
 ExpMin= 4.05D-02 ExpMax= 9.34D+04 ExpMxC= 3.17D+03 IAcc=3 IRadAn=         5 AccDes= 0.00D+00
 Harris functional with IExCor= 4639 and IRadAn=       5 diagonalized for initial guess.
 HarFok:  IExCor= 4639 AccDes= 0.00D+00 IRadAn=         5 IDoV= 1 UseB2=F ITyADJ=14
 ICtDFT=  3500011 ScaDFX=  1.000000  1.000000  1.000000  1.000000
 FoFCou: FMM=F IPFlag=           0 FMFlag=      100000 FMFlg1=           0
         NFxFlg=           0 DoJE=T BraDBF=F KetDBF=T FulRan=T
         wScrn=  0.000000 ICntrl=       500 IOpCl=  0 I1Cent=   200000004 NGrid=           0
         NMat0=    1 NMatS0=      1 NMatT0=    0 NMatD0=    1 NMtDS0=    0 NMtDT0=    0
 Petite list used in FoFCou.
 Harris En= -1319.91316410056    
 Leave Link  401 at Sat Sep 14 17:32:06 2024, MaxMem=  4294967296 cpu:             210.2 elap:              11.6
 (Enter /home/appl/Gaussian/g16/l502.exe)
 Keep R1 ints in memory in symmetry-blocked form, NReq=793946642.
 FoFCou: FMM=F IPFlag=           0 FMFlag=           0 FMFlg1=           0
         NFxFlg=           0 DoJE=F BraDBF=F KetDBF=F FulRan=T
         wScrn=  0.000000 ICntrl=       600 IOpCl=  0 I1Cent=           0 NGrid=           0
         NMat0=    1 NMatS0=  23005 NMatT0=    0 NMatD0=    1 NMtDS0=    0 NMtDT0=    0
 Petite list used in FoFCou.
 Closed shell SCF:
 Using DIIS extrapolation, IDIIS=  1040.
 NGot=  4294967296 LenX=  4162486518 LenY=  4162436348
 Requested convergence on RMS density matrix=1.00D-08 within 128 cycles.
 Requested convergence on MAX density matrix=1.00D-06.
 Requested convergence on             energy=1.00D-06.
 No special actions if energy rises.

 Cycle   1  Pass 1  IDiag  1:
 E= -1351.69441612851    
 DIIS: error= 8.70D-04 at cycle   1 NSaved=   1.
 NSaved= 1 IEnMin= 1 EnMin= -1351.69441612851     IErMin= 1 ErrMin= 8.70D-04
 ErrMax= 8.70D-04  0.00D+00 EMaxC= 1.00D-01 BMatC= 3.13D-04 BMatP= 3.13D-04
 IDIUse=3 WtCom= 9.91D-01 WtEn= 8.70D-03
 Coeff-Com:  0.100D+01
 Coeff-En:   0.100D+01
 Coeff:      0.100D+01
 Gap=     0.429 Goal=   None    Shift=    0.000
 RMSDP=2.60D-04 MaxDP=8.01D-03              OVMax= 4.71D-03

 Cycle   2  Pass 1  IDiag  1:
 E= -1351.69480121184     Delta-E=       -0.000385083330 Rises=F Damp=F
 DIIS: error= 5.18D-04 at cycle   2 NSaved=   2.
 NSaved= 2 IEnMin= 2 EnMin= -1351.69480121184     IErMin= 2 ErrMin= 5.18D-04
 ErrMax= 5.18D-04  0.00D+00 EMaxC= 1.00D-01 BMatC= 9.38D-05 BMatP= 3.13D-04
 IDIUse=3 WtCom= 9.95D-01 WtEn= 5.18D-03
 Coeff-Com:  0.248D+00 0.752D+00
 Coeff-En:   0.000D+00 0.100D+01
 Coeff:      0.247D+00 0.753D+00
 Gap=     0.429 Goal=   None    Shift=    0.000
 RMSDP=7.80D-05 MaxDP=1.82D-03 DE=-3.85D-04 OVMax= 2.57D-03

 Cycle   3  Pass 1  IDiag  1:
 E= -1351.69482677945     Delta-E=       -0.000025567609 Rises=F Damp=F
 DIIS: error= 5.10D-04 at cycle   3 NSaved=   3.
 NSaved= 3 IEnMin= 3 EnMin= -1351.69482677945     IErMin= 3 ErrMin= 5.10D-04
 ErrMax= 5.10D-04  0.00D+00 EMaxC= 1.00D-01 BMatC= 6.76D-05 BMatP= 9.38D-05
 IDIUse=3 WtCom= 9.95D-01 WtEn= 5.10D-03
 Coeff-Com: -0.972D-01 0.476D+00 0.622D+00
 Coeff-En:   0.000D+00 0.389D+00 0.611D+00
 Coeff:     -0.967D-01 0.475D+00 0.622D+00
 Gap=     0.429 Goal=   None    Shift=    0.000
 RMSDP=5.32D-05 MaxDP=9.51D-04 DE=-2.56D-05 OVMax= 1.46D-03

 Cycle   4  Pass 1  IDiag  1:
 E= -1351.69487565851     Delta-E=       -0.000048879058 Rises=F Damp=F
 DIIS: error= 6.28D-05 at cycle   4 NSaved=   4.
 NSaved= 4 IEnMin= 4 EnMin= -1351.69487565851     IErMin= 4 ErrMin= 6.28D-05
 ErrMax= 6.28D-05  0.00D+00 EMaxC= 1.00D-01 BMatC= 7.60D-07 BMatP= 6.76D-05
 IDIUse=1 WtCom= 1.00D+00 WtEn= 0.00D+00
 Coeff-Com: -0.276D-01 0.666D-01 0.151D+00 0.810D+00
 Coeff:     -0.276D-01 0.666D-01 0.151D+00 0.810D+00
 Gap=     0.429 Goal=   None    Shift=    0.000
 RMSDP=9.02D-06 MaxDP=3.34D-04 DE=-4.89D-05 OVMax= 2.38D-04

 Cycle   5  Pass 1  IDiag  1:
 E= -1351.69487633579     Delta-E=       -0.000000677279 Rises=F Damp=F
 DIIS: error= 2.78D-05 at cycle   5 NSaved=   5.
 NSaved= 5 IEnMin= 5 EnMin= -1351.69487633579     IErMin= 5 ErrMin= 2.78D-05
 ErrMax= 2.78D-05  0.00D+00 EMaxC= 1.00D-01 BMatC= 2.04D-07 BMatP= 7.60D-07
 IDIUse=1 WtCom= 1.00D+00 WtEn= 0.00D+00
 Coeff-Com: -0.202D-02-0.242D-01 0.133D-02 0.386D+00 0.639D+00
 Coeff:     -0.202D-02-0.242D-01 0.133D-02 0.386D+00 0.639D+00
 Gap=     0.429 Goal=   None    Shift=    0.000
 RMSDP=3.84D-06 MaxDP=1.04D-04 DE=-6.77D-07 OVMax= 8.55D-05

 Cycle   6  Pass 1  IDiag  1:
 E= -1351.69487648140     Delta-E=       -0.000000145613 Rises=F Damp=F
 DIIS: error= 7.44D-06 at cycle   6 NSaved=   6.
 NSaved= 6 IEnMin= 6 EnMin= -1351.69487648140     IErMin= 6 ErrMin= 7.44D-06
 ErrMax= 7.44D-06  0.00D+00 EMaxC= 1.00D-01 BMatC= 2.01D-08 BMatP= 2.04D-07
 IDIUse=1 WtCom= 1.00D+00 WtEn= 0.00D+00
 Coeff-Com:  0.317D-02-0.199D-01-0.241D-01 0.280D-01 0.261D+00 0.752D+00
 Coeff:      0.317D-02-0.199D-01-0.241D-01 0.280D-01 0.261D+00 0.752D+00
 Gap=     0.429 Goal=   None    Shift=    0.000
 RMSDP=1.48D-06 MaxDP=2.61D-05 DE=-1.46D-07 OVMax= 4.61D-05

 Cycle   7  Pass 1  IDiag  1:
 E= -1351.69487650154     Delta-E=       -0.000000020138 Rises=F Damp=F
 DIIS: error= 1.78D-06 at cycle   7 NSaved=   7.
 NSaved= 7 IEnMin= 7 EnMin= -1351.69487650154     IErMin= 7 ErrMin= 1.78D-06
 ErrMax= 1.78D-06  0.00D+00 EMaxC= 1.00D-01 BMatC= 8.72D-10 BMatP= 2.01D-08
 IDIUse=1 WtCom= 1.00D+00 WtEn= 0.00D+00
 Coeff-Com:  0.987D-03-0.311D-02-0.684D-02-0.231D-01 0.960D-02 0.173D+00
 Coeff-Com:  0.849D+00
 Coeff:      0.987D-03-0.311D-02-0.684D-02-0.231D-01 0.960D-02 0.173D+00
 Coeff:      0.849D+00
 Gap=     0.429 Goal=   None    Shift=    0.000
 RMSDP=5.30D-07 MaxDP=1.11D-05 DE=-2.01D-08 OVMax= 1.54D-05

 Cycle   8  Pass 1  IDiag  1:
 E= -1351.69487650283     Delta-E=       -0.000000001291 Rises=F Damp=F
 DIIS: error= 8.17D-07 at cycle   8 NSaved=   8.
 NSaved= 8 IEnMin= 8 EnMin= -1351.69487650283     IErMin= 8 ErrMin= 8.17D-07
 ErrMax= 8.17D-07  0.00D+00 EMaxC= 1.00D-01 BMatC= 1.58D-10 BMatP= 8.72D-10
 IDIUse=1 WtCom= 1.00D+00 WtEn= 0.00D+00
 Coeff-Com:  0.676D-04 0.618D-03-0.329D-03-0.955D-02-0.186D-01-0.675D-02
 Coeff-Com:  0.308D+00 0.727D+00
 Coeff:      0.676D-04 0.618D-03-0.329D-03-0.955D-02-0.186D-01-0.675D-02
 Coeff:      0.308D+00 0.727D+00
 Gap=     0.429 Goal=   None    Shift=    0.000
 RMSDP=1.81D-07 MaxDP=3.31D-06 DE=-1.29D-09 OVMax= 5.39D-06

 Cycle   9  Pass 1  IDiag  1:
 E= -1351.69487650298     Delta-E=       -0.000000000150 Rises=F Damp=F
 DIIS: error= 4.14D-07 at cycle   9 NSaved=   9.
 NSaved= 9 IEnMin= 9 EnMin= -1351.69487650298     IErMin= 9 ErrMin= 4.14D-07
 ErrMax= 4.14D-07  0.00D+00 EMaxC= 1.00D-01 BMatC= 5.28D-11 BMatP= 1.58D-10
 IDIUse=1 WtCom= 1.00D+00 WtEn= 0.00D+00
 Coeff-Com: -0.135D-03 0.907D-03 0.108D-02-0.888D-03-0.113D-01-0.351D-01
 Coeff-Com: -0.376D-02 0.407D+00 0.642D+00
 Coeff:     -0.135D-03 0.907D-03 0.108D-02-0.888D-03-0.113D-01-0.351D-01
 Coeff:     -0.376D-02 0.407D+00 0.642D+00
 Gap=     0.429 Goal=   None    Shift=    0.000
 RMSDP=7.96D-08 MaxDP=1.83D-06 DE=-1.50D-10 OVMax= 2.39D-06

 Cycle  10  Pass 1  IDiag  1:
 E= -1351.69487650302     Delta-E=       -0.000000000045 Rises=F Damp=F
 DIIS: error= 6.73D-08 at cycle  10 NSaved=  10.
 NSaved=10 IEnMin=10 EnMin= -1351.69487650302     IErMin=10 ErrMin= 6.73D-08
 ErrMax= 6.73D-08  0.00D+00 EMaxC= 1.00D-01 BMatC= 8.67D-13 BMatP= 5.28D-11
 IDIUse=1 WtCom= 1.00D+00 WtEn= 0.00D+00
 Coeff-Com: -0.143D-04 0.234D-05 0.841D-04 0.640D-03 0.382D-03-0.179D-02
 Coeff-Com: -0.255D-01-0.289D-01 0.286D-01 0.103D+01
 Coeff:     -0.143D-04 0.234D-05 0.841D-04 0.640D-03 0.382D-03-0.179D-02
 Coeff:     -0.255D-01-0.289D-01 0.286D-01 0.103D+01
 Gap=     0.429 Goal=   None    Shift=    0.000
 RMSDP=2.24D-08 MaxDP=3.62D-07 DE=-4.55D-11 OVMax= 8.83D-07

 Cycle  11  Pass 1  IDiag  1:
 E= -1351.69487650302     Delta-E=        0.000000000001 Rises=F Damp=F
 DIIS: error= 3.21D-08 at cycle  11 NSaved=  11.
 NSaved=11 IEnMin=10 EnMin= -1351.69487650302     IErMin=11 ErrMin= 3.21D-08
 ErrMax= 3.21D-08  0.00D+00 EMaxC= 1.00D-01 BMatC= 3.45D-13 BMatP= 8.67D-13
 IDIUse=1 WtCom= 1.00D+00 WtEn= 0.00D+00
 Coeff-Com:  0.578D-05-0.826D-04-0.666D-04 0.415D-03 0.128D-02 0.254D-02
 Coeff-Com: -0.115D-01-0.512D-01-0.474D-01 0.472D+00 0.634D+00
 Coeff:      0.578D-05-0.826D-04-0.666D-04 0.415D-03 0.128D-02 0.254D-02
 Coeff:     -0.115D-01-0.512D-01-0.474D-01 0.472D+00 0.634D+00
 Gap=     0.429 Goal=   None    Shift=    0.000
 RMSDP=6.03D-09 MaxDP=1.36D-07 DE= 9.09D-13 OVMax= 1.88D-07

 SCF Done:  E(RwB97XD) =  -1351.69487650     A.U. after   11 cycles
            NFock= 11  Conv=0.60D-08     -V/T= 2.0017
 KE= 1.349369758074D+03 PE=-4.765530313625D+03 EE= 1.292739865803D+03
 Leave Link  502 at Sat Sep 14 17:34:10 2024, MaxMem=  4294967296 cpu:            2117.3 elap:             123.2
 (Enter /home/appl/Gaussian/g16/l701.exe)
 ... and contract with generalized density number  0.
 Compute integral first derivatives.
 R6Disp: Adding Grimme-D2 dispersion energy 1st derivatives to the gradient.
 Leave Link  701 at Sat Sep 14 17:34:27 2024, MaxMem=  4294967296 cpu:              65.0 elap:               3.7
 (Enter /home/appl/Gaussian/g16/l702.exe)
 L702 exits ... SP integral derivatives will be done elsewhere.
 Leave Link  702 at Sat Sep 14 17:34:28 2024, MaxMem=  4294967296 cpu:               1.7 elap:               0.1
 (Enter /home/appl/Gaussian/g16/l703.exe)
 Integral derivatives from FoFJK, PRISM(SPDF).
 Compute integral first derivatives, UseDBF=F ICtDFT=           0.
 Calling FoFJK, ICntrl=      2127 FMM=F ISym2X=1 I1Cent= 0 IOpClX= 0 NMat=1 NMatS=1 NMatT=0.
 FoFJK:  IHMeth= 1 ICntrl=    2127 DoSepK=T KAlg= 0 I1Cent=           0 FoldK=F
 IRaf=         1 NMat=       1 IRICut=       1 DoRegI=T DoRafI=F ISym2E= 1 IDoP0=0 IntGTp=1.
 FoFCou: FMM=F IPFlag=           0 FMFlag=      100000 FMFlg1=         800
         NFxFlg=           0 DoJE=F BraDBF=F KetDBF=F FulRan=T
         wScrn=  0.000000 ICntrl=      2527 IOpCl=  0 I1Cent=           0 NGrid=           0
         NMat0=    1 NMatS0=      1 NMatT0=    0 NMatD0=    1 NMtDS0=    0 NMtDT0=    0
 Petite list used in FoFCou.
 Leave Link  703 at Sat Sep 14 17:34:35 2024, MaxMem=  4294967296 cpu:             107.8 elap:               6.3
 (Enter /home/appl/Gaussian/g16/l716.exe)
 Dipole        = 1.77635684D-15-2.48689958D-14-8.04596869D-02
 ***** Axes restored to original set *****
 -------------------------------------------------------------------
 Center     Atomic                   Forces (Hartrees/Bohr)
 Number     Number              X              Y              Z
 -------------------------------------------------------------------
      1       16           0.002987126    0.000452208    0.000080944
      2        9          -0.000529414   -0.000306978   -0.002425782
      3        8          -0.001862289   -0.001566395    0.001808167
      4        8           0.000843867   -0.000384697    0.000341977
      5        7           0.000366572    0.000366572    0.000000000
      6       16           0.000452208    0.002987126   -0.000080944
      7        9          -0.000306978   -0.000529414    0.002425782
      8        8          -0.000384697    0.000843867   -0.000341977
      9        8          -0.001566395   -0.001862289   -0.001808167
 -------------------------------------------------------------------
 Cartesian Forces:  Max     0.002987126 RMS     0.001379627
 Leave Link  716 at Sat Sep 14 17:34:36 2024, MaxMem=  4294967296 cpu:               1.9 elap:               0.1
 (Enter /home/appl/Gaussian/g16/l103.exe)

 GradGradGradGradGradGradGradGradGradGradGradGradGradGradGradGradGradGrad
 Berny optimization.
 Using GEDIIS/GDIIS optimizer.
 FormGI is forming the generalized inverse of G from B-inverse, IUseBI=4.
 Internal  Forces:  Max     0.003012169 RMS     0.001378223
 Search for a local minimum.
 Step number   6 out of a maximum of  100
 All quantities printed in internal units (Hartrees-Bohrs-Radians)
 RMS Force = .13782D-02 SwitMx=.10000D-02 MixMth= 1
 Mixed Optimization -- RFO/linear search
 Update second derivatives using D2CorX and points    2    3    4    5    6
 DE= -1.65D-04 DEPred=-1.69D-04 R= 9.78D-01
 TightC=F SS=  1.41D+00  RLast= 3.64D-02 DXNew= 1.4270D+00 1.0934D-01
 Trust test= 9.78D-01 RLast= 3.64D-02 DXMaxT set to 8.49D-01
 ITU=  1  1  1  1  1  0
 Use linear search instead of GDIIS.
     Eigenvalues ---    0.03812   0.04055   0.15047   0.17061   0.18117
     Eigenvalues ---    0.21286   0.23197   0.25000   0.25000   0.25000
     Eigenvalues ---    0.25333   0.31567   0.35425   0.42546   0.51353
     Eigenvalues ---    0.71581   0.79596   1.05556   1.14779   1.28723
     Eigenvalues ---    2.53498
 RFO step:  Lambda=-9.93154291D-05 EMin= 3.81155769D-02
 Quartic linear search produced a step of -0.02543.
 Iteration  1 RMS(Cart)=  0.00751168 RMS(Int)=  0.00002123
 Iteration  2 RMS(Cart)=  0.00002397 RMS(Int)=  0.00000070
 Iteration  3 RMS(Cart)=  0.00000000 RMS(Int)=  0.00000070
 ITry= 1 IFail=0 DXMaxC= 1.25D-02 DCOld= 1.00D+10 DXMaxT= 8.49D-01 DXLimC= 3.00D+00 Rises=F
 ClnCor:  largest displacement from symmetrization is 1.87D-12 for atom     9.
 Variable       Old X    -DE/DX   Delta X   Delta X   Delta X     New X
                                 (Linear)    (Quad)   (Total)
    R1        3.11441  -0.00248   0.00020  -0.00733  -0.00712   3.10728
    R2        2.72685  -0.00301   0.00015  -0.00420  -0.00406   2.72279
    R3        2.71737   0.00034  -0.00013   0.00193   0.00180   2.71917
    R4        2.99637   0.00190  -0.00001   0.00207   0.00206   2.99843
    R5        2.99637   0.00190  -0.00001   0.00207   0.00206   2.99843
    R6        3.11441  -0.00248   0.00020  -0.00733  -0.00712   3.10728
    R7        2.71737   0.00034  -0.00013   0.00193   0.00180   2.71917
    R8        2.72685  -0.00301   0.00015  -0.00420  -0.00406   2.72279
    A1        1.81032  -0.00056  -0.00025  -0.00098  -0.00123   1.80908
    A2        1.80907  -0.00086  -0.00008  -0.00269  -0.00277   1.80629
    A3        1.78635   0.00040  -0.00004   0.00123   0.00119   1.78754
    A4        2.08719  -0.00020  -0.00005   0.00037   0.00033   2.08752
    A5        2.03577  -0.00077   0.00002  -0.00213  -0.00211   2.03365
    A6        1.89134   0.00181   0.00031   0.00373   0.00404   1.89538
    A7        2.15477   0.00144   0.00033  -0.00061  -0.00027   2.15450
    A8        1.78635   0.00040  -0.00004   0.00123   0.00119   1.78754
    A9        1.89134   0.00181   0.00031   0.00373   0.00404   1.89538
   A10        2.03577  -0.00077   0.00002  -0.00213  -0.00211   2.03365
   A11        1.80907  -0.00086  -0.00008  -0.00269  -0.00277   1.80629
   A12        1.81032  -0.00056  -0.00025  -0.00098  -0.00123   1.80908
   A13        2.08719  -0.00020  -0.00005   0.00037   0.00033   2.08752
    D1        1.34270  -0.00033   0.00003  -0.00495  -0.00492   1.33777
    D2       -0.61956   0.00044   0.00035  -0.00360  -0.00325  -0.62282
    D3       -3.03628  -0.00048   0.00003  -0.00611  -0.00608  -3.04236
    D4        1.34270  -0.00033   0.00003  -0.00495  -0.00492   1.33777
    D5       -3.03628  -0.00048   0.00003  -0.00611  -0.00608  -3.04236
    D6       -0.61956   0.00044   0.00035  -0.00360  -0.00325  -0.62282
         Item               Value     Threshold  Converged?
 Maximum Force            0.003012     0.000450     NO 
 RMS     Force            0.001378     0.000300     NO 
 Maximum Displacement     0.012525     0.001800     NO 
 RMS     Displacement     0.007508     0.001200     NO 
 Predicted change in Energy=-4.977286D-05
 Lowest energy point so far.  Saving SCF results.
 GradGradGradGradGradGradGradGradGradGradGradGradGradGradGradGradGradGrad

 Leave Link  103 at Sat Sep 14 17:34:49 2024, MaxMem=  4294967296 cpu:             155.0 elap:              12.7
 (Enter /home/appl/Gaussian/g16/l202.exe)
                          Input orientation:                          
 ---------------------------------------------------------------------
 Center     Atomic      Atomic             Coordinates (Angstroms)
 Number     Number       Type             X           Y           Z
 ---------------------------------------------------------------------
      1         16           0        7.033739   11.114321    4.888484
      2          9           0        7.588049   11.258750    6.429787
      3          8           0        7.898256   11.985021    4.133161
      4          8           0        7.069658    9.695698    4.650322
      5          7           0        5.518995   11.565995    5.026900
      6         16           0        5.067321   13.080739    5.165316
      7          9           0        5.211750   13.635049    3.624013
      8          8           0        3.648698   13.116658    5.403478
      9          8           0        5.938021   13.945256    5.920639
 ---------------------------------------------------------------------
                    Distance matrix (angstroms):
                    1          2          3          4          5
     1  S    0.000000
     2  F    1.644303   0.000000
     3  O    1.440840   2.428619   0.000000
     4  O    1.438924   2.424532   2.488981   0.000000
     5  N    1.586701   2.518626   2.575895   2.458532   0.000000
     6  S    2.794680   3.357469   3.206265   3.966494   1.586701
     7  F    3.357469   4.377894   3.193608   4.474776   2.518626
     8  O    3.966494   4.474776   4.577450   4.896241   2.458532
     9  O    3.206265   3.193608   3.298503   4.577450   2.575895
                    6          7          8          9
     6  S    0.000000
     7  F    1.644303   0.000000
     8  O    1.438924   2.424532   0.000000
     9  O    1.440840   2.428619   2.488981   0.000000
 Stoichiometry    F2NO4S2(1-)
 Framework group  C2[C2(N),X(F2O4S2)]
 Deg. of freedom    11
 Full point group                 C2      NOp   2
 RotChk:  IX=0 Diff= 8.38D-04
 Largest Abelian subgroup         C2      NOp   2
 Largest concise Abelian subgroup C2      NOp   2
                         Standard orientation:                         
 ---------------------------------------------------------------------
 Center     Atomic      Atomic             Coordinates (Angstroms)
 Number     Number       Type             X           Y           Z
 ---------------------------------------------------------------------
      1         16           0        0.000000    1.397340    0.085615
      2          9           0       -1.562432    1.533068   -0.408467
      3          8           0        0.752042    1.467809   -1.141367
      4          8           0        0.135109    2.444390    1.063335
      5          7           0        0.000000   -0.000000    0.837320
      6         16           0       -0.000000   -1.397340    0.085615
      7          9           0        1.562432   -1.533068   -0.408467
      8          8           0       -0.135109   -2.444390    1.063335
      9          8           0       -0.752042   -1.467809   -1.141367
 ---------------------------------------------------------------------
 Rotational constants (GHZ):           2.5222461           0.8801173           0.8629313
 Leave Link  202 at Sat Sep 14 17:34:50 2024, MaxMem=  4294967296 cpu:               3.0 elap:               0.4
 (Enter /home/appl/Gaussian/g16/l301.exe)
 Standard basis: 6-311++G(d,p) (5D, 7F)
 Ernie: Thresh=  0.10000D-02 Tol=  0.10000D-05 Strict=F.
 There are   113 symmetry adapted cartesian basis functions of A   symmetry.
 There are   110 symmetry adapted cartesian basis functions of B   symmetry.
 There are   108 symmetry adapted basis functions of A   symmetry.
 There are   106 symmetry adapted basis functions of B   symmetry.
   214 basis functions,   352 primitive gaussians,   223 cartesian basis functions
    45 alpha electrons       45 beta electrons
       nuclear repulsion energy       772.1009833923 Hartrees.
 IExCor= 4639 DFT=T Ex+Corr=wB97XD ExCW=0 ScaHFX=  1.000000
 ScaDFX=  1.000000  1.000000  1.000000  1.000000 ScalE2=  1.000000  1.000000
 IRadAn=      5 IRanWt=     -1 IRanGd=            0 ICorTp=0 IEmpDi=121
 HFx  wShort=  0.000000 wLong=  0.200000 cFull=  0.222036 cShort=  0.000000 cLong=  0.777964
 DFx  wShort=  0.000000 wLong=  0.200000 cFull=  0.000000 cShort=  0.000000 cLong=  1.000000
 NAtoms=    9 NActive=    9 NUniq=    5 SFac= 3.24D+00 NAtFMM=   60 NAOKFM=F Big=F
 Integral buffers will be    131072 words long.
 Raffenetti 2 integral format.
 Two-electron integral symmetry is turned on.
 R6Disp:  Grimme-D2 Dispersion energy=       -0.0028640644 Hartrees.
 Nuclear repulsion after empirical dispersion term =      772.0981193280 Hartrees.
 Leave Link  301 at Sat Sep 14 17:34:51 2024, MaxMem=  4294967296 cpu:               4.0 elap:               0.3
 (Enter /home/appl/Gaussian/g16/l302.exe)
 NPDir=0 NMtPBC=     1 NCelOv=     1 NCel=       1 NClECP=     1 NCelD=      1
         NCelK=      1 NCelE2=     1 NClLst=     1 CellRange=     0.0.
 One-electron integrals computed using PRISM.
 One-electron integral symmetry used in STVInt
 NBasis=   214 RedAO= T EigKep=  2.27D-04  NBF=   108   106
 NBsUse=   214 1.00D-06 EigRej= -1.00D+00 NBFU=   108   106
 Precomputing XC quadrature grid using
 IXCGrd= 4 IRadAn=           5 IRanWt=          -1 IRanGd=           0 AccXCQ= 0.00D+00.
 Generated NRdTot=       0 NPtTot=           0 NUsed=           0 NTot=          32
 NSgBfM=   223   223   223   223   223 MxSgAt=     9 MxSgA2=     9.
 Leave Link  302 at Sat Sep 14 17:35:03 2024, MaxMem=  4294967296 cpu:             218.0 elap:              11.3
 (Enter /home/appl/Gaussian/g16/l303.exe)
 DipDrv:  MaxL=1.
 Leave Link  303 at Sat Sep 14 17:35:04 2024, MaxMem=  4294967296 cpu:              11.0 elap:               0.7
 (Enter /home/appl/Gaussian/g16/l401.exe)
 Initial guess from the checkpoint file:  "/scr/Gau-139338.chk"
 B after Tr=    -0.000000    0.000000   -0.000000
         Rot=    1.000000   -0.000000    0.000000   -0.000231 Ang=  -0.03 deg.
 Guess basis will be translated and rotated to current coordinates.
 JPrj=2 DoOrth=T DoCkMO=T.
 Initial guess orbital symmetries:
       Occupied  (B) (A) (A) (B) (B) (A) (B) (A) (A) (B) (A) (B)
                 (A) (B) (A) (A) (B) (A) (B) (A) (B) (A) (B) (A)
                 (B) (A) (B) (B) (A) (A) (B) (A) (B) (A) (B) (A)
                 (B) (A) (A) (B) (B) (A) (B) (B) (A)
       Virtual   (A) (B) (A) (B) (A) (B) (A) (A) (B) (A) (B) (B)
                 (A) (B) (A) (B) (A) (B) (A) (B) (A) (A) (B) (B)
                 (A) (A) (B) (B) (B) (A) (B) (A) (A) (B) (A) (A)
                 (A) (B) (B) (A) (B) (A) (B) (B) (A) (B) (B) (A)
                 (B) (A) (A) (B) (A) (B) (A) (B) (A) (B) (B) (A)
                 (B) (B) (A) (A) (B) (B) (A) (B) (A) (B) (A) (A)
                 (B) (A) (B) (A) (B) (A) (A) (B) (B) (A) (A) (B)
                 (B) (A) (A) (B) (A) (B) (A) (A) (B) (B) (B) (A)
                 (B) (A) (A) (A) (B) (A) (B) (A) (B) (A) (B) (B)
                 (B) (A) (A) (B) (A) (B) (A) (B) (A) (B) (A) (B)
                 (A) (B) (A) (B) (A) (B) (A) (A) (B) (B) (A) (B)
                 (A) (B) (A) (B) (A) (B) (A) (B) (B) (A) (B) (A)
                 (A) (B) (A) (B) (B) (A) (A) (B) (A) (B) (A) (B)
                 (A) (B) (A) (B) (A) (A) (B) (A) (B) (B) (A) (A)
                 (B)
 The electronic state of the initial guess is 1-A.
 Leave Link  401 at Sat Sep 14 17:35:10 2024, MaxMem=  4294967296 cpu:              95.7 elap:               5.0
 (Enter /home/appl/Gaussian/g16/l502.exe)
 Keep R1 ints in memory in symmetry-blocked form, NReq=793946642.
 FoFCou: FMM=F IPFlag=           0 FMFlag=           0 FMFlg1=           0
         NFxFlg=           0 DoJE=F BraDBF=F KetDBF=F FulRan=T
         wScrn=  0.000000 ICntrl=       600 IOpCl=  0 I1Cent=           0 NGrid=           0
         NMat0=    1 NMatS0=  23005 NMatT0=    0 NMatD0=    1 NMtDS0=    0 NMtDT0=    0
 Petite list used in FoFCou.
 Closed shell SCF:
 Using DIIS extrapolation, IDIIS=  1040.
 NGot=  4294967296 LenX=  4162486518 LenY=  4162436348
 Requested convergence on RMS density matrix=1.00D-08 within 128 cycles.
 Requested convergence on MAX density matrix=1.00D-06.
 Requested convergence on             energy=1.00D-06.
 No special actions if energy rises.

 Cycle   1  Pass 1  IDiag  1:
 E= -1351.69476710394    
 DIIS: error= 4.72D-04 at cycle   1 NSaved=   1.
 NSaved= 1 IEnMin= 1 EnMin= -1351.69476710394     IErMin= 1 ErrMin= 4.72D-04
 ErrMax= 4.72D-04  0.00D+00 EMaxC= 1.00D-01 BMatC= 1.12D-04 BMatP= 1.12D-04
 IDIUse=3 WtCom= 9.95D-01 WtEn= 4.72D-03
 Coeff-Com:  0.100D+01
 Coeff-En:   0.100D+01
 Coeff:      0.100D+01
 Gap=     0.429 Goal=   None    Shift=    0.000
 RMSDP=1.32D-04 MaxDP=3.05D-03              OVMax= 2.33D-03

 Cycle   2  Pass 1  IDiag  1:
 E= -1351.69492467518     Delta-E=       -0.000157571244 Rises=F Damp=F
 DIIS: error= 1.26D-04 at cycle   2 NSaved=   2.
 NSaved= 2 IEnMin= 2 EnMin= -1351.69492467518     IErMin= 2 ErrMin= 1.26D-04
 ErrMax= 1.26D-04  0.00D+00 EMaxC= 1.00D-01 BMatC= 7.51D-06 BMatP= 1.12D-04
 IDIUse=3 WtCom= 9.99D-01 WtEn= 1.26D-03
 Coeff-Com: -0.487D-01 0.105D+01
 Coeff-En:   0.000D+00 0.100D+01
 Coeff:     -0.486D-01 0.105D+01
 Gap=     0.429 Goal=   None    Shift=    0.000
 RMSDP=3.27D-05 MaxDP=6.82D-04 DE=-1.58D-04 OVMax= 1.08D-03

 Cycle   3  Pass 1  IDiag  1:
 E= -1351.69492865518     Delta-E=       -0.000003979997 Rises=F Damp=F
 DIIS: error= 1.75D-04 at cycle   3 NSaved=   3.
 NSaved= 3 IEnMin= 3 EnMin= -1351.69492865518     IErMin= 2 ErrMin= 1.26D-04
 ErrMax= 1.75D-04  0.00D+00 EMaxC= 1.00D-01 BMatC= 9.90D-06 BMatP= 7.51D-06
 IDIUse=3 WtCom= 4.31D-01 WtEn= 5.69D-01
 Coeff-Com: -0.932D-01 0.607D+00 0.486D+00
 Coeff-En:   0.000D+00 0.254D+00 0.746D+00
 Coeff:     -0.401D-01 0.406D+00 0.634D+00
 Gap=     0.429 Goal=   None    Shift=    0.000
 RMSDP=2.38D-05 MaxDP=6.30D-04 DE=-3.98D-06 OVMax= 6.66D-04

 Cycle   4  Pass 1  IDiag  1:
 E= -1351.69493319785     Delta-E=       -0.000004542671 Rises=F Damp=F
 DIIS: error= 1.08D-04 at cycle   4 NSaved=   4.
 NSaved= 4 IEnMin= 4 EnMin= -1351.69493319785     IErMin= 4 ErrMin= 1.08D-04
 ErrMax= 1.08D-04  0.00D+00 EMaxC= 1.00D-01 BMatC= 3.19D-06 BMatP= 7.51D-06
 IDIUse=3 WtCom= 9.99D-01 WtEn= 1.08D-03
 Coeff-Com: -0.141D-01-0.194D-01 0.370D+00 0.664D+00
 Coeff-En:   0.000D+00 0.000D+00 0.259D+00 0.741D+00
 Coeff:     -0.141D-01-0.194D-01 0.370D+00 0.664D+00
 Gap=     0.429 Goal=   None    Shift=    0.000
 RMSDP=9.41D-06 MaxDP=1.35D-04 DE=-4.54D-06 OVMax= 3.46D-04

 Cycle   5  Pass 1  IDiag  1:
 E= -1351.69493541012     Delta-E=       -0.000002212266 Rises=F Damp=F
 DIIS: error= 1.05D-05 at cycle   5 NSaved=   5.
 NSaved= 5 IEnMin= 5 EnMin= -1351.69493541012     IErMin= 5 ErrMin= 1.05D-05
 ErrMax= 1.05D-05  0.00D+00 EMaxC= 1.00D-01 BMatC= 3.60D-08 BMatP= 3.19D-06
 IDIUse=1 WtCom= 1.00D+00 WtEn= 0.00D+00
 Coeff-Com:  0.111D-02-0.548D-01 0.114D+00 0.278D+00 0.662D+00
 Coeff:      0.111D-02-0.548D-01 0.114D+00 0.278D+00 0.662D+00
 Gap=     0.429 Goal=   None    Shift=    0.000
 RMSDP=1.55D-06 MaxDP=2.84D-05 DE=-2.21D-06 OVMax= 4.09D-05

 Cycle   6  Pass 1  IDiag  1:
 E= -1351.69493543746     Delta-E=       -0.000000027348 Rises=F Damp=F
 DIIS: error= 5.07D-06 at cycle   6 NSaved=   6.
 NSaved= 6 IEnMin= 6 EnMin= -1351.69493543746     IErMin= 6 ErrMin= 5.07D-06
 ErrMax= 5.07D-06  0.00D+00 EMaxC= 1.00D-01 BMatC= 6.65D-09 BMatP= 3.60D-08
 IDIUse=1 WtCom= 1.00D+00 WtEn= 0.00D+00
 Coeff-Com:  0.304D-02-0.245D-01-0.104D-01 0.225D-01 0.321D+00 0.688D+00
 Coeff:      0.304D-02-0.245D-01-0.104D-01 0.225D-01 0.321D+00 0.688D+00
 Gap=     0.429 Goal=   None    Shift=    0.000
 RMSDP=7.67D-07 MaxDP=2.10D-05 DE=-2.73D-08 OVMax= 2.58D-05

 Cycle   7  Pass 1  IDiag  1:
 E= -1351.69493544319     Delta-E=       -0.000000005723 Rises=F Damp=F
 DIIS: error= 9.09D-07 at cycle   7 NSaved=   7.
 NSaved= 7 IEnMin= 7 EnMin= -1351.69493544319     IErMin= 7 ErrMin= 9.09D-07
 ErrMax= 9.09D-07  0.00D+00 EMaxC= 1.00D-01 BMatC= 2.44D-10 BMatP= 6.65D-09
 IDIUse=1 WtCom= 1.00D+00 WtEn= 0.00D+00
 Coeff-Com:  0.591D-03-0.758D-03-0.129D-01-0.193D-01 0.441D-02 0.152D+00
 Coeff-Com:  0.876D+00
 Coeff:      0.591D-03-0.758D-03-0.129D-01-0.193D-01 0.441D-02 0.152D+00
 Coeff:      0.876D+00
 Gap=     0.429 Goal=   None    Shift=    0.000
 RMSDP=2.47D-07 MaxDP=4.05D-06 DE=-5.72D-09 OVMax= 9.64D-06

 Cycle   8  Pass 1  IDiag  1:
 E= -1351.69493544359     Delta-E=       -0.000000000405 Rises=F Damp=F
 DIIS: error= 3.36D-07 at cycle   8 NSaved=   8.
 NSaved= 8 IEnMin= 8 EnMin= -1351.69493544359     IErMin= 8 ErrMin= 3.36D-07
 ErrMax= 3.36D-07  0.00D+00 EMaxC= 1.00D-01 BMatC= 3.11D-11 BMatP= 2.44D-10
 IDIUse=1 WtCom= 1.00D+00 WtEn= 0.00D+00
 Coeff-Com: -0.127D-03 0.220D-02-0.261D-02-0.760D-02-0.308D-01-0.264D-01
 Coeff-Com:  0.259D+00 0.806D+00
 Coeff:     -0.127D-03 0.220D-02-0.261D-02-0.760D-02-0.308D-01-0.264D-01
 Coeff:      0.259D+00 0.806D+00
 Gap=     0.429 Goal=   None    Shift=    0.000
 RMSDP=8.52D-08 MaxDP=2.16D-06 DE=-4.05D-10 OVMax= 3.07D-06

 Cycle   9  Pass 1  IDiag  1:
 E= -1351.69493544363     Delta-E=       -0.000000000035 Rises=F Damp=F
 DIIS: error= 2.03D-07 at cycle   9 NSaved=   9.
 NSaved= 9 IEnMin= 9 EnMin= -1351.69493544363     IErMin= 9 ErrMin= 2.03D-07
 ErrMax= 2.03D-07  0.00D+00 EMaxC= 1.00D-01 BMatC= 1.11D-11 BMatP= 3.11D-11
 IDIUse=1 WtCom= 1.00D+00 WtEn= 0.00D+00
 Coeff-Com: -0.128D-03 0.123D-02 0.852D-04-0.183D-02-0.163D-01-0.306D-01
 Coeff-Com:  0.341D-01 0.440D+00 0.574D+00
 Coeff:     -0.128D-03 0.123D-02 0.852D-04-0.183D-02-0.163D-01-0.306D-01
 Coeff:      0.341D-01 0.440D+00 0.574D+00
 Gap=     0.429 Goal=   None    Shift=    0.000
 RMSDP=3.14D-08 MaxDP=6.36D-07 DE=-3.46D-11 OVMax= 9.78D-07

 Cycle  10  Pass 1  IDiag  1:
 E= -1351.69493544363     Delta-E=       -0.000000000003 Rises=F Damp=F
 DIIS: error= 4.08D-08 at cycle  10 NSaved=  10.
 NSaved=10 IEnMin=10 EnMin= -1351.69493544363     IErMin=10 ErrMin= 4.08D-08
 ErrMax= 4.08D-08  0.00D+00 EMaxC= 1.00D-01 BMatC= 4.30D-13 BMatP= 1.11D-11
 IDIUse=1 WtCom= 1.00D+00 WtEn= 0.00D+00
 Coeff-Com:  0.169D-05-0.195D-03 0.498D-03 0.106D-02 0.257D-02 0.833D-04
 Coeff-Com: -0.389D-01-0.733D-01 0.945D-01 0.101D+01
 Coeff:      0.169D-05-0.195D-03 0.498D-03 0.106D-02 0.257D-02 0.833D-04
 Coeff:     -0.389D-01-0.733D-01 0.945D-01 0.101D+01
 Gap=     0.429 Goal=   None    Shift=    0.000
 RMSDP=1.31D-08 MaxDP=2.75D-07 DE=-2.73D-12 OVMax= 4.71D-07

 Cycle  11  Pass 1  IDiag  1:
 E= -1351.69493544364     Delta-E=       -0.000000000009 Rises=F Damp=F
 DIIS: error= 1.58D-08 at cycle  11 NSaved=  11.
 NSaved=11 IEnMin=11 EnMin= -1351.69493544364     IErMin=11 ErrMin= 1.58D-08
 ErrMax= 1.58D-08  0.00D+00 EMaxC= 1.00D-01 BMatC= 6.69D-14 BMatP= 4.30D-13
 IDIUse=1 WtCom= 1.00D+00 WtEn= 0.00D+00
 Coeff-Com:  0.724D-05-0.152D-03 0.213D-03 0.577D-03 0.194D-02 0.159D-02
 Coeff-Com: -0.188D-01-0.532D-01 0.131D-01 0.440D+00 0.615D+00
 Coeff:      0.724D-05-0.152D-03 0.213D-03 0.577D-03 0.194D-02 0.159D-02
 Coeff:     -0.188D-01-0.532D-01 0.131D-01 0.440D+00 0.615D+00
 Gap=     0.429 Goal=   None    Shift=    0.000
 RMSDP=2.36D-09 MaxDP=6.19D-08 DE=-8.64D-12 OVMax= 6.88D-08

 SCF Done:  E(RwB97XD) =  -1351.69493544     A.U. after   11 cycles
            NFock= 11  Conv=0.24D-08     -V/T= 2.0017
 KE= 1.349381721224D+03 PE=-4.766280760565D+03 EE= 1.293105984569D+03
 Leave Link  502 at Sat Sep 14 17:37:06 2024, MaxMem=  4294967296 cpu:            2042.8 elap:             115.6
 (Enter /home/appl/Gaussian/g16/l701.exe)
 ... and contract with generalized density number  0.
 Compute integral first derivatives.
 R6Disp: Adding Grimme-D2 dispersion energy 1st derivatives to the gradient.
 Leave Link  701 at Sat Sep 14 17:37:12 2024, MaxMem=  4294967296 cpu:              68.4 elap:               3.8
 (Enter /home/appl/Gaussian/g16/l702.exe)
 L702 exits ... SP integral derivatives will be done elsewhere.
 Leave Link  702 at Sat Sep 14 17:37:13 2024, MaxMem=  4294967296 cpu:               1.8 elap:               0.2
 (Enter /home/appl/Gaussian/g16/l703.exe)
 Integral derivatives from FoFJK, PRISM(SPDF).
 Compute integral first derivatives, UseDBF=F ICtDFT=           0.
 Calling FoFJK, ICntrl=      2127 FMM=F ISym2X=1 I1Cent= 0 IOpClX= 0 NMat=1 NMatS=1 NMatT=0.
 FoFJK:  IHMeth= 1 ICntrl=    2127 DoSepK=T KAlg= 0 I1Cent=           0 FoldK=F
 IRaf=         1 NMat=       1 IRICut=       1 DoRegI=T DoRafI=F ISym2E= 1 IDoP0=0 IntGTp=1.
 FoFCou: FMM=F IPFlag=           0 FMFlag=      100000 FMFlg1=         800
         NFxFlg=           0 DoJE=F BraDBF=F KetDBF=F FulRan=T
         wScrn=  0.000000 ICntrl=      2527 IOpCl=  0 I1Cent=           0 NGrid=           0
         NMat0=    1 NMatS0=      1 NMatT0=    0 NMatD0=    1 NMtDS0=    0 NMtDT0=    0
 Petite list used in FoFCou.
 Leave Link  703 at Sat Sep 14 17:37:20 2024, MaxMem=  4294967296 cpu:             107.1 elap:               6.5
 (Enter /home/appl/Gaussian/g16/l716.exe)
 Dipole        =-1.77635684D-15-2.48689958D-14-8.97795397D-02
 ***** Axes restored to original set *****
 -------------------------------------------------------------------
 Center     Atomic                   Forces (Hartrees/Bohr)
 Number     Number              X              Y              Z
 -------------------------------------------------------------------
      1       16           0.001190321   -0.001482700    0.000754893
      2        9          -0.000249819   -0.000078904   -0.000806868
      3        8          -0.000296383   -0.000057576   -0.000026274
      4        8           0.000019546    0.000881681    0.000114872
      5        7           0.000073834    0.000073834    0.000000000
      6       16          -0.001482700    0.001190321   -0.000754893
      7        9          -0.000078904   -0.000249819    0.000806868
      8        8           0.000881681    0.000019546   -0.000114872
      9        8          -0.000057576   -0.000296383    0.000026274
 -------------------------------------------------------------------
 Cartesian Forces:  Max     0.001482700 RMS     0.000655068
 Leave Link  716 at Sat Sep 14 17:37:21 2024, MaxMem=  4294967296 cpu:               2.1 elap:               0.2
 (Enter /home/appl/Gaussian/g16/l103.exe)

 GradGradGradGradGradGradGradGradGradGradGradGradGradGradGradGradGradGrad
 Berny optimization.
 Using GEDIIS/GDIIS optimizer.
 FormGI is forming the generalized inverse of G from B-inverse, IUseBI=4.
 Internal  Forces:  Max     0.001084991 RMS     0.000485583
 Search for a local minimum.
 Step number   7 out of a maximum of  100
 All quantities printed in internal units (Hartrees-Bohrs-Radians)
 RMS Force = .48558D-03 SwitMx=.10000D-02 MixMth= 2
 Mixed Optimization -- En-DIIS/RFO-DIIS
 Update second derivatives using D2CorX and points    2    3    4    5    6
                                                      7
 DE= -5.89D-05 DEPred=-4.98D-05 R= 1.18D+00
 TightC=F SS=  1.41D+00  RLast= 1.89D-02 DXNew= 1.4270D+00 5.6611D-02
 Trust test= 1.18D+00 RLast= 1.89D-02 DXMaxT set to 8.49D-01
 ITU=  1  1  1  1  1  1  0
 Use linear search instead of GDIIS.
     Eigenvalues ---    0.03585   0.04055   0.15028   0.16841   0.18107
     Eigenvalues ---    0.23037   0.24078   0.25000   0.25000   0.25000
     Eigenvalues ---    0.25131   0.29749   0.31753   0.39988   0.51353
     Eigenvalues ---    0.70849   0.79596   1.08790   1.16989   1.28723
     Eigenvalues ---    2.53498
 RFO step:  Lambda=-1.35452400D-05 EMin= 3.58492271D-02
 Quartic linear search produced a step of  0.22436.
 Iteration  1 RMS(Cart)=  0.00490641 RMS(Int)=  0.00000820
 Iteration  2 RMS(Cart)=  0.00000928 RMS(Int)=  0.00000061
 Iteration  3 RMS(Cart)=  0.00000000 RMS(Int)=  0.00000061
 ITry= 1 IFail=0 DXMaxC= 8.86D-03 DCOld= 1.00D+10 DXMaxT= 8.49D-01 DXLimC= 3.00D+00 Rises=F
 ClnCor:  largest displacement from symmetrization is 1.74D-12 for atom     9.
 Variable       Old X    -DE/DX   Delta X   Delta X   Delta X     New X
                                 (Linear)    (Quad)   (Total)
    R1        3.10728  -0.00085  -0.00160  -0.00161  -0.00321   3.10407
    R2        2.72279  -0.00020  -0.00091  -0.00010  -0.00101   2.72178
    R3        2.71917  -0.00089   0.00040  -0.00121  -0.00081   2.71837
    R4        2.99843   0.00084   0.00046   0.00044   0.00091   2.99934
    R5        2.99843   0.00084   0.00046   0.00044   0.00091   2.99934
    R6        3.10728  -0.00085  -0.00160  -0.00161  -0.00321   3.10407
    R7        2.71917  -0.00089   0.00040  -0.00121  -0.00081   2.71837
    R8        2.72279  -0.00020  -0.00091  -0.00010  -0.00101   2.72178
    A1        1.80908   0.00014  -0.00028   0.00119   0.00092   1.81000
    A2        1.80629   0.00003  -0.00062   0.00058  -0.00004   1.80625
    A3        1.78754   0.00020   0.00027   0.00099   0.00125   1.78879
    A4        2.08752   0.00004   0.00007  -0.00021  -0.00013   2.08738
    A5        2.03365  -0.00046  -0.00047  -0.00139  -0.00186   2.03179
    A6        1.89538   0.00015   0.00091  -0.00047   0.00043   1.89581
    A7        2.15450   0.00108  -0.00006   0.00421   0.00415   2.15865
    A8        1.78754   0.00020   0.00027   0.00099   0.00125   1.78879
    A9        1.89538   0.00015   0.00091  -0.00047   0.00043   1.89581
   A10        2.03365  -0.00046  -0.00047  -0.00139  -0.00186   2.03179
   A11        1.80629   0.00003  -0.00062   0.00058  -0.00004   1.80625
   A12        1.80908   0.00014  -0.00028   0.00119   0.00092   1.81000
   A13        2.08752   0.00004   0.00007  -0.00021  -0.00013   2.08738
    D1        1.33777  -0.00011  -0.00110  -0.00167  -0.00278   1.33500
    D2       -0.62282  -0.00019  -0.00073  -0.00312  -0.00385  -0.62666
    D3       -3.04236   0.00007  -0.00136  -0.00077  -0.00213  -3.04449
    D4        1.33777  -0.00011  -0.00110  -0.00167  -0.00278   1.33500
    D5       -3.04236   0.00007  -0.00136  -0.00077  -0.00213  -3.04449
    D6       -0.62282  -0.00019  -0.00073  -0.00312  -0.00385  -0.62666
         Item               Value     Threshold  Converged?
 Maximum Force            0.001085     0.000450     NO 
 RMS     Force            0.000486     0.000300     NO 
 Maximum Displacement     0.008860     0.001800     NO 
 RMS     Displacement     0.004906     0.001200     NO 
 Predicted change in Energy=-8.840923D-06
 Lowest energy point so far.  Saving SCF results.
 GradGradGradGradGradGradGradGradGradGradGradGradGradGradGradGradGradGrad

 Leave Link  103 at Sat Sep 14 17:37:37 2024, MaxMem=  4294967296 cpu:             196.8 elap:              15.8
 (Enter /home/appl/Gaussian/g16/l202.exe)
                          Input orientation:                          
 ---------------------------------------------------------------------
 Center     Atomic      Atomic             Coordinates (Angstroms)
 Number     Number       Type             X           Y           Z
 ---------------------------------------------------------------------
      1         16           0        7.035151   11.112875    4.888797
      2          9           0        7.592061   11.260201    6.427075
      3          8           0        7.898046   11.980332    4.128922
      4          8           0        7.068898    9.694051    4.654122
      5          7           0        5.520870   11.567870    5.026900
      6         16           0        5.065875   13.082151    5.165003
      7          9           0        5.213201   13.639061    3.626725
      8          8           0        3.647051   13.115898    5.399678
      9          8           0        5.933332   13.945046    5.924878
 ---------------------------------------------------------------------
                    Distance matrix (angstroms):
                    1          2          3          4          5
     1  S    0.000000
     2  F    1.642605   0.000000
     3  O    1.440305   2.427698   0.000000
     4  O    1.438497   2.422785   2.488052   0.000000
     5  N    1.587180   2.518925   2.574385   2.458974   0.000000
     6  S    2.798640   3.360646   3.210710   3.968919   1.587180
     7  F    3.360646   4.377203   3.195618   4.479091   2.518925
     8  O    3.968919   4.479091   4.579878   4.896318   2.458974
     9  O    3.210710   3.195618   3.308422   4.579878   2.574385
                    6          7          8          9
     6  S    0.000000
     7  F    1.642605   0.000000
     8  O    1.438497   2.422785   0.000000
     9  O    1.440305   2.427698   2.488052   0.000000
 Stoichiometry    F2NO4S2(1-)
 Framework group  C2[C2(N),X(F2O4S2)]
 Deg. of freedom    11
 Full point group                 C2      NOp   2
 RotChk:  IX=0 Diff= 5.17D-04
 Largest Abelian subgroup         C2      NOp   2
 Largest concise Abelian subgroup C2      NOp   2
                         Standard orientation:                         
 ---------------------------------------------------------------------
 Center     Atomic      Atomic             Coordinates (Angstroms)
 Number     Number       Type             X           Y           Z
 ---------------------------------------------------------------------
      1         16           0        0.000000    1.399320    0.085692
      2          9           0       -1.559351    1.535708   -0.412278
      3          8           0        0.756483    1.471104   -1.137851
      4          8           0        0.132159    2.444589    1.065090
      5          7           0       -0.000000    0.000000    0.834721
      6         16           0       -0.000000   -1.399320    0.085692
      7          9           0        1.559351   -1.535708   -0.412278
      8          8           0       -0.132159   -2.444589    1.065090
      9          8           0       -0.756483   -1.471104   -1.137851
 ---------------------------------------------------------------------
 Rotational constants (GHZ):           2.5249863           0.8787587           0.8617151
 Leave Link  202 at Sat Sep 14 17:37:38 2024, MaxMem=  4294967296 cpu:               2.5 elap:               0.3
 (Enter /home/appl/Gaussian/g16/l301.exe)
 Standard basis: 6-311++G(d,p) (5D, 7F)
 Ernie: Thresh=  0.10000D-02 Tol=  0.10000D-05 Strict=F.
 There are   113 symmetry adapted cartesian basis functions of A   symmetry.
 There are   110 symmetry adapted cartesian basis functions of B   symmetry.
 There are   108 symmetry adapted basis functions of A   symmetry.
 There are   106 symmetry adapted basis functions of B   symmetry.
   214 basis functions,   352 primitive gaussians,   223 cartesian basis functions
    45 alpha electrons       45 beta electrons
       nuclear repulsion energy       772.0284110328 Hartrees.
 IExCor= 4639 DFT=T Ex+Corr=wB97XD ExCW=0 ScaHFX=  1.000000
 ScaDFX=  1.000000  1.000000  1.000000  1.000000 ScalE2=  1.000000  1.000000
 IRadAn=      5 IRanWt=     -1 IRanGd=            0 ICorTp=0 IEmpDi=121
 HFx  wShort=  0.000000 wLong=  0.200000 cFull=  0.222036 cShort=  0.000000 cLong=  0.777964
 DFx  wShort=  0.000000 wLong=  0.200000 cFull=  0.000000 cShort=  0.000000 cLong=  1.000000
 NAtoms=    9 NActive=    9 NUniq=    5 SFac= 3.24D+00 NAtFMM=   60 NAOKFM=F Big=F
 Integral buffers will be    131072 words long.
 Raffenetti 2 integral format.
 Two-electron integral symmetry is turned on.
 R6Disp:  Grimme-D2 Dispersion energy=       -0.0028625817 Hartrees.
 Nuclear repulsion after empirical dispersion term =      772.0255484511 Hartrees.
 Leave Link  301 at Sat Sep 14 17:37:39 2024, MaxMem=  4294967296 cpu:               4.2 elap:               0.3
 (Enter /home/appl/Gaussian/g16/l302.exe)
 NPDir=0 NMtPBC=     1 NCelOv=     1 NCel=       1 NClECP=     1 NCelD=      1
         NCelK=      1 NCelE2=     1 NClLst=     1 CellRange=     0.0.
 One-electron integrals computed using PRISM.
 One-electron integral symmetry used in STVInt
 NBasis=   214 RedAO= T EigKep=  2.27D-04  NBF=   108   106
 NBsUse=   214 1.00D-06 EigRej= -1.00D+00 NBFU=   108   106
 Precomputing XC quadrature grid using
 IXCGrd= 4 IRadAn=           5 IRanWt=          -1 IRanGd=           0 AccXCQ= 0.00D+00.
 Generated NRdTot=       0 NPtTot=           0 NUsed=           0 NTot=          32
 NSgBfM=   223   223   223   223   223 MxSgAt=     9 MxSgA2=     9.
 Leave Link  302 at Sat Sep 14 17:37:50 2024, MaxMem=  4294967296 cpu:             189.3 elap:              10.4
 (Enter /home/appl/Gaussian/g16/l303.exe)
 DipDrv:  MaxL=1.
 Leave Link  303 at Sat Sep 14 17:37:52 2024, MaxMem=  4294967296 cpu:              12.0 elap:               0.8
 (Enter /home/appl/Gaussian/g16/l401.exe)
 Initial guess from the checkpoint file:  "/scr/Gau-139338.chk"
 B after Tr=     0.000000   -0.000000   -0.000000
         Rot=    1.000000   -0.000000   -0.000000    0.000187 Ang=   0.02 deg.
 Guess basis will be translated and rotated to current coordinates.
 JPrj=2 DoOrth=T DoCkMO=T.
 Initial guess orbital symmetries:
       Occupied  (B) (A) (A) (B) (B) (A) (B) (A) (A) (B) (A) (B)
                 (A) (B) (A) (A) (B) (A) (B) (A) (B) (A) (B) (A)
                 (B) (A) (B) (B) (A) (A) (B) (A) (B) (A) (B) (A)
                 (B) (A) (A) (B) (B) (A) (B) (B) (A)
       Virtual   (A) (B) (A) (B) (A) (B) (A) (A) (B) (A) (B) (B)
                 (A) (B) (A) (B) (A) (B) (A) (A) (B) (A) (B) (B)
                 (A) (A) (B) (B) (B) (A) (B) (A) (A) (B) (A) (A)
                 (A) (B) (B) (A) (B) (A) (B) (B) (A) (B) (B) (A)
                 (B) (A) (A) (B) (A) (B) (A) (B) (A) (B) (B) (A)
                 (B) (B) (A) (A) (B) (B) (A) (B) (A) (B) (A) (A)
                 (B) (A) (B) (A) (B) (A) (A) (B) (B) (A) (A) (B)
                 (B) (A) (A) (B) (A) (B) (A) (A) (B) (B) (B) (A)
                 (B) (A) (A) (A) (B) (A) (B) (A) (B) (A) (B) (B)
                 (B) (A) (A) (B) (A) (B) (A) (B) (A) (B) (A) (B)
                 (A) (B) (A) (B) (A) (B) (A) (A) (B) (B) (A) (B)
                 (A) (B) (A) (B) (A) (B) (A) (B) (B) (A) (B) (A)
                 (A) (B) (A) (B) (B) (A) (A) (B) (A) (B) (A) (B)
                 (A) (B) (A) (B) (A) (A) (B) (A) (B) (B) (A) (A)
                 (B)
 The electronic state of the initial guess is 1-A.
 Leave Link  401 at Sat Sep 14 17:37:58 2024, MaxMem=  4294967296 cpu:              96.5 elap:               5.4
 (Enter /home/appl/Gaussian/g16/l502.exe)
 Keep R1 ints in memory in symmetry-blocked form, NReq=793946642.
 FoFCou: FMM=F IPFlag=           0 FMFlag=           0 FMFlg1=           0
         NFxFlg=           0 DoJE=F BraDBF=F KetDBF=F FulRan=T
         wScrn=  0.000000 ICntrl=       600 IOpCl=  0 I1Cent=           0 NGrid=           0
         NMat0=    1 NMatS0=  23005 NMatT0=    0 NMatD0=    1 NMtDS0=    0 NMtDT0=    0
 Petite list used in FoFCou.
 Closed shell SCF:
 Using DIIS extrapolation, IDIIS=  1040.
 NGot=  4294967296 LenX=  4162486518 LenY=  4162436348
 Requested convergence on RMS density matrix=1.00D-08 within 128 cycles.
 Requested convergence on MAX density matrix=1.00D-06.
 Requested convergence on             energy=1.00D-06.
 No special actions if energy rises.

 Cycle   1  Pass 1  IDiag  1:
 E= -1351.69488096802    
 DIIS: error= 2.86D-04 at cycle   1 NSaved=   1.
 NSaved= 1 IEnMin= 1 EnMin= -1351.69488096802     IErMin= 1 ErrMin= 2.86D-04
 ErrMax= 2.86D-04  0.00D+00 EMaxC= 1.00D-01 BMatC= 4.23D-05 BMatP= 4.23D-05
 IDIUse=3 WtCom= 9.97D-01 WtEn= 2.86D-03
 Coeff-Com:  0.100D+01
 Coeff-En:   0.100D+01
 Coeff:      0.100D+01
 Gap=     0.428 Goal=   None    Shift=    0.000
 RMSDP=6.76D-05 MaxDP=1.21D-03              OVMax= 1.37D-03

 Cycle   2  Pass 1  IDiag  1:
 E= -1351.69494102822     Delta-E=       -0.000060060201 Rises=F Damp=F
 DIIS: error= 1.24D-04 at cycle   2 NSaved=   2.
 NSaved= 2 IEnMin= 2 EnMin= -1351.69494102822     IErMin= 2 ErrMin= 1.24D-04
 ErrMax= 1.24D-04  0.00D+00 EMaxC= 1.00D-01 BMatC= 3.85D-06 BMatP= 4.23D-05
 IDIUse=3 WtCom= 9.99D-01 WtEn= 1.24D-03
 Coeff-Com: -0.148D-01 0.101D+01
 Coeff-En:   0.000D+00 0.100D+01
 Coeff:     -0.147D-01 0.101D+01
 Gap=     0.429 Goal=   None    Shift=    0.000
 RMSDP=2.10D-05 MaxDP=4.40D-04 DE=-6.01D-05 OVMax= 6.09D-04

 Cycle   3  Pass 1  IDiag  1:
 E= -1351.69494196774     Delta-E=       -0.000000939523 Rises=F Damp=F
 DIIS: error= 1.55D-04 at cycle   3 NSaved=   3.
 NSaved= 3 IEnMin= 3 EnMin= -1351.69494196774     IErMin= 2 ErrMin= 1.24D-04
 ErrMax= 1.55D-04  0.00D+00 EMaxC= 1.00D-01 BMatC= 5.18D-06 BMatP= 3.85D-06
 IDIUse=3 WtCom= 4.45D-01 WtEn= 5.55D-01
 Coeff-Com: -0.982D-01 0.601D+00 0.497D+00
 Coeff-En:   0.000D+00 0.405D+00 0.595D+00
 Coeff:     -0.437D-01 0.492D+00 0.551D+00
 Gap=     0.428 Goal=   None    Shift=    0.000
 RMSDP=1.65D-05 MaxDP=3.35D-04 DE=-9.40D-07 OVMax= 4.43D-04

 Cycle   4  Pass 1  IDiag  1:
 E= -1351.69494512012     Delta-E=       -0.000003152371 Rises=F Damp=F
 DIIS: error= 5.18D-05 at cycle   4 NSaved=   4.
 NSaved= 4 IEnMin= 4 EnMin= -1351.69494512012     IErMin= 4 ErrMin= 5.18D-05
 ErrMax= 5.18D-05  0.00D+00 EMaxC= 1.00D-01 BMatC= 5.09D-07 BMatP= 3.85D-06
 IDIUse=1 WtCom= 1.00D+00 WtEn= 0.00D+00
 Coeff-Com: -0.193D-01 0.166D-01 0.249D+00 0.753D+00
 Coeff:     -0.193D-01 0.166D-01 0.249D+00 0.753D+00
 Gap=     0.428 Goal=   None    Shift=    0.000
 RMSDP=4.44D-06 MaxDP=1.05D-04 DE=-3.15D-06 OVMax= 1.26D-04

 Cycle   5  Pass 1  IDiag  1:
 E= -1351.69494549852     Delta-E=       -0.000000378409 Rises=F Damp=F
 DIIS: error= 9.10D-06 at cycle   5 NSaved=   5.
 NSaved= 5 IEnMin= 5 EnMin= -1351.69494549852     IErMin= 5 ErrMin= 9.10D-06
 ErrMax= 9.10D-06  0.00D+00 EMaxC= 1.00D-01 BMatC= 2.40D-08 BMatP= 5.09D-07
 IDIUse=1 WtCom= 1.00D+00 WtEn= 0.00D+00
 Coeff-Com:  0.141D-02-0.610D-01 0.702D-01 0.391D+00 0.598D+00
 Coeff:      0.141D-02-0.610D-01 0.702D-01 0.391D+00 0.598D+00
 Gap=     0.428 Goal=   None    Shift=    0.000
 RMSDP=1.19D-06 MaxDP=2.24D-05 DE=-3.78D-07 OVMax= 3.17D-05

 Cycle   6  Pass 1  IDiag  1:
 E= -1351.69494551595     Delta-E=       -0.000000017428 Rises=F Damp=F
 DIIS: error= 2.54D-06 at cycle   6 NSaved=   6.
 NSaved= 6 IEnMin= 6 EnMin= -1351.69494551595     IErMin= 6 ErrMin= 2.54D-06
 ErrMax= 2.54D-06  0.00D+00 EMaxC= 1.00D-01 BMatC= 1.92D-09 BMatP= 2.40D-08
 IDIUse=1 WtCom= 1.00D+00 WtEn= 0.00D+00
 Coeff-Com:  0.340D-02-0.288D-01-0.945D-02 0.541D-01 0.248D+00 0.732D+00
 Coeff:      0.340D-02-0.288D-01-0.945D-02 0.541D-01 0.248D+00 0.732D+00
 Gap=     0.428 Goal=   None    Shift=    0.000
 RMSDP=4.41D-07 MaxDP=1.03D-05 DE=-1.74D-08 OVMax= 1.50D-05

 Cycle   7  Pass 1  IDiag  1:
 E= -1351.69494551797     Delta-E=       -0.000000002014 Rises=F Damp=F
 DIIS: error= 5.28D-07 at cycle   7 NSaved=   7.
 NSaved= 7 IEnMin= 7 EnMin= -1351.69494551797     IErMin= 7 ErrMin= 5.28D-07
 ErrMax= 5.28D-07  0.00D+00 EMaxC= 1.00D-01 BMatC= 7.76D-11 BMatP= 1.92D-09
 IDIUse=1 WtCom= 1.00D+00 WtEn= 0.00D+00
 Coeff-Com:  0.464D-03 0.599D-03-0.850D-02-0.279D-01-0.203D-01 0.109D+00
 Coeff-Com:  0.947D+00
 Coeff:      0.464D-03 0.599D-03-0.850D-02-0.279D-01-0.203D-01 0.109D+00
 Coeff:      0.947D+00
 Gap=     0.428 Goal=   None    Shift=    0.000
 RMSDP=1.72D-07 MaxDP=3.51D-06 DE=-2.01D-09 OVMax= 6.51D-06

 Cycle   8  Pass 1  IDiag  1:
 E= -1351.69494551814     Delta-E=       -0.000000000169 Rises=F Damp=F
 DIIS: error= 2.47D-07 at cycle   8 NSaved=   8.
 NSaved= 8 IEnMin= 8 EnMin= -1351.69494551814     IErMin= 8 ErrMin= 2.47D-07
 ErrMax= 2.47D-07  0.00D+00 EMaxC= 1.00D-01 BMatC= 2.13D-11 BMatP= 7.76D-11
 IDIUse=1 WtCom= 1.00D+00 WtEn= 0.00D+00
 Coeff-Com: -0.848D-04 0.274D-02-0.283D-02-0.165D-01-0.296D-01-0.169D-01
 Coeff-Com:  0.404D+00 0.659D+00
 Coeff:     -0.848D-04 0.274D-02-0.283D-02-0.165D-01-0.296D-01-0.169D-01
 Coeff:      0.404D+00 0.659D+00
 Gap=     0.428 Goal=   None    Shift=    0.000
 RMSDP=5.06D-08 MaxDP=8.01D-07 DE=-1.69D-10 OVMax= 1.82D-06

 Cycle   9  Pass 1  IDiag  1:
 E= -1351.69494551815     Delta-E=       -0.000000000018 Rises=F Damp=F
 DIIS: error= 1.21D-07 at cycle   9 NSaved=   9.
 NSaved= 9 IEnMin= 9 EnMin= -1351.69494551815     IErMin= 9 ErrMin= 1.21D-07
 ErrMax= 1.21D-07  0.00D+00 EMaxC= 1.00D-01 BMatC= 4.67D-12 BMatP= 2.13D-11
 IDIUse=1 WtCom= 1.00D+00 WtEn= 0.00D+00
 Coeff-Com: -0.149D-03 0.146D-02 0.185D-03-0.351D-02-0.121D-01-0.301D-01
 Coeff-Com:  0.318D-01 0.338D+00 0.674D+00
 Coeff:     -0.149D-03 0.146D-02 0.185D-03-0.351D-02-0.121D-01-0.301D-01
 Coeff:      0.318D-01 0.338D+00 0.674D+00
 Gap=     0.428 Goal=   None    Shift=    0.000
 RMSDP=2.08D-08 MaxDP=4.22D-07 DE=-1.77D-11 OVMax= 6.78D-07

 Cycle  10  Pass 1  IDiag  1:
 E= -1351.69494551817     Delta-E=       -0.000000000014 Rises=F Damp=F
 DIIS: error= 2.14D-08 at cycle  10 NSaved=  10.
 NSaved=10 IEnMin=10 EnMin= -1351.69494551817     IErMin=10 ErrMin= 2.14D-08
 ErrMax= 2.14D-08  0.00D+00 EMaxC= 1.00D-01 BMatC= 1.82D-13 BMatP= 4.67D-12
 IDIUse=1 WtCom= 1.00D+00 WtEn= 0.00D+00
 Coeff-Com: -0.178D-04-0.123D-04 0.317D-03 0.104D-02 0.641D-03-0.315D-02
 Coeff-Com: -0.360D-01-0.101D-02 0.137D+00 0.901D+00
 Coeff:     -0.178D-04-0.123D-04 0.317D-03 0.104D-02 0.641D-03-0.315D-02
 Coeff:     -0.360D-01-0.101D-02 0.137D+00 0.901D+00
 Gap=     0.428 Goal=   None    Shift=    0.000
 RMSDP=8.47D-09 MaxDP=1.96D-07 DE=-1.36D-11 OVMax= 2.25D-07

 SCF Done:  E(RwB97XD) =  -1351.69494552     A.U. after   10 cycles
            NFock= 10  Conv=0.85D-08     -V/T= 2.0017
 KE= 1.349388029035D+03 PE=-4.766139424017D+03 EE= 1.293030901014D+03
 Leave Link  502 at Sat Sep 14 17:39:53 2024, MaxMem=  4294967296 cpu:            1943.8 elap:             114.9
 (Enter /home/appl/Gaussian/g16/l701.exe)
 ... and contract with generalized density number  0.
 Compute integral first derivatives.
 R6Disp: Adding Grimme-D2 dispersion energy 1st derivatives to the gradient.
 Leave Link  701 at Sat Sep 14 17:40:00 2024, MaxMem=  4294967296 cpu:              72.4 elap:               4.1
 (Enter /home/appl/Gaussian/g16/l702.exe)
 L702 exits ... SP integral derivatives will be done elsewhere.
 Leave Link  702 at Sat Sep 14 17:40:01 2024, MaxMem=  4294967296 cpu:               3.2 elap:               0.2
 (Enter /home/appl/Gaussian/g16/l703.exe)
 Integral derivatives from FoFJK, PRISM(SPDF).
 Compute integral first derivatives, UseDBF=F ICtDFT=           0.
 Calling FoFJK, ICntrl=      2127 FMM=F ISym2X=1 I1Cent= 0 IOpClX= 0 NMat=1 NMatS=1 NMatT=0.
 FoFJK:  IHMeth= 1 ICntrl=    2127 DoSepK=T KAlg= 0 I1Cent=           0 FoldK=F
 IRaf=         1 NMat=       1 IRICut=       1 DoRegI=T DoRafI=F ISym2E= 1 IDoP0=0 IntGTp=1.
 FoFCou: FMM=F IPFlag=           0 FMFlag=      100000 FMFlg1=         800
         NFxFlg=           0 DoJE=F BraDBF=F KetDBF=F FulRan=T
         wScrn=  0.000000 ICntrl=      2527 IOpCl=  0 I1Cent=           0 NGrid=           0
         NMat0=    1 NMatS0=      1 NMatT0=    0 NMatD0=    1 NMtDS0=    0 NMtDT0=    0
 Petite list used in FoFCou.
 Leave Link  703 at Sat Sep 14 17:40:08 2024, MaxMem=  4294967296 cpu:             111.8 elap:               6.9
 (Enter /home/appl/Gaussian/g16/l716.exe)
 Dipole        = 0.00000000D+00 3.55271368D-15-9.50249083D-02
 ***** Axes restored to original set *****
 -------------------------------------------------------------------
 Center     Atomic                   Forces (Hartrees/Bohr)
 Number     Number              X              Y              Z
 -------------------------------------------------------------------
      1       16          -0.000145106   -0.000845232    0.000447768
      2        9          -0.000075339    0.000043010   -0.000231639
      3        8           0.000348874    0.000404621   -0.000339843
      4        8          -0.000025248    0.000340829    0.000070513
      5        7          -0.000046409   -0.000046409    0.000000000
      6       16          -0.000845232   -0.000145106   -0.000447768
      7        9           0.000043010   -0.000075339    0.000231639
      8        8           0.000340829   -0.000025248   -0.000070513
      9        8           0.000404621    0.000348874    0.000339843
 -------------------------------------------------------------------
 Cartesian Forces:  Max     0.000845232 RMS     0.000335769
 Leave Link  716 at Sat Sep 14 17:40:09 2024, MaxMem=  4294967296 cpu:               1.6 elap:               0.1
 (Enter /home/appl/Gaussian/g16/l103.exe)

 GradGradGradGradGradGradGradGradGradGradGradGradGradGradGradGradGradGrad
 Berny optimization.
 Using GEDIIS/GDIIS optimizer.
 FormGI is forming the generalized inverse of G from B-inverse, IUseBI=4.
 Internal  Forces:  Max     0.000631334 RMS     0.000215175
 Search for a local minimum.
 Step number   8 out of a maximum of  100
 All quantities printed in internal units (Hartrees-Bohrs-Radians)
 RMS Force = .21517D-03 SwitMx=.10000D-02 MixMth= 2
 Mixed Optimization -- En-DIIS/RFO-DIIS
 Swapping is turned off.
 Update second derivatives using D2CorX and points    2    3    4    5    6
                                                      7    8
 DE= -1.01D-05 DEPred=-8.84D-06 R= 1.14D+00
 TightC=F SS=  1.41D+00  RLast= 1.04D-02 DXNew= 1.4270D+00 3.1331D-02
 Trust test= 1.14D+00 RLast= 1.04D-02 DXMaxT set to 8.49D-01
 ITU=  1  1  1  1  1  1  1  0
     Eigenvalues ---    0.03053   0.04055   0.15049   0.17685   0.18101
     Eigenvalues ---    0.23152   0.23375   0.24991   0.25000   0.25000
     Eigenvalues ---    0.25000   0.27618   0.31940   0.40377   0.51353
     Eigenvalues ---    0.73255   0.79596   1.08619   1.25909   1.28723
     Eigenvalues ---    2.53498
 En-DIIS/RFO-DIIS/Sim-DIIS IScMMF=       -3 using points:     8    7
 RFO step:  Lambda=-2.52184321D-06.
 NNeg= 0 NGDIIS= 2 SimSw=  2.50D-01 Rises=F DC= -1.01D-05 SmlDif=  1.00D-05
 NRisDI= 0 DoIntr=F SqrtH=F CThrHd= 10.0 CDAdj=  3.0
 RMS Error=  0.1248533868D-02 NUsed= 2 OKEnD=T EnDIS=F
 InvSVX:  RCond= 2.73D-05 Info=           0 Equed=N FErr=  2.61D-15 BErr=  7.23D-17
 DidBck=F Rises=F RFO-DIIS coefs:    1.50588   -0.50588
 Iteration  1 RMS(Cart)=  0.00314474 RMS(Int)=  0.00000371
 Iteration  2 RMS(Cart)=  0.00000374 RMS(Int)=  0.00000024
 Iteration  3 RMS(Cart)=  0.00000000 RMS(Int)=  0.00000024
 ITry= 1 IFail=0 DXMaxC= 6.22D-03 DCOld= 1.00D+10 DXMaxT= 8.49D-01 DXLimC= 3.00D+00 Rises=F
 ClnCor:  largest displacement from symmetrization is 2.20D-12 for atom     7.
 Variable       Old X    -DE/DX   Delta X   Delta X   Delta X     New X
                                 (Linear)    (Quad)   (Total)
    R1        3.10407  -0.00024  -0.00162   0.00055  -0.00108   3.10300
    R2        2.72178   0.00063  -0.00051   0.00081   0.00030   2.72208
    R3        2.71837  -0.00035  -0.00041   0.00007  -0.00034   2.71802
    R4        2.99934   0.00012   0.00046  -0.00023   0.00023   2.99957
    R5        2.99934   0.00012   0.00046  -0.00023   0.00023   2.99957
    R6        3.10407  -0.00024  -0.00162   0.00055  -0.00108   3.10300
    R7        2.71837  -0.00035  -0.00041   0.00007  -0.00034   2.71802
    R8        2.72178   0.00063  -0.00051   0.00081   0.00030   2.72208
    A1        1.81000  -0.00002   0.00046  -0.00048  -0.00001   1.80999
    A2        1.80625   0.00006  -0.00002   0.00024   0.00021   1.80647
    A3        1.78879  -0.00003   0.00063  -0.00066  -0.00002   1.78877
    A4        2.08738   0.00005  -0.00007   0.00037   0.00030   2.08768
    A5        2.03179  -0.00007  -0.00094   0.00036  -0.00058   2.03121
    A6        1.89581   0.00001   0.00022  -0.00007   0.00015   1.89596
    A7        2.15865  -0.00001   0.00210  -0.00166   0.00044   2.15909
    A8        1.78879  -0.00003   0.00063  -0.00066  -0.00002   1.78877
    A9        1.89581   0.00001   0.00022  -0.00007   0.00015   1.89596
   A10        2.03179  -0.00007  -0.00094   0.00036  -0.00058   2.03121
   A11        1.80625   0.00006  -0.00002   0.00024   0.00021   1.80647
   A12        1.81000  -0.00002   0.00046  -0.00048  -0.00001   1.80999
   A13        2.08738   0.00005  -0.00007   0.00037   0.00030   2.08768
    D1        1.33500  -0.00012  -0.00141  -0.00130  -0.00271   1.33229
    D2       -0.62666  -0.00005  -0.00195  -0.00047  -0.00242  -0.62908
    D3       -3.04449  -0.00006  -0.00108  -0.00135  -0.00242  -3.04691
    D4        1.33500  -0.00012  -0.00141  -0.00130  -0.00271   1.33229
    D5       -3.04449  -0.00006  -0.00108  -0.00135  -0.00242  -3.04691
    D6       -0.62666  -0.00005  -0.00195  -0.00047  -0.00242  -0.62908
         Item               Value     Threshold  Converged?
 Maximum Force            0.000631     0.000450     NO 
 RMS     Force            0.000215     0.000300     YES
 Maximum Displacement     0.006218     0.001800     NO 
 RMS     Displacement     0.003145     0.001200     NO 
 Predicted change in Energy=-1.260959D-06
 Lowest energy point so far.  Saving SCF results.
 GradGradGradGradGradGradGradGradGradGradGradGradGradGradGradGradGradGrad

 Leave Link  103 at Sat Sep 14 17:40:26 2024, MaxMem=  4294967296 cpu:             191.2 elap:              16.0
 (Enter /home/appl/Gaussian/g16/l202.exe)
                          Input orientation:                          
 ---------------------------------------------------------------------
 Center     Atomic      Atomic             Coordinates (Angstroms)
 Number     Number       Type             X           Y           Z
 ---------------------------------------------------------------------
      1         16           0        7.035030   11.112429    4.888350
      2          9           0        7.593256   11.263387    6.425189
      3          8           0        7.896678   11.978890    4.125632
      4          8           0        7.068758    9.693296    4.656666
      5          7           0        5.520763   11.567763    5.026900
      6         16           0        5.065429   13.082030    5.165450
      7          9           0        5.216387   13.640256    3.628611
      8          8           0        3.646296   13.115758    5.397134
      9          8           0        5.931890   13.943678    5.928168
 ---------------------------------------------------------------------
                    Distance matrix (angstroms):
                    1          2          3          4          5
     1  S    0.000000
     2  F    1.642035   0.000000
     3  O    1.440463   2.427339   0.000000
     4  O    1.438316   2.422387   2.488251   0.000000
     5  N    1.587303   2.518548   2.574157   2.459063   0.000000
     6  S    2.799186   3.359214   3.211560   3.969346   1.587303
     7  F    3.359214   4.372627   3.192355   4.479584   2.518548
     8  O    3.969346   4.479584   4.579841   4.896406   2.459063
     9  O    3.211560   3.192355   3.312087   4.579841   2.574157
                    6          7          8          9
     6  S    0.000000
     7  F    1.642035   0.000000
     8  O    1.438316   2.422387   0.000000
     9  O    1.440463   2.427339   2.488251   0.000000
 Stoichiometry    F2NO4S2(1-)
 Framework group  C2[C2(N),X(F2O4S2)]
 Deg. of freedom    11
 Full point group                 C2      NOp   2
 RotChk:  IX=0 Diff= 4.27D-04
 Largest Abelian subgroup         C2      NOp   2
 Largest concise Abelian subgroup C2      NOp   2
                         Standard orientation:                         
 ---------------------------------------------------------------------
 Center     Atomic      Atomic             Coordinates (Angstroms)
 Number     Number       Type             X           Y           Z
 ---------------------------------------------------------------------
      1         16           0       -0.000000    1.399593    0.086093
      2          9           0       -1.557798    1.534024   -0.415376
      3          8           0        0.759309    1.471710   -1.135866
      4          8           0        0.128848    2.444810    1.065722
      5          7           0        0.000000    0.000000    0.834872
      6         16           0       -0.000000   -1.399593    0.086093
      7          9           0        1.557798   -1.534024   -0.415376
      8          8           0       -0.128848   -2.444810    1.065722
      9          8           0       -0.759309   -1.471710   -1.135866
 ---------------------------------------------------------------------
 Rotational constants (GHZ):           2.5256316           0.8788677           0.8619067
 Leave Link  202 at Sat Sep 14 17:40:27 2024, MaxMem=  4294967296 cpu:               4.3 elap:               0.4
 (Enter /home/appl/Gaussian/g16/l301.exe)
 Standard basis: 6-311++G(d,p) (5D, 7F)
 Ernie: Thresh=  0.10000D-02 Tol=  0.10000D-05 Strict=F.
 There are   113 symmetry adapted cartesian basis functions of A   symmetry.
 There are   110 symmetry adapted cartesian basis functions of B   symmetry.
 There are   108 symmetry adapted basis functions of A   symmetry.
 There are   106 symmetry adapted basis functions of B   symmetry.
   214 basis functions,   352 primitive gaussians,   223 cartesian basis functions
    45 alpha electrons       45 beta electrons
       nuclear repulsion energy       772.0856088924 Hartrees.
 IExCor= 4639 DFT=T Ex+Corr=wB97XD ExCW=0 ScaHFX=  1.000000
 ScaDFX=  1.000000  1.000000  1.000000  1.000000 ScalE2=  1.000000  1.000000
 IRadAn=      5 IRanWt=     -1 IRanGd=            0 ICorTp=0 IEmpDi=121
 HFx  wShort=  0.000000 wLong=  0.200000 cFull=  0.222036 cShort=  0.000000 cLong=  0.777964
 DFx  wShort=  0.000000 wLong=  0.200000 cFull=  0.000000 cShort=  0.000000 cLong=  1.000000
 NAtoms=    9 NActive=    9 NUniq=    5 SFac= 3.24D+00 NAtFMM=   60 NAOKFM=F Big=F
 Integral buffers will be    131072 words long.
 Raffenetti 2 integral format.
 Two-electron integral symmetry is turned on.
 R6Disp:  Grimme-D2 Dispersion energy=       -0.0028626231 Hartrees.
 Nuclear repulsion after empirical dispersion term =      772.0827462693 Hartrees.
 Leave Link  301 at Sat Sep 14 17:40:28 2024, MaxMem=  4294967296 cpu:               3.5 elap:               0.3
 (Enter /home/appl/Gaussian/g16/l302.exe)
 NPDir=0 NMtPBC=     1 NCelOv=     1 NCel=       1 NClECP=     1 NCelD=      1
         NCelK=      1 NCelE2=     1 NClLst=     1 CellRange=     0.0.
 One-electron integrals computed using PRISM.
 One-electron integral symmetry used in STVInt
 NBasis=   214 RedAO= T EigKep=  2.26D-04  NBF=   108   106
 NBsUse=   214 1.00D-06 EigRej= -1.00D+00 NBFU=   108   106
 Precomputing XC quadrature grid using
 IXCGrd= 4 IRadAn=           5 IRanWt=          -1 IRanGd=           0 AccXCQ= 0.00D+00.
 Generated NRdTot=       0 NPtTot=           0 NUsed=           0 NTot=          32
 NSgBfM=   223   223   223   223   223 MxSgAt=     9 MxSgA2=     9.
 Leave Link  302 at Sat Sep 14 17:40:38 2024, MaxMem=  4294967296 cpu:             171.6 elap:               9.6
 (Enter /home/appl/Gaussian/g16/l303.exe)
 DipDrv:  MaxL=1.
 Leave Link  303 at Sat Sep 14 17:40:39 2024, MaxMem=  4294967296 cpu:              11.8 elap:               0.8
 (Enter /home/appl/Gaussian/g16/l401.exe)
 Initial guess from the checkpoint file:  "/scr/Gau-139338.chk"
 B after Tr=     0.000000   -0.000000   -0.000000
         Rot=    1.000000    0.000000    0.000000   -0.000130 Ang=  -0.01 deg.
 Guess basis will be translated and rotated to current coordinates.
 JPrj=2 DoOrth=T DoCkMO=T.
 Initial guess orbital symmetries:
       Occupied  (B) (A) (A) (B) (B) (A) (B) (A) (A) (B) (A) (B)
                 (A) (B) (A) (A) (B) (A) (B) (A) (B) (A) (B) (A)
                 (B) (A) (B) (B) (A) (A) (B) (A) (B) (A) (B) (A)
                 (B) (A) (A) (B) (B) (A) (B) (B) (A)
       Virtual   (A) (B) (A) (B) (A) (B) (A) (A) (B) (A) (B) (B)
                 (A) (B) (A) (B) (A) (B) (A) (A) (B) (A) (B) (B)
                 (A) (A) (B) (B) (B) (A) (B) (A) (A) (B) (A) (A)
                 (A) (B) (B) (A) (B) (A) (B) (B) (A) (B) (B) (A)
                 (B) (A) (A) (B) (A) (B) (A) (B) (A) (B) (B) (A)
                 (B) (B) (A) (A) (B) (B) (A) (B) (A) (B) (A) (A)
                 (B) (A) (B) (A) (B) (A) (A) (B) (B) (A) (A) (B)
                 (B) (A) (A) (B) (A) (B) (A) (A) (B) (B) (B) (A)
                 (B) (A) (A) (B) (A) (A) (B) (A) (B) (A) (B) (B)
                 (B) (A) (A) (B) (A) (B) (A) (B) (A) (B) (A) (B)
                 (A) (B) (A) (B) (A) (B) (A) (A) (B) (B) (A) (B)
                 (A) (B) (A) (B) (A) (B) (A) (B) (B) (A) (B) (A)
                 (A) (B) (A) (B) (B) (A) (A) (B) (A) (B) (A) (B)
                 (A) (B) (A) (B) (A) (A) (B) (A) (B) (B) (A) (A)
                 (B)
 The electronic state of the initial guess is 1-A.
 Leave Link  401 at Sat Sep 14 17:40:45 2024, MaxMem=  4294967296 cpu:              89.8 elap:               5.1
 (Enter /home/appl/Gaussian/g16/l502.exe)
 Keep R1 ints in memory in symmetry-blocked form, NReq=793946642.
 FoFCou: FMM=F IPFlag=           0 FMFlag=           0 FMFlg1=           0
         NFxFlg=           0 DoJE=F BraDBF=F KetDBF=F FulRan=T
         wScrn=  0.000000 ICntrl=       600 IOpCl=  0 I1Cent=           0 NGrid=           0
         NMat0=    1 NMatS0=  23005 NMatT0=    0 NMatD0=    1 NMtDS0=    0 NMtDT0=    0
 Petite list used in FoFCou.
 Closed shell SCF:
 Using DIIS extrapolation, IDIIS=  1040.
 NGot=  4294967296 LenX=  4162486518 LenY=  4162436348
 Requested convergence on RMS density matrix=1.00D-08 within 128 cycles.
 Requested convergence on MAX density matrix=1.00D-06.
 Requested convergence on             energy=1.00D-06.
 No special actions if energy rises.

 Cycle   1  Pass 1  IDiag  1:
 E= -1351.69492158704    
 DIIS: error= 1.87D-04 at cycle   1 NSaved=   1.
 NSaved= 1 IEnMin= 1 EnMin= -1351.69492158704     IErMin= 1 ErrMin= 1.87D-04
 ErrMax= 1.87D-04  0.00D+00 EMaxC= 1.00D-01 BMatC= 1.62D-05 BMatP= 1.62D-05
 IDIUse=3 WtCom= 9.98D-01 WtEn= 1.87D-03
 Coeff-Com:  0.100D+01
 Coeff-En:   0.100D+01
 Coeff:      0.100D+01
 Gap=     0.428 Goal=   None    Shift=    0.000
 RMSDP=4.84D-05 MaxDP=9.25D-04              OVMax= 9.76D-04

 Cycle   2  Pass 1  IDiag  1:
 E= -1351.69494601993     Delta-E=       -0.000024432893 Rises=F Damp=F
 DIIS: error= 3.72D-05 at cycle   2 NSaved=   2.
 NSaved= 2 IEnMin= 2 EnMin= -1351.69494601993     IErMin= 2 ErrMin= 3.72D-05
 ErrMax= 3.72D-05  0.00D+00 EMaxC= 1.00D-01 BMatC= 6.80D-07 BMatP= 1.62D-05
 IDIUse=1 WtCom= 1.00D+00 WtEn= 0.00D+00
 Coeff-Com: -0.143D+00 0.114D+01
 Coeff:     -0.143D+00 0.114D+01
 Gap=     0.428 Goal=   None    Shift=    0.000
 RMSDP=1.14D-05 MaxDP=2.06D-04 DE=-2.44D-05 OVMax= 2.66D-04

 Cycle   3  Pass 1  IDiag  1:
 E= -1351.69494703695     Delta-E=       -0.000001017020 Rises=F Damp=F
 DIIS: error= 4.60D-05 at cycle   3 NSaved=   3.
 NSaved= 3 IEnMin= 3 EnMin= -1351.69494703695     IErMin= 2 ErrMin= 3.72D-05
 ErrMax= 4.60D-05  0.00D+00 EMaxC= 1.00D-01 BMatC= 3.95D-07 BMatP= 6.80D-07
 IDIUse=1 WtCom= 1.00D+00 WtEn= 0.00D+00
 Coeff-Com: -0.916D-01 0.567D+00 0.524D+00
 Coeff:     -0.916D-01 0.567D+00 0.524D+00
 Gap=     0.428 Goal=   None    Shift=    0.000
 RMSDP=4.41D-06 MaxDP=8.34D-05 DE=-1.02D-06 OVMax= 1.26D-04

 Cycle   4  Pass 1  IDiag  1:
 E= -1351.69494729855     Delta-E=       -0.000000261596 Rises=F Damp=F
 DIIS: error= 1.28D-05 at cycle   4 NSaved=   4.
 NSaved= 4 IEnMin= 4 EnMin= -1351.69494729855     IErMin= 4 ErrMin= 1.28D-05
 ErrMax= 1.28D-05  0.00D+00 EMaxC= 1.00D-01 BMatC= 3.00D-08 BMatP= 3.95D-07
 IDIUse=1 WtCom= 1.00D+00 WtEn= 0.00D+00
 Coeff-Com: -0.748D-03-0.435D-01 0.191D+00 0.853D+00
 Coeff:     -0.748D-03-0.435D-01 0.191D+00 0.853D+00
 Gap=     0.428 Goal=   None    Shift=    0.000
 RMSDP=1.53D-06 MaxDP=4.00D-05 DE=-2.62D-07 OVMax= 4.83D-05

 Cycle   5  Pass 1  IDiag  1:
 E= -1351.69494732735     Delta-E=       -0.000000028803 Rises=F Damp=F
 DIIS: error= 2.98D-06 at cycle   5 NSaved=   5.
 NSaved= 5 IEnMin= 5 EnMin= -1351.69494732735     IErMin= 5 ErrMin= 2.98D-06
 ErrMax= 2.98D-06  0.00D+00 EMaxC= 1.00D-01 BMatC= 2.66D-09 BMatP= 3.00D-08
 IDIUse=1 WtCom= 1.00D+00 WtEn= 0.00D+00
 Coeff-Com:  0.493D-02-0.518D-01 0.478D-01 0.360D+00 0.639D+00
 Coeff:      0.493D-02-0.518D-01 0.478D-01 0.360D+00 0.639D+00
 Gap=     0.428 Goal=   None    Shift=    0.000
 RMSDP=4.53D-07 MaxDP=7.58D-06 DE=-2.88D-08 OVMax= 1.25D-05

 Cycle   6  Pass 1  IDiag  1:
 E= -1351.69494732945     Delta-E=       -0.000000002101 Rises=F Damp=F
 DIIS: error= 1.74D-06 at cycle   6 NSaved=   6.
 NSaved= 6 IEnMin= 6 EnMin= -1351.69494732945     IErMin= 6 ErrMin= 1.74D-06
 ErrMax= 1.74D-06  0.00D+00 EMaxC= 1.00D-01 BMatC= 5.50D-10 BMatP= 2.66D-09
 IDIUse=1 WtCom= 1.00D+00 WtEn= 0.00D+00
 Coeff-Com:  0.274D-02-0.199D-01-0.133D-01 0.249D-01 0.327D+00 0.679D+00
 Coeff:      0.274D-02-0.199D-01-0.133D-01 0.249D-01 0.327D+00 0.679D+00
 Gap=     0.428 Goal=   None    Shift=    0.000
 RMSDP=2.11D-07 MaxDP=2.96D-06 DE=-2.10D-09 OVMax= 8.42D-06

 Cycle   7  Pass 1  IDiag  1:
 E= -1351.69494732997     Delta-E=       -0.000000000519 Rises=F Damp=F
 DIIS: error= 2.57D-07 at cycle   7 NSaved=   7.
 NSaved= 7 IEnMin= 7 EnMin= -1351.69494732997     IErMin= 7 ErrMin= 2.57D-07
 ErrMax= 2.57D-07  0.00D+00 EMaxC= 1.00D-01 BMatC= 1.96D-11 BMatP= 5.50D-10
 IDIUse=1 WtCom= 1.00D+00 WtEn= 0.00D+00
 Coeff-Com: -0.533D-04 0.239D-02-0.793D-02-0.393D-01-0.196D-01 0.119D+00
 Coeff-Com:  0.946D+00
 Coeff:     -0.533D-04 0.239D-02-0.793D-02-0.393D-01-0.196D-01 0.119D+00
 Coeff:      0.946D+00
 Gap=     0.428 Goal=   None    Shift=    0.000
 RMSDP=8.23D-08 MaxDP=1.46D-06 DE=-5.19D-10 OVMax= 3.28D-06

 Cycle   8  Pass 1  IDiag  1:
 E= -1351.69494733000     Delta-E=       -0.000000000029 Rises=F Damp=F
 DIIS: error= 1.06D-07 at cycle   8 NSaved=   8.
 NSaved= 8 IEnMin= 8 EnMin= -1351.69494733000     IErMin= 8 ErrMin= 1.06D-07
 ErrMax= 1.06D-07  0.00D+00 EMaxC= 1.00D-01 BMatC= 3.65D-12 BMatP= 1.96D-11
 IDIUse=1 WtCom= 1.00D+00 WtEn= 0.00D+00
 Coeff-Com: -0.214D-03 0.240D-02-0.215D-02-0.169D-01-0.299D-01 0.700D-03
 Coeff-Com:  0.371D+00 0.675D+00
 Coeff:     -0.214D-03 0.240D-02-0.215D-02-0.169D-01-0.299D-01 0.700D-03
 Coeff:      0.371D+00 0.675D+00
 Gap=     0.428 Goal=   None    Shift=    0.000
 RMSDP=2.34D-08 MaxDP=5.74D-07 DE=-2.86D-11 OVMax= 8.34D-07

 Cycle   9  Pass 1  IDiag  1:
 E= -1351.69494733002     Delta-E=       -0.000000000015 Rises=F Damp=F
 DIIS: error= 6.28D-08 at cycle   9 NSaved=   9.
 NSaved= 9 IEnMin= 9 EnMin= -1351.69494733002     IErMin= 9 ErrMin= 6.28D-08
 ErrMax= 6.28D-08  0.00D+00 EMaxC= 1.00D-01 BMatC= 9.22D-13 BMatP= 3.65D-12
 IDIUse=1 WtCom= 1.00D+00 WtEn= 0.00D+00
 Coeff-Com: -0.107D-03 0.874D-03 0.230D-03-0.200D-02-0.120D-01-0.190D-01
 Coeff-Com:  0.252D-01 0.344D+00 0.662D+00
 Coeff:     -0.107D-03 0.874D-03 0.230D-03-0.200D-02-0.120D-01-0.190D-01
 Coeff:      0.252D-01 0.344D+00 0.662D+00
 Gap=     0.428 Goal=   None    Shift=    0.000
 RMSDP=9.37D-09 MaxDP=1.77D-07 DE=-1.55D-11 OVMax= 3.02D-07

 SCF Done:  E(RwB97XD) =  -1351.69494733     A.U. after    9 cycles
            NFock=  9  Conv=0.94D-08     -V/T= 2.0017
 KE= 1.349388865339D+03 PE=-4.766255524988D+03 EE= 1.293088966049D+03
 Leave Link  502 at Sat Sep 14 17:42:29 2024, MaxMem=  4294967296 cpu:            1762.5 elap:             103.9
 (Enter /home/appl/Gaussian/g16/l701.exe)
 ... and contract with generalized density number  0.
 Compute integral first derivatives.
 R6Disp: Adding Grimme-D2 dispersion energy 1st derivatives to the gradient.
 Leave Link  701 at Sat Sep 14 17:42:36 2024, MaxMem=  4294967296 cpu:              69.4 elap:               4.0
 (Enter /home/appl/Gaussian/g16/l702.exe)
 L702 exits ... SP integral derivatives will be done elsewhere.
 Leave Link  702 at Sat Sep 14 17:42:37 2024, MaxMem=  4294967296 cpu:               2.1 elap:               0.2
 (Enter /home/appl/Gaussian/g16/l703.exe)
 Integral derivatives from FoFJK, PRISM(SPDF).
 Compute integral first derivatives, UseDBF=F ICtDFT=           0.
 Calling FoFJK, ICntrl=      2127 FMM=F ISym2X=1 I1Cent= 0 IOpClX= 0 NMat=1 NMatS=1 NMatT=0.
 FoFJK:  IHMeth= 1 ICntrl=    2127 DoSepK=T KAlg= 0 I1Cent=           0 FoldK=F
 IRaf=         1 NMat=       1 IRICut=       1 DoRegI=T DoRafI=F ISym2E= 1 IDoP0=0 IntGTp=1.
 FoFCou: FMM=F IPFlag=           0 FMFlag=      100000 FMFlg1=         800
         NFxFlg=           0 DoJE=F BraDBF=F KetDBF=F FulRan=T
         wScrn=  0.000000 ICntrl=      2527 IOpCl=  0 I1Cent=           0 NGrid=           0
         NMat0=    1 NMatS0=      1 NMatT0=    0 NMatD0=    1 NMtDS0=    0 NMtDT0=    0
 Petite list used in FoFCou.
 Leave Link  703 at Sat Sep 14 17:42:43 2024, MaxMem=  4294967296 cpu:             103.8 elap:               6.3
 (Enter /home/appl/Gaussian/g16/l716.exe)
 Dipole        = 0.00000000D+00 0.00000000D+00-9.51822291D-02
 ***** Axes restored to original set *****
 -------------------------------------------------------------------
 Center     Atomic                   Forces (Hartrees/Bohr)
 Number     Number              X              Y              Z
 -------------------------------------------------------------------
      1       16          -0.000301986   -0.000329785    0.000297521
      2        9           0.000029347    0.000019999   -0.000034090
      3        8           0.000298975    0.000240744   -0.000277159
      4        8          -0.000007740    0.000140732    0.000010177
      5        7          -0.000090286   -0.000090286    0.000000000
      6       16          -0.000329785   -0.000301986   -0.000297521
      7        9           0.000019999    0.000029347    0.000034090
      8        8           0.000140732   -0.000007740   -0.000010177
      9        8           0.000240744    0.000298975    0.000277159
 -------------------------------------------------------------------
 Cartesian Forces:  Max     0.000329785 RMS     0.000200588
 Leave Link  716 at Sat Sep 14 17:42:44 2024, MaxMem=  4294967296 cpu:               1.9 elap:               0.2
 (Enter /home/appl/Gaussian/g16/l103.exe)

 GradGradGradGradGradGradGradGradGradGradGradGradGradGradGradGradGradGrad
 Berny optimization.
 Using GEDIIS/GDIIS optimizer.
 FormGI is forming the generalized inverse of G from B-inverse, IUseBI=4.
 Internal  Forces:  Max     0.000469850 RMS     0.000142311
 Search for a local minimum.
 Step number   9 out of a maximum of  100
 All quantities printed in internal units (Hartrees-Bohrs-Radians)
 RMS Force = .14231D-03 SwitMx=.10000D-02 MixMth= 2
 Mixed Optimization -- En-DIIS/RFO-DIIS
 Swapping is turned off.
 Update second derivatives using D2CorX and points    2    3    4    5    6
                                                      7    8    9
 DE= -1.81D-06 DEPred=-1.26D-06 R= 1.44D+00
 TightC=F SS=  1.41D+00  RLast= 6.49D-03 DXNew= 1.4270D+00 1.9463D-02
 Trust test= 1.44D+00 RLast= 6.49D-03 DXMaxT set to 8.49D-01
 ITU=  1  1  1  1  1  1  1  1  0
     Eigenvalues ---    0.01629   0.04055   0.15054   0.18102   0.18236
     Eigenvalues ---    0.22982   0.23824   0.25000   0.25000   0.25000
     Eigenvalues ---    0.25522   0.31334   0.39564   0.40591   0.51353
     Eigenvalues ---    0.74066   0.79596   0.89614   1.15717   1.28723
     Eigenvalues ---    2.53498
 En-DIIS/RFO-DIIS/Sim-DIIS IScMMF=       -3 using points:     9    8    7
 RFO step:  Lambda=-2.23203393D-06.
 NNeg= 0 NGDIIS= 3 SimSw=  2.50D-01 Rises=F DC= -1.81D-06 SmlDif=  1.00D-05
 NRisDI= 0 DoIntr=F SqrtH=F CThrHd= 10.0 CDAdj=  3.0
 RMS Error=  0.1912453385D-02 NUsed= 3 OKEnD=F EnDIS=F
 InvSVX:  RCond= 5.52D-07 Info=           0 Equed=N FErr=  1.16D-13 BErr=  5.58D-17
 DidBck=F Rises=F RFO-DIIS coefs:    2.19206   -1.05990   -0.13216
 Iteration  1 RMS(Cart)=  0.00454600 RMS(Int)=  0.00000784
 Iteration  2 RMS(Cart)=  0.00000788 RMS(Int)=  0.00000013
 Iteration  3 RMS(Cart)=  0.00000000 RMS(Int)=  0.00000013
 ITry= 1 IFail=0 DXMaxC= 9.16D-03 DCOld= 1.00D+10 DXMaxT= 8.49D-01 DXLimC= 3.00D+00 Rises=F
 ClnCor:  largest displacement from symmetrization is 1.69D-12 for atom     9.
 Variable       Old X    -DE/DX   Delta X   Delta X   Delta X     New X
                                 (Linear)    (Quad)   (Total)
    R1        3.10300  -0.00002  -0.00171   0.00075  -0.00096   3.10204
    R2        2.72208   0.00047   0.00022   0.00034   0.00056   2.72264
    R3        2.71802  -0.00014  -0.00051   0.00022  -0.00030   2.71773
    R4        2.99957  -0.00000   0.00040  -0.00013   0.00027   2.99984
    R5        2.99957  -0.00000   0.00040  -0.00013   0.00027   2.99984
    R6        3.10300  -0.00002  -0.00171   0.00075  -0.00096   3.10204
    R7        2.71802  -0.00014  -0.00051   0.00022  -0.00030   2.71773
    R8        2.72208   0.00047   0.00022   0.00034   0.00056   2.72264
    A1        1.80999  -0.00003   0.00011  -0.00013  -0.00003   1.80996
    A2        1.80647   0.00002   0.00025  -0.00003   0.00022   1.80669
    A3        1.78877   0.00008   0.00014   0.00049   0.00063   1.78940
    A4        2.08768  -0.00005   0.00034  -0.00053  -0.00019   2.08749
    A5        2.03121   0.00005  -0.00094   0.00058  -0.00037   2.03084
    A6        1.89596  -0.00004   0.00023  -0.00025  -0.00002   1.89594
    A7        2.15909  -0.00011   0.00107  -0.00092   0.00015   2.15924
    A8        1.78877   0.00008   0.00014   0.00049   0.00063   1.78940
    A9        1.89596  -0.00004   0.00023  -0.00025  -0.00002   1.89594
   A10        2.03121   0.00005  -0.00094   0.00058  -0.00037   2.03084
   A11        1.80647   0.00002   0.00025  -0.00003   0.00022   1.80669
   A12        1.80999  -0.00003   0.00011  -0.00013  -0.00003   1.80996
   A13        2.08768  -0.00005   0.00034  -0.00053  -0.00019   2.08749
    D1        1.33229  -0.00006  -0.00359  -0.00011  -0.00370   1.32859
    D2       -0.62908  -0.00009  -0.00339  -0.00051  -0.00390  -0.63297
    D3       -3.04691  -0.00002  -0.00317  -0.00002  -0.00319  -3.05011
    D4        1.33229  -0.00006  -0.00359  -0.00011  -0.00370   1.32859
    D5       -3.04691  -0.00002  -0.00317  -0.00002  -0.00319  -3.05011
    D6       -0.62908  -0.00009  -0.00339  -0.00051  -0.00390  -0.63297
         Item               Value     Threshold  Converged?
 Maximum Force            0.000470     0.000450     NO 
 RMS     Force            0.000142     0.000300     YES
 Maximum Displacement     0.009161     0.001800     NO 
 RMS     Displacement     0.004546     0.001200     NO 
 Predicted change in Energy=-1.094446D-06
 Lowest energy point so far.  Saving SCF results.
 GradGradGradGradGradGradGradGradGradGradGradGradGradGradGradGradGradGrad

 Leave Link  103 at Sat Sep 14 17:42:59 2024, MaxMem=  4294967296 cpu:             164.9 elap:              14.1
 (Enter /home/appl/Gaussian/g16/l202.exe)
                          Input orientation:                          
 ---------------------------------------------------------------------
 Center     Atomic      Atomic             Coordinates (Angstroms)
 Number     Number       Type             X           Y           Z
 ---------------------------------------------------------------------
      1         16           0        7.034726   11.111921    4.887933
      2          9           0        7.595617   11.267764    6.422771
      3          8           0        7.894904   11.976421    4.120784
      4          8           0        7.068453    9.692295    4.660277
      5          7           0        5.520386   11.567386    5.026900
      6         16           0        5.064921   13.081726    5.165867
      7          9           0        5.220764   13.642617    3.631029
      8          8           0        3.645295   13.115453    5.393523
      9          8           0        5.929421   13.941904    5.933016
 ---------------------------------------------------------------------
                    Distance matrix (angstroms):
                    1          2          3          4          5
     1  S    0.000000
     2  F    1.641528   0.000000
     3  O    1.440758   2.427120   0.000000
     4  O    1.438160   2.422063   2.488234   0.000000
     5  N    1.587446   2.518891   2.574236   2.459042   0.000000
     6  S    2.799555   3.357780   3.212895   3.969635   1.587446
     7  F    3.357780   4.367342   3.188587   4.480887   2.518891
     8  O    3.969635   4.480887   4.580003   4.896291   2.459042
     9  O    3.212895   3.188587   3.318196   4.580003   2.574236
                    6          7          8          9
     6  S    0.000000
     7  F    1.641528   0.000000
     8  O    1.438160   2.422063   0.000000
     9  O    1.440758   2.427120   2.488234   0.000000
 Stoichiometry    F2NO4S2(1-)
 Framework group  C2[C2(N),X(F2O4S2)]
 Deg. of freedom    11
 Full point group                 C2      NOp   2
 RotChk:  IX=0 Diff= 4.05D-04
 Largest Abelian subgroup         C2      NOp   2
 Largest concise Abelian subgroup C2      NOp   2
                         Standard orientation:                         
 ---------------------------------------------------------------------
 Center     Atomic      Atomic             Coordinates (Angstroms)
 Number     Number       Type             X           Y           Z
 ---------------------------------------------------------------------
      1         16           0        0.000000    1.399777    0.086676
      2          9           0       -1.555690    1.532399   -0.420131
      3          8           0        0.763663    1.472897   -1.132855
      4          8           0        0.124506    2.444978    1.066655
      5          7           0        0.000000   -0.000000    0.835415
      6         16           0       -0.000000   -1.399777    0.086676
      7          9           0        1.555690   -1.532399   -0.420131
      8          8           0       -0.124506   -2.444978    1.066655
      9          8           0       -0.763663   -1.472897   -1.132855
 ---------------------------------------------------------------------
 Rotational constants (GHZ):           2.5260005           0.8789155           0.8620402
 Leave Link  202 at Sat Sep 14 17:43:00 2024, MaxMem=  4294967296 cpu:               3.4 elap:               0.4
 (Enter /home/appl/Gaussian/g16/l301.exe)
 Standard basis: 6-311++G(d,p) (5D, 7F)
 Ernie: Thresh=  0.10000D-02 Tol=  0.10000D-05 Strict=F.
 There are   113 symmetry adapted cartesian basis functions of A   symmetry.
 There are   110 symmetry adapted cartesian basis functions of B   symmetry.
 There are   108 symmetry adapted basis functions of A   symmetry.
 There are   106 symmetry adapted basis functions of B   symmetry.
   214 basis functions,   352 primitive gaussians,   223 cartesian basis functions
    45 alpha electrons       45 beta electrons
       nuclear repulsion energy       772.1105195802 Hartrees.
 IExCor= 4639 DFT=T Ex+Corr=wB97XD ExCW=0 ScaHFX=  1.000000
 ScaDFX=  1.000000  1.000000  1.000000  1.000000 ScalE2=  1.000000  1.000000
 IRadAn=      5 IRanWt=     -1 IRanGd=            0 ICorTp=0 IEmpDi=121
 HFx  wShort=  0.000000 wLong=  0.200000 cFull=  0.222036 cShort=  0.000000 cLong=  0.777964
 DFx  wShort=  0.000000 wLong=  0.200000 cFull=  0.000000 cShort=  0.000000 cLong=  1.000000
 NAtoms=    9 NActive=    9 NUniq=    5 SFac= 3.24D+00 NAtFMM=   60 NAOKFM=F Big=F
 Integral buffers will be    131072 words long.
 Raffenetti 2 integral format.
 Two-electron integral symmetry is turned on.
 R6Disp:  Grimme-D2 Dispersion energy=       -0.0028630326 Hartrees.
 Nuclear repulsion after empirical dispersion term =      772.1076565476 Hartrees.
 Leave Link  301 at Sat Sep 14 17:43:01 2024, MaxMem=  4294967296 cpu:               4.1 elap:               0.3
 (Enter /home/appl/Gaussian/g16/l302.exe)
 NPDir=0 NMtPBC=     1 NCelOv=     1 NCel=       1 NClECP=     1 NCelD=      1
         NCelK=      1 NCelE2=     1 NClLst=     1 CellRange=     0.0.
 One-electron integrals computed using PRISM.
 One-electron integral symmetry used in STVInt
 NBasis=   214 RedAO= T EigKep=  2.25D-04  NBF=   108   106
 NBsUse=   214 1.00D-06 EigRej= -1.00D+00 NBFU=   108   106
 Precomputing XC quadrature grid using
 IXCGrd= 4 IRadAn=           5 IRanWt=          -1 IRanGd=           0 AccXCQ= 0.00D+00.
 Generated NRdTot=       0 NPtTot=           0 NUsed=           0 NTot=          32
 NSgBfM=   223   223   223   223   223 MxSgAt=     9 MxSgA2=     9.
 Leave Link  302 at Sat Sep 14 17:43:11 2024, MaxMem=  4294967296 cpu:             167.6 elap:               9.2
 (Enter /home/appl/Gaussian/g16/l303.exe)
 DipDrv:  MaxL=1.
 Leave Link  303 at Sat Sep 14 17:43:12 2024, MaxMem=  4294967296 cpu:              11.8 elap:               0.7
 (Enter /home/appl/Gaussian/g16/l401.exe)
 Initial guess from the checkpoint file:  "/scr/Gau-139338.chk"
 B after Tr=    -0.000000   -0.000000    0.000000
         Rot=    1.000000   -0.000000    0.000000   -0.000120 Ang=  -0.01 deg.
 Guess basis will be translated and rotated to current coordinates.
 JPrj=2 DoOrth=T DoCkMO=T.
 Initial guess orbital symmetries:
       Occupied  (B) (A) (A) (B) (B) (A) (B) (A) (A) (B) (A) (B)
                 (A) (B) (A) (A) (B) (A) (B) (A) (B) (A) (B) (A)
                 (B) (A) (B) (B) (A) (A) (B) (A) (B) (A) (B) (A)
                 (B) (A) (A) (B) (B) (A) (B) (B) (A)
       Virtual   (A) (B) (A) (B) (A) (B) (A) (A) (B) (A) (B) (B)
                 (A) (B) (A) (B) (A) (B) (A) (A) (B) (A) (B) (B)
                 (A) (A) (B) (B) (B) (A) (B) (A) (A) (B) (A) (A)
                 (A) (B) (B) (A) (B) (A) (B) (B) (A) (B) (B) (A)
                 (B) (A) (A) (B) (A) (B) (A) (B) (A) (B) (B) (A)
                 (B) (B) (A) (A) (B) (B) (A) (B) (A) (B) (A) (A)
                 (B) (A) (B) (A) (B) (A) (A) (B) (B) (A) (A) (B)
                 (B) (A) (A) (B) (A) (B) (A) (A) (B) (B) (B) (A)
                 (B) (A) (A) (B) (A) (A) (B) (A) (B) (A) (B) (B)
                 (B) (A) (A) (B) (A) (B) (A) (B) (A) (B) (A) (B)
                 (A) (B) (A) (B) (A) (B) (A) (A) (B) (B) (A) (B)
                 (A) (B) (A) (B) (A) (B) (A) (B) (B) (A) (B) (A)
                 (A) (B) (A) (B) (B) (A) (A) (B) (A) (B) (A) (B)
                 (A) (B) (A) (B) (A) (A) (B) (A) (B) (B) (A) (A)
                 (B)
 The electronic state of the initial guess is 1-A.
 Leave Link  401 at Sat Sep 14 17:43:18 2024, MaxMem=  4294967296 cpu:              98.7 elap:               5.5
 (Enter /home/appl/Gaussian/g16/l502.exe)
 Keep R1 ints in memory in symmetry-blocked form, NReq=793946642.
 FoFCou: FMM=F IPFlag=           0 FMFlag=           0 FMFlg1=           0
         NFxFlg=           0 DoJE=F BraDBF=F KetDBF=F FulRan=T
         wScrn=  0.000000 ICntrl=       600 IOpCl=  0 I1Cent=           0 NGrid=           0
         NMat0=    1 NMatS0=  23005 NMatT0=    0 NMatD0=    1 NMtDS0=    0 NMtDT0=    0
 Petite list used in FoFCou.
 Closed shell SCF:
 Using DIIS extrapolation, IDIIS=  1040.
 NGot=  4294967296 LenX=  4162486518 LenY=  4162436348
 Requested convergence on RMS density matrix=1.00D-08 within 128 cycles.
 Requested convergence on MAX density matrix=1.00D-06.
 Requested convergence on             energy=1.00D-06.
 No special actions if energy rises.

 Cycle   1  Pass 1  IDiag  1:
 E= -1351.69489503914    
 DIIS: error= 2.59D-04 at cycle   1 NSaved=   1.
 NSaved= 1 IEnMin= 1 EnMin= -1351.69489503914     IErMin= 1 ErrMin= 2.59D-04
 ErrMax= 2.59D-04  0.00D+00 EMaxC= 1.00D-01 BMatC= 3.36D-05 BMatP= 3.36D-05
 IDIUse=3 WtCom= 9.97D-01 WtEn= 2.59D-03
 Coeff-Com:  0.100D+01
 Coeff-En:   0.100D+01
 Coeff:      0.100D+01
 Gap=     0.428 Goal=   None    Shift=    0.000
 RMSDP=6.55D-05 MaxDP=1.19D-03              OVMax= 1.37D-03

 Cycle   2  Pass 1  IDiag  1:
 E= -1351.69494584661     Delta-E=       -0.000050807464 Rises=F Damp=F
 DIIS: error= 5.87D-05 at cycle   2 NSaved=   2.
 NSaved= 2 IEnMin= 2 EnMin= -1351.69494584661     IErMin= 2 ErrMin= 5.87D-05
 ErrMax= 5.87D-05  0.00D+00 EMaxC= 1.00D-01 BMatC= 1.38D-06 BMatP= 3.36D-05
 IDIUse=1 WtCom= 1.00D+00 WtEn= 0.00D+00
 Coeff-Com: -0.149D+00 0.115D+01
 Coeff:     -0.149D+00 0.115D+01
 Gap=     0.428 Goal=   None    Shift=    0.000
 RMSDP=1.60D-05 MaxDP=2.77D-04 DE=-5.08D-05 OVMax= 4.22D-04

 Cycle   3  Pass 1  IDiag  1:
 E= -1351.69494796654     Delta-E=       -0.000002119933 Rises=F Damp=F
 DIIS: error= 4.88D-05 at cycle   3 NSaved=   3.
 NSaved= 3 IEnMin= 3 EnMin= -1351.69494796654     IErMin= 3 ErrMin= 4.88D-05
 ErrMax= 4.88D-05  0.00D+00 EMaxC= 1.00D-01 BMatC= 7.88D-07 BMatP= 1.38D-06
 IDIUse=1 WtCom= 1.00D+00 WtEn= 0.00D+00
 Coeff-Com: -0.930D-01 0.577D+00 0.516D+00
 Coeff:     -0.930D-01 0.577D+00 0.516D+00
 Gap=     0.428 Goal=   None    Shift=    0.000
 RMSDP=5.83D-06 MaxDP=8.93D-05 DE=-2.12D-06 OVMax= 1.55D-04

 Cycle   4  Pass 1  IDiag  1:
 E= -1351.69494847431     Delta-E=       -0.000000507775 Rises=F Damp=F
 DIIS: error= 1.61D-05 at cycle   4 NSaved=   4.
 NSaved= 4 IEnMin= 4 EnMin= -1351.69494847431     IErMin= 4 ErrMin= 1.61D-05
 ErrMax= 1.61D-05  0.00D+00 EMaxC= 1.00D-01 BMatC= 6.58D-08 BMatP= 7.88D-07
 IDIUse=1 WtCom= 1.00D+00 WtEn= 0.00D+00
 Coeff-Com:  0.136D-02-0.552D-01 0.199D+00 0.854D+00
 Coeff:      0.136D-02-0.552D-01 0.199D+00 0.854D+00
 Gap=     0.428 Goal=   None    Shift=    0.000
 RMSDP=2.01D-06 MaxDP=3.01D-05 DE=-5.08D-07 OVMax= 7.95D-05

 Cycle   5  Pass 1  IDiag  1:
 E= -1351.69494853653     Delta-E=       -0.000000062219 Rises=F Damp=F
 DIIS: error= 3.69D-06 at cycle   5 NSaved=   5.
 NSaved= 5 IEnMin= 5 EnMin= -1351.69494853653     IErMin= 5 ErrMin= 3.69D-06
 ErrMax= 3.69D-06  0.00D+00 EMaxC= 1.00D-01 BMatC= 4.34D-09 BMatP= 6.58D-08
 IDIUse=1 WtCom= 1.00D+00 WtEn= 0.00D+00
 Coeff-Com:  0.532D-02-0.529D-01 0.492D-01 0.338D+00 0.661D+00
 Coeff:      0.532D-02-0.529D-01 0.492D-01 0.338D+00 0.661D+00
 Gap=     0.428 Goal=   None    Shift=    0.000
 RMSDP=6.14D-07 MaxDP=1.11D-05 DE=-6.22D-08 OVMax= 1.70D-05

 Cycle   6  Pass 1  IDiag  1:
 E= -1351.69494854009     Delta-E=       -0.000000003553 Rises=F Damp=F
 DIIS: error= 1.98D-06 at cycle   6 NSaved=   6.
 NSaved= 6 IEnMin= 6 EnMin= -1351.69494854009     IErMin= 6 ErrMin= 1.98D-06
 ErrMax= 1.98D-06  0.00D+00 EMaxC= 1.00D-01 BMatC= 9.44D-10 BMatP= 4.34D-09
 IDIUse=1 WtCom= 1.00D+00 WtEn= 0.00D+00
 Coeff-Com:  0.244D-02-0.172D-01-0.150D-01 0.642D-02 0.329D+00 0.694D+00
 Coeff:      0.244D-02-0.172D-01-0.150D-01 0.642D-02 0.329D+00 0.694D+00
 Gap=     0.428 Goal=   None    Shift=    0.000
 RMSDP=2.84D-07 MaxDP=3.81D-06 DE=-3.55D-09 OVMax= 1.11D-05

 Cycle   7  Pass 1  IDiag  1:
 E= -1351.69494854097     Delta-E=       -0.000000000885 Rises=F Damp=F
 DIIS: error= 3.48D-07 at cycle   7 NSaved=   7.
 NSaved= 7 IEnMin= 7 EnMin= -1351.69494854097     IErMin= 7 ErrMin= 3.48D-07
 ErrMax= 3.48D-07  0.00D+00 EMaxC= 1.00D-01 BMatC= 3.17D-11 BMatP= 9.44D-10
 IDIUse=1 WtCom= 1.00D+00 WtEn= 0.00D+00
 Coeff-Com: -0.214D-03 0.353D-02-0.784D-02-0.393D-01-0.313D-01 0.106D+00
 Coeff-Com:  0.969D+00
 Coeff:     -0.214D-03 0.353D-02-0.784D-02-0.393D-01-0.313D-01 0.106D+00
 Coeff:      0.969D+00
 Gap=     0.428 Goal=   None    Shift=    0.000
 RMSDP=1.12D-07 MaxDP=1.90D-06 DE=-8.85D-10 OVMax= 4.67D-06

 Cycle   8  Pass 1  IDiag  1:
 E= -1351.69494854105     Delta-E=       -0.000000000079 Rises=F Damp=F
 DIIS: error= 9.36D-08 at cycle   8 NSaved=   8.
 NSaved= 8 IEnMin= 8 EnMin= -1351.69494854105     IErMin= 8 ErrMin= 9.36D-08
 ErrMax= 9.36D-08  0.00D+00 EMaxC= 1.00D-01 BMatC= 2.87D-12 BMatP= 3.17D-11
 IDIUse=1 WtCom= 1.00D+00 WtEn= 0.00D+00
 Coeff-Com: -0.205D-03 0.200D-02-0.116D-02-0.101D-01-0.260D-01-0.111D-01
 Coeff-Com:  0.244D+00 0.803D+00
 Coeff:     -0.205D-03 0.200D-02-0.116D-02-0.101D-01-0.260D-01-0.111D-01
 Coeff:      0.244D+00 0.803D+00
 Gap=     0.428 Goal=   None    Shift=    0.000
 RMSDP=2.50D-08 MaxDP=4.86D-07 DE=-7.87D-11 OVMax= 9.12D-07

 Cycle   9  Pass 1  IDiag  1:
 E= -1351.69494854106     Delta-E=       -0.000000000008 Rises=F Damp=F
 DIIS: error= 3.58D-08 at cycle   9 NSaved=   9.
 NSaved= 9 IEnMin= 9 EnMin= -1351.69494854106     IErMin= 9 ErrMin= 3.58D-08
 ErrMax= 3.58D-08  0.00D+00 EMaxC= 1.00D-01 BMatC= 6.35D-13 BMatP= 2.87D-12
 IDIUse=1 WtCom= 1.00D+00 WtEn= 0.00D+00
 Coeff-Com: -0.455D-04 0.254D-03 0.594D-03 0.157D-02-0.521D-02-0.166D-01
 Coeff-Com: -0.448D-01 0.298D+00 0.766D+00
 Coeff:     -0.455D-04 0.254D-03 0.594D-03 0.157D-02-0.521D-02-0.166D-01
 Coeff:     -0.448D-01 0.298D+00 0.766D+00
 Gap=     0.428 Goal=   None    Shift=    0.000
 RMSDP=1.19D-08 MaxDP=2.92D-07 DE=-8.19D-12 OVMax= 3.49D-07

 Cycle  10  Pass 1  IDiag  1:
 E= -1351.69494854106     Delta-E=        0.000000000001 Rises=F Damp=F
 DIIS: error= 1.37D-08 at cycle  10 NSaved=  10.
 NSaved=10 IEnMin= 9 EnMin= -1351.69494854106     IErMin=10 ErrMin= 1.37D-08
 ErrMax= 1.37D-08  0.00D+00 EMaxC= 1.00D-01 BMatC= 7.53D-14 BMatP= 6.35D-13
 IDIUse=1 WtCom= 1.00D+00 WtEn= 0.00D+00
 Coeff-Com:  0.988D-05-0.174D-03 0.351D-03 0.189D-02 0.138D-02-0.441D-02
 Coeff-Com: -0.499D-01 0.374D-02 0.289D+00 0.758D+00
 Coeff:      0.988D-05-0.174D-03 0.351D-03 0.189D-02 0.138D-02-0.441D-02
 Coeff:     -0.499D-01 0.374D-02 0.289D+00 0.758D+00
 Gap=     0.428 Goal=   None    Shift=    0.000
 RMSDP=3.39D-09 MaxDP=5.57D-08 DE= 1.36D-12 OVMax= 1.09D-07

 SCF Done:  E(RwB97XD) =  -1351.69494854     A.U. after   10 cycles
            NFock= 10  Conv=0.34D-08     -V/T= 2.0017
 KE= 1.349388605881D+03 PE=-4.766304523244D+03 EE= 1.293113312275D+03
 Leave Link  502 at Sat Sep 14 17:45:12 2024, MaxMem=  4294967296 cpu:            1912.0 elap:             113.6
 (Enter /home/appl/Gaussian/g16/l701.exe)
 ... and contract with generalized density number  0.
 Compute integral first derivatives.
 R6Disp: Adding Grimme-D2 dispersion energy 1st derivatives to the gradient.
 Leave Link  701 at Sat Sep 14 17:45:20 2024, MaxMem=  4294967296 cpu:              69.3 elap:               3.8
 (Enter /home/appl/Gaussian/g16/l702.exe)
 L702 exits ... SP integral derivatives will be done elsewhere.
 Leave Link  702 at Sat Sep 14 17:45:20 2024, MaxMem=  4294967296 cpu:               1.6 elap:               0.2
 (Enter /home/appl/Gaussian/g16/l703.exe)
 Integral derivatives from FoFJK, PRISM(SPDF).
 Compute integral first derivatives, UseDBF=F ICtDFT=           0.
 Calling FoFJK, ICntrl=      2127 FMM=F ISym2X=1 I1Cent= 0 IOpClX= 0 NMat=1 NMatS=1 NMatT=0.
 FoFJK:  IHMeth= 1 ICntrl=    2127 DoSepK=T KAlg= 0 I1Cent=           0 FoldK=F
 IRaf=         1 NMat=       1 IRICut=       1 DoRegI=T DoRafI=F ISym2E= 1 IDoP0=0 IntGTp=1.
 FoFCou: FMM=F IPFlag=           0 FMFlag=      100000 FMFlg1=         800
         NFxFlg=           0 DoJE=F BraDBF=F KetDBF=F FulRan=T
         wScrn=  0.000000 ICntrl=      2527 IOpCl=  0 I1Cent=           0 NGrid=           0
         NMat0=    1 NMatS0=      1 NMatT0=    0 NMatD0=    1 NMtDS0=    0 NMtDT0=    0
 Petite list used in FoFCou.
 Leave Link  703 at Sat Sep 14 17:45:27 2024, MaxMem=  4294967296 cpu:             104.1 elap:               6.4
 (Enter /home/appl/Gaussian/g16/l716.exe)
 Dipole        =-3.55271368D-15-2.48689958D-14-9.53002907D-02
 ***** Axes restored to original set *****
 -------------------------------------------------------------------
 Center     Atomic                   Forces (Hartrees/Bohr)
 Number     Number              X              Y              Z
 -------------------------------------------------------------------
      1       16          -0.000222318    0.000099393   -0.000047942
      2        9           0.000055404    0.000022498    0.000124434
      3        8           0.000109420    0.000060968   -0.000087966
      4        8          -0.000020430   -0.000057013   -0.000002053
      5        7          -0.000047922   -0.000047922    0.000000000
      6       16           0.000099393   -0.000222318    0.000047942
      7        9           0.000022498    0.000055404   -0.000124434
      8        8          -0.000057013   -0.000020430    0.000002053
      9        8           0.000060968    0.000109420    0.000087966
 -------------------------------------------------------------------
 Cartesian Forces:  Max     0.000222318 RMS     0.000090291
 Leave Link  716 at Sat Sep 14 17:45:28 2024, MaxMem=  4294967296 cpu:               2.0 elap:               0.2
 (Enter /home/appl/Gaussian/g16/l103.exe)

 GradGradGradGradGradGradGradGradGradGradGradGradGradGradGradGradGradGrad
 Berny optimization.
 Using GEDIIS/GDIIS optimizer.
 FormGI is forming the generalized inverse of G from B-inverse, IUseBI=4.
 Internal  Forces:  Max     0.000152405 RMS     0.000077808
 Search for a local minimum.
 Step number  10 out of a maximum of  100
 All quantities printed in internal units (Hartrees-Bohrs-Radians)
 RMS Force = .77808D-04 SwitMx=.10000D-02 MixMth= 2
 Mixed Optimization -- En-DIIS/RFO-DIIS
 Swapping is turned off.
 Update second derivatives using D2CorX and points    2    3    4    5    6
                                                      7    8    9   10
 DE= -1.21D-06 DEPred=-1.09D-06 R= 1.11D+00
 TightC=F SS=  1.41D+00  RLast= 9.06D-03 DXNew= 1.4270D+00 2.7183D-02
 Trust test= 1.11D+00 RLast= 9.06D-03 DXMaxT set to 8.49D-01
 ITU=  1  1  1  1  1  1  1  1  1  0
     Eigenvalues ---    0.01273   0.04055   0.15060   0.18098   0.19671
     Eigenvalues ---    0.23191   0.23911   0.25000   0.25000   0.25000
     Eigenvalues ---    0.25866   0.31525   0.32821   0.41014   0.51353
     Eigenvalues ---    0.75843   0.79596   0.91538   1.08574   1.28723
     Eigenvalues ---    2.53498
 En-DIIS/RFO-DIIS/Sim-DIIS IScMMF=       -3 using points:    10    9    8    7
 RFO step:  Lambda=-6.25325763D-07.
 NNeg= 0 NGDIIS= 4 SimSw=  2.50D-01 Rises=F DC= -1.21D-06 SmlDif=  1.00D-05
 NRisDI= 0 DoIntr=F SqrtH=F CThrHd= 10.0 CDAdj=  3.0
 RMS Error=  0.8781936145D-03 NUsed= 4 OKEnD=F EnDIS=F
 InvSVX:  RCond= 9.39D-08 Info=           0 Equed=N FErr=  3.99D-13 BErr=  6.86D-17
 DIIS inversion failure, remove point   4.
 InvSVX:  RCond= 1.25D-07 Info=           0 Equed=N FErr=  2.82D-13 BErr=  6.50D-17
 RFO-DIIS uses    3 points instead of    4
 DidBck=F Rises=F RFO-DIIS coefs:    1.62060   -0.78651    0.16591    0.00000
 Iteration  1 RMS(Cart)=  0.00235382 RMS(Int)=  0.00000200
 Iteration  2 RMS(Cart)=  0.00000216 RMS(Int)=  0.00000003
 Iteration  3 RMS(Cart)=  0.00000000 RMS(Int)=  0.00000003
 ITry= 1 IFail=0 DXMaxC= 4.88D-03 DCOld= 1.00D+10 DXMaxT= 8.49D-01 DXLimC= 3.00D+00 Rises=F
 ClnCor:  largest displacement from symmetrization is 3.32D-12 for atom     9.
 Variable       Old X    -DE/DX   Delta X   Delta X   Delta X     New X
                                 (Linear)    (Quad)   (Total)
    R1        3.10204   0.00014  -0.00042   0.00054   0.00013   3.10216
    R2        2.72264   0.00015   0.00030   0.00005   0.00035   2.72299
    R3        2.71773   0.00006  -0.00013   0.00019   0.00006   2.71779
    R4        2.99984  -0.00011   0.00013  -0.00011   0.00002   2.99986
    R5        2.99984  -0.00011   0.00013  -0.00011   0.00002   2.99986
    R6        3.10204   0.00014  -0.00042   0.00054   0.00013   3.10216
    R7        2.71773   0.00006  -0.00013   0.00019   0.00006   2.71779
    R8        2.72264   0.00015   0.00030   0.00005   0.00035   2.72299
    A1        1.80996  -0.00001  -0.00002  -0.00007  -0.00008   1.80988
    A2        1.80669   0.00001   0.00010  -0.00001   0.00009   1.80678
    A3        1.78940   0.00001   0.00039  -0.00024   0.00015   1.78955
    A4        2.08749  -0.00001  -0.00017   0.00012  -0.00004   2.08745
    A5        2.03084   0.00008  -0.00013   0.00027   0.00014   2.03098
    A6        1.89594  -0.00007  -0.00004  -0.00017  -0.00021   1.89574
    A7        2.15924  -0.00015   0.00002  -0.00053  -0.00051   2.15873
    A8        1.78940   0.00001   0.00039  -0.00024   0.00015   1.78955
    A9        1.89594  -0.00007  -0.00004  -0.00017  -0.00021   1.89574
   A10        2.03084   0.00008  -0.00013   0.00027   0.00014   2.03098
   A11        1.80669   0.00001   0.00010  -0.00001   0.00009   1.80678
   A12        1.80996  -0.00001  -0.00002  -0.00007  -0.00008   1.80988
   A13        2.08749  -0.00001  -0.00017   0.00012  -0.00004   2.08745
    D1        1.32859  -0.00002  -0.00185  -0.00007  -0.00192   1.32667
    D2       -0.63297  -0.00004  -0.00202   0.00004  -0.00198  -0.63495
    D3       -3.05011  -0.00003  -0.00158  -0.00025  -0.00182  -3.05193
    D4        1.32859  -0.00002  -0.00185  -0.00007  -0.00192   1.32667
    D5       -3.05011  -0.00003  -0.00158  -0.00025  -0.00182  -3.05193
    D6       -0.63297  -0.00004  -0.00202   0.00004  -0.00198  -0.63495
         Item               Value     Threshold  Converged?
 Maximum Force            0.000152     0.000450     YES
 RMS     Force            0.000078     0.000300     YES
 Maximum Displacement     0.004883     0.001800     NO 
 RMS     Displacement     0.002354     0.001200     NO 
 Predicted change in Energy=-3.117891D-07
 Lowest energy point so far.  Saving SCF results.
 GradGradGradGradGradGradGradGradGradGradGradGradGradGradGradGradGradGrad

 Leave Link  103 at Sat Sep 14 17:45:44 2024, MaxMem=  4294967296 cpu:             180.0 elap:              15.3
 (Enter /home/appl/Gaussian/g16/l202.exe)
                          Input orientation:                          
 ---------------------------------------------------------------------
 Center     Atomic      Atomic             Coordinates (Angstroms)
 Number     Number       Type             X           Y           Z
 ---------------------------------------------------------------------
      1         16           0        7.034365   11.111874    4.887550
      2          9           0        7.596569   11.270348    6.421710
      3          8           0        7.893862   11.975449    4.118253
      4          8           0        7.068222    9.691874    4.662033
      5          7           0        5.519925   11.566925    5.026900
      6         16           0        5.064874   13.081365    5.166250
      7          9           0        5.223348   13.643569    3.632090
      8          8           0        3.644874   13.115222    5.391767
      9          8           0        5.928449   13.940862    5.935547
 ---------------------------------------------------------------------
                    Distance matrix (angstroms):
                    1          2          3          4          5
     1  S    0.000000
     2  F    1.641595   0.000000
     3  O    1.440943   2.427234   0.000000
     4  O    1.438194   2.422229   2.488391   0.000000
     5  N    1.587457   2.519108   2.574511   2.458895   0.000000
     6  S    2.799190   3.356404   3.213179   3.969419   1.587457
     7  F    3.356404   4.364211   3.186004   4.481098   2.519108
     8  O    3.969419   4.481098   4.579827   4.896032   2.458895
     9  O    3.213179   3.186004   3.320882   4.579827   2.574511
                    6          7          8          9
     6  S    0.000000
     7  F    1.641595   0.000000
     8  O    1.438194   2.422229   0.000000
     9  O    1.440943   2.427234   2.488391   0.000000
 Stoichiometry    F2NO4S2(1-)
 Framework group  C2[C2(N),X(F2O4S2)]
 Deg. of freedom    11
 Full point group                 C2      NOp   2
 RotChk:  IX=0 Diff= 4.07D-04
 Largest Abelian subgroup         C2      NOp   2
 Largest concise Abelian subgroup C2      NOp   2
                         Standard orientation:                         
 ---------------------------------------------------------------------
 Center     Atomic      Atomic             Coordinates (Angstroms)
 Number     Number       Type             X           Y           Z
 ---------------------------------------------------------------------
      1         16           0        0.000000    1.399595    0.086977
      2          9           0       -1.554960    1.530909   -0.422620
      3          8           0        0.765762    1.473320   -1.131419
      4          8           0        0.122042    2.444972    1.067128
      5          7           0       -0.000000    0.000000    0.836078
      6         16           0       -0.000000   -1.399595    0.086977
      7          9           0        1.554960   -1.530909   -0.422620
      8          8           0       -0.122042   -2.444972    1.067128
      9          8           0       -0.765762   -1.473320   -1.131419
 ---------------------------------------------------------------------
 Rotational constants (GHZ):           2.5255881           0.8791437           0.8622904
 Leave Link  202 at Sat Sep 14 17:45:45 2024, MaxMem=  4294967296 cpu:               4.2 elap:               0.4
 (Enter /home/appl/Gaussian/g16/l301.exe)
 Standard basis: 6-311++G(d,p) (5D, 7F)
 Ernie: Thresh=  0.10000D-02 Tol=  0.10000D-05 Strict=F.
 There are   113 symmetry adapted cartesian basis functions of A   symmetry.
 There are   110 symmetry adapted cartesian basis functions of B   symmetry.
 There are   108 symmetry adapted basis functions of A   symmetry.
 There are   106 symmetry adapted basis functions of B   symmetry.
   214 basis functions,   352 primitive gaussians,   223 cartesian basis functions
    45 alpha electrons       45 beta electrons
       nuclear repulsion energy       772.1246524405 Hartrees.
 IExCor= 4639 DFT=T Ex+Corr=wB97XD ExCW=0 ScaHFX=  1.000000
 ScaDFX=  1.000000  1.000000  1.000000  1.000000 ScalE2=  1.000000  1.000000
 IRadAn=      5 IRanWt=     -1 IRanGd=            0 ICorTp=0 IEmpDi=121
 HFx  wShort=  0.000000 wLong=  0.200000 cFull=  0.222036 cShort=  0.000000 cLong=  0.777964
 DFx  wShort=  0.000000 wLong=  0.200000 cFull=  0.000000 cShort=  0.000000 cLong=  1.000000
 NAtoms=    9 NActive=    9 NUniq=    5 SFac= 3.24D+00 NAtFMM=   60 NAOKFM=F Big=F
 Integral buffers will be    131072 words long.
 Raffenetti 2 integral format.
 Two-electron integral symmetry is turned on.
 R6Disp:  Grimme-D2 Dispersion energy=       -0.0028635843 Hartrees.
 Nuclear repulsion after empirical dispersion term =      772.1217888562 Hartrees.
 Leave Link  301 at Sat Sep 14 17:45:46 2024, MaxMem=  4294967296 cpu:               3.6 elap:               0.3
 (Enter /home/appl/Gaussian/g16/l302.exe)
 NPDir=0 NMtPBC=     1 NCelOv=     1 NCel=       1 NClECP=     1 NCelD=      1
         NCelK=      1 NCelE2=     1 NClLst=     1 CellRange=     0.0.
 One-electron integrals computed using PRISM.
 One-electron integral symmetry used in STVInt
 NBasis=   214 RedAO= T EigKep=  2.24D-04  NBF=   108   106
 NBsUse=   214 1.00D-06 EigRej= -1.00D+00 NBFU=   108   106
 Precomputing XC quadrature grid using
 IXCGrd= 4 IRadAn=           5 IRanWt=          -1 IRanGd=           0 AccXCQ= 0.00D+00.
 Generated NRdTot=       0 NPtTot=           0 NUsed=           0 NTot=          32
 NSgBfM=   223   223   223   223   223 MxSgAt=     9 MxSgA2=     9.
 Leave Link  302 at Sat Sep 14 17:45:57 2024, MaxMem=  4294967296 cpu:             196.3 elap:              10.5
 (Enter /home/appl/Gaussian/g16/l303.exe)
 DipDrv:  MaxL=1.
 Leave Link  303 at Sat Sep 14 17:45:59 2024, MaxMem=  4294967296 cpu:              11.0 elap:               0.7
 (Enter /home/appl/Gaussian/g16/l401.exe)
 Initial guess from the checkpoint file:  "/scr/Gau-139338.chk"
 B after Tr=    -0.000000    0.000000    0.000000
         Rot=    1.000000   -0.000000    0.000000   -0.000128 Ang=  -0.01 deg.
 Guess basis will be translated and rotated to current coordinates.
 JPrj=2 DoOrth=T DoCkMO=T.
 Initial guess orbital symmetries:
       Occupied  (B) (A) (A) (B) (B) (A) (B) (A) (A) (B) (A) (B)
                 (A) (B) (A) (A) (B) (A) (B) (A) (B) (A) (B) (A)
                 (B) (A) (B) (B) (A) (A) (B) (A) (B) (A) (B) (A)
                 (B) (A) (A) (B) (B) (A) (B) (B) (A)
       Virtual   (A) (B) (A) (B) (A) (B) (A) (A) (B) (A) (B) (B)
                 (A) (B) (A) (B) (A) (B) (A) (A) (B) (A) (B) (B)
                 (A) (A) (B) (B) (B) (A) (B) (A) (A) (B) (A) (A)
                 (A) (B) (B) (A) (B) (A) (B) (B) (A) (B) (B) (A)
                 (B) (A) (A) (B) (A) (B) (A) (B) (A) (B) (B) (A)
                 (B) (B) (A) (A) (B) (B) (A) (B) (A) (B) (A) (A)
                 (B) (A) (B) (A) (B) (A) (A) (B) (B) (A) (A) (B)
                 (B) (A) (A) (B) (A) (B) (A) (A) (B) (B) (B) (A)
                 (B) (A) (A) (B) (A) (A) (B) (A) (B) (A) (B) (B)
                 (B) (A) (A) (B) (A) (B) (A) (B) (A) (B) (A) (B)
                 (A) (B) (A) (B) (A) (B) (A) (A) (B) (B) (A) (B)
                 (A) (B) (A) (B) (A) (B) (A) (B) (B) (A) (B) (A)
                 (A) (B) (A) (B) (B) (A) (A) (B) (A) (B) (A) (B)
                 (A) (B) (A) (B) (A) (A) (B) (A) (B) (B) (A) (A)
                 (B)
 The electronic state of the initial guess is 1-A.
 Leave Link  401 at Sat Sep 14 17:46:04 2024, MaxMem=  4294967296 cpu:              94.3 elap:               5.2
 (Enter /home/appl/Gaussian/g16/l502.exe)
 Keep R1 ints in memory in symmetry-blocked form, NReq=793946642.
 FoFCou: FMM=F IPFlag=           0 FMFlag=           0 FMFlg1=           0
         NFxFlg=           0 DoJE=F BraDBF=F KetDBF=F FulRan=T
         wScrn=  0.000000 ICntrl=       600 IOpCl=  0 I1Cent=           0 NGrid=           0
         NMat0=    1 NMatS0=  23005 NMatT0=    0 NMatD0=    1 NMtDS0=    0 NMtDT0=    0
 Petite list used in FoFCou.
 Closed shell SCF:
 Using DIIS extrapolation, IDIIS=  1040.
 NGot=  4294967296 LenX=  4162486518 LenY=  4162436348
 Requested convergence on RMS density matrix=1.00D-08 within 128 cycles.
 Requested convergence on MAX density matrix=1.00D-06.
 Requested convergence on             energy=1.00D-06.
 No special actions if energy rises.

 Cycle   1  Pass 1  IDiag  1:
 E= -1351.69493510488    
 DIIS: error= 1.31D-04 at cycle   1 NSaved=   1.
 NSaved= 1 IEnMin= 1 EnMin= -1351.69493510488     IErMin= 1 ErrMin= 1.31D-04
 ErrMax= 1.31D-04  0.00D+00 EMaxC= 1.00D-01 BMatC= 8.65D-06 BMatP= 8.65D-06
 IDIUse=3 WtCom= 9.99D-01 WtEn= 1.31D-03
 Coeff-Com:  0.100D+01
 Coeff-En:   0.100D+01
 Coeff:      0.100D+01
 Gap=     0.428 Goal=   None    Shift=    0.000
 RMSDP=3.46D-05 MaxDP=6.60D-04              OVMax= 7.06D-04

 Cycle   2  Pass 1  IDiag  1:
 E= -1351.69494821855     Delta-E=       -0.000013113676 Rises=F Damp=F
 DIIS: error= 3.24D-05 at cycle   2 NSaved=   2.
 NSaved= 2 IEnMin= 2 EnMin= -1351.69494821855     IErMin= 2 ErrMin= 3.24D-05
 ErrMax= 3.24D-05  0.00D+00 EMaxC= 1.00D-01 BMatC= 3.79D-07 BMatP= 8.65D-06
 IDIUse=1 WtCom= 1.00D+00 WtEn= 0.00D+00
 Coeff-Com: -0.143D+00 0.114D+01
 Coeff:     -0.143D+00 0.114D+01
 Gap=     0.428 Goal=   None    Shift=    0.000
 RMSDP=9.05D-06 MaxDP=1.72D-04 DE=-1.31D-05 OVMax= 2.47D-04

 Cycle   3  Pass 1  IDiag  1:
 E= -1351.69494871235     Delta-E=       -0.000000493802 Rises=F Damp=F
 DIIS: error= 3.63D-05 at cycle   3 NSaved=   3.
 NSaved= 3 IEnMin= 3 EnMin= -1351.69494871235     IErMin= 2 ErrMin= 3.24D-05
 ErrMax= 3.63D-05  0.00D+00 EMaxC= 1.00D-01 BMatC= 3.05D-07 BMatP= 3.79D-07
 IDIUse=1 WtCom= 1.00D+00 WtEn= 0.00D+00
 Coeff-Com: -0.100D+00 0.622D+00 0.478D+00
 Coeff:     -0.100D+00 0.622D+00 0.478D+00
 Gap=     0.428 Goal=   None    Shift=    0.000
 RMSDP=3.29D-06 MaxDP=4.87D-05 DE=-4.94D-07 OVMax= 1.07D-04

 Cycle   4  Pass 1  IDiag  1:
 E= -1351.69494891760     Delta-E=       -0.000000205242 Rises=F Damp=F
 DIIS: error= 8.61D-06 at cycle   4 NSaved=   4.
 NSaved= 4 IEnMin= 4 EnMin= -1351.69494891760     IErMin= 4 ErrMin= 8.61D-06
 ErrMax= 8.61D-06  0.00D+00 EMaxC= 1.00D-01 BMatC= 1.28D-08 BMatP= 3.05D-07
 IDIUse=1 WtCom= 1.00D+00 WtEn= 0.00D+00
 Coeff-Com:  0.483D-02-0.762D-01 0.134D+00 0.937D+00
 Coeff:      0.483D-02-0.762D-01 0.134D+00 0.937D+00
 Gap=     0.428 Goal=   None    Shift=    0.000
 RMSDP=1.02D-06 MaxDP=1.61D-05 DE=-2.05D-07 OVMax= 4.16D-05

 Cycle   5  Pass 1  IDiag  1:
 E= -1351.69494893170     Delta-E=       -0.000000014106 Rises=F Damp=F
 DIIS: error= 1.54D-06 at cycle   5 NSaved=   5.
 NSaved= 5 IEnMin= 5 EnMin= -1351.69494893170     IErMin= 5 ErrMin= 1.54D-06
 ErrMax= 1.54D-06  0.00D+00 EMaxC= 1.00D-01 BMatC= 5.37D-10 BMatP= 1.28D-08
 IDIUse=1 WtCom= 1.00D+00 WtEn= 0.00D+00
 Coeff-Com:  0.499D-02-0.462D-01 0.170D-01 0.261D+00 0.763D+00
 Coeff:      0.499D-02-0.462D-01 0.170D-01 0.261D+00 0.763D+00
 Gap=     0.428 Goal=   None    Shift=    0.000
 RMSDP=3.02D-07 MaxDP=5.52D-06 DE=-1.41D-08 OVMax= 8.91D-06

 Cycle   6  Pass 1  IDiag  1:
 E= -1351.69494893226     Delta-E=       -0.000000000555 Rises=F Damp=F
 DIIS: error= 1.23D-06 at cycle   6 NSaved=   6.
 NSaved= 6 IEnMin= 6 EnMin= -1351.69494893226     IErMin= 6 ErrMin= 1.23D-06
 ErrMax= 1.23D-06  0.00D+00 EMaxC= 1.00D-01 BMatC= 2.30D-10 BMatP= 5.37D-10
 IDIUse=1 WtCom= 1.00D+00 WtEn= 0.00D+00
 Coeff-Com:  0.202D-02-0.131D-01-0.159D-01-0.252D-01 0.420D+00 0.632D+00
 Coeff:      0.202D-02-0.131D-01-0.159D-01-0.252D-01 0.420D+00 0.632D+00
 Gap=     0.428 Goal=   None    Shift=    0.000
 RMSDP=1.32D-07 MaxDP=2.99D-06 DE=-5.55D-10 OVMax= 4.29D-06

 Cycle   7  Pass 1  IDiag  1:
 E= -1351.69494893247     Delta-E=       -0.000000000211 Rises=F Damp=F
 DIIS: error= 1.53D-07 at cycle   7 NSaved=   7.
 NSaved= 7 IEnMin= 7 EnMin= -1351.69494893247     IErMin= 7 ErrMin= 1.53D-07
 ErrMax= 1.53D-07  0.00D+00 EMaxC= 1.00D-01 BMatC= 7.41D-12 BMatP= 2.30D-10
 IDIUse=1 WtCom= 1.00D+00 WtEn= 0.00D+00
 Coeff-Com: -0.284D-03 0.390D-02-0.479D-02-0.382D-01-0.278D-01 0.114D+00
 Coeff-Com:  0.954D+00
 Coeff:     -0.284D-03 0.390D-02-0.479D-02-0.382D-01-0.278D-01 0.114D+00
 Coeff:      0.954D+00
 Gap=     0.428 Goal=   None    Shift=    0.000
 RMSDP=5.58D-08 MaxDP=1.14D-06 DE=-2.11D-10 OVMax= 2.21D-06

 Cycle   8  Pass 1  IDiag  1:
 E= -1351.69494893248     Delta-E=       -0.000000000012 Rises=F Damp=F
 DIIS: error= 6.57D-08 at cycle   8 NSaved=   8.
 NSaved= 8 IEnMin= 8 EnMin= -1351.69494893248     IErMin= 8 ErrMin= 6.57D-08
 ErrMax= 6.57D-08  0.00D+00 EMaxC= 1.00D-01 BMatC= 1.66D-12 BMatP= 7.41D-12
 IDIUse=1 WtCom= 1.00D+00 WtEn= 0.00D+00
 Coeff-Com: -0.249D-03 0.255D-02-0.127D-02-0.156D-01-0.350D-01 0.141D-01
 Coeff-Com:  0.425D+00 0.610D+00
 Coeff:     -0.249D-03 0.255D-02-0.127D-02-0.156D-01-0.350D-01 0.141D-01
 Coeff:      0.425D+00 0.610D+00
 Gap=     0.428 Goal=   None    Shift=    0.000
 RMSDP=1.18D-08 MaxDP=1.79D-07 DE=-1.18D-11 OVMax= 3.70D-07

 Cycle   9  Pass 1  IDiag  1:
 E= -1351.69494893249     Delta-E=       -0.000000000005 Rises=F Damp=F
 DIIS: error= 3.42D-08 at cycle   9 NSaved=   9.
 NSaved= 9 IEnMin= 9 EnMin= -1351.69494893249     IErMin= 9 ErrMin= 3.42D-08
 ErrMax= 3.42D-08  0.00D+00 EMaxC= 1.00D-01 BMatC= 2.79D-13 BMatP= 1.66D-12
 IDIUse=1 WtCom= 1.00D+00 WtEn= 0.00D+00
 Coeff-Com: -0.362D-04 0.136D-03 0.561D-03 0.268D-02-0.729D-02-0.216D-01
 Coeff-Com: -0.539D-01 0.273D+00 0.806D+00
 Coeff:     -0.362D-04 0.136D-03 0.561D-03 0.268D-02-0.729D-02-0.216D-01
 Coeff:     -0.539D-01 0.273D+00 0.806D+00
 Gap=     0.428 Goal=   None    Shift=    0.000
 RMSDP=6.88D-09 MaxDP=1.10D-07 DE=-5.46D-12 OVMax= 2.39D-07

 SCF Done:  E(RwB97XD) =  -1351.69494893     A.U. after    9 cycles
            NFock=  9  Conv=0.69D-08     -V/T= 2.0017
 KE= 1.349387308231D+03 PE=-4.766331600085D+03 EE= 1.293127554065D+03
 Leave Link  502 at Sat Sep 14 17:48:03 2024, MaxMem=  4294967296 cpu:            1891.1 elap:             117.9
 (Enter /home/appl/Gaussian/g16/l701.exe)
 ... and contract with generalized density number  0.
 Compute integral first derivatives.
 R6Disp: Adding Grimme-D2 dispersion energy 1st derivatives to the gradient.
 Leave Link  701 at Sat Sep 14 17:48:10 2024, MaxMem=  4294967296 cpu:              65.5 elap:               3.6
 (Enter /home/appl/Gaussian/g16/l702.exe)
 L702 exits ... SP integral derivatives will be done elsewhere.
 Leave Link  702 at Sat Sep 14 17:48:11 2024, MaxMem=  4294967296 cpu:               2.1 elap:               0.2
 (Enter /home/appl/Gaussian/g16/l703.exe)
 Integral derivatives from FoFJK, PRISM(SPDF).
 Compute integral first derivatives, UseDBF=F ICtDFT=           0.
 Calling FoFJK, ICntrl=      2127 FMM=F ISym2X=1 I1Cent= 0 IOpClX= 0 NMat=1 NMatS=1 NMatT=0.
 FoFJK:  IHMeth= 1 ICntrl=    2127 DoSepK=T KAlg= 0 I1Cent=           0 FoldK=F
 IRaf=         1 NMat=       1 IRICut=       1 DoRegI=T DoRafI=F ISym2E= 1 IDoP0=0 IntGTp=1.
 FoFCou: FMM=F IPFlag=           0 FMFlag=      100000 FMFlg1=         800
         NFxFlg=           0 DoJE=F BraDBF=F KetDBF=F FulRan=T
         wScrn=  0.000000 ICntrl=      2527 IOpCl=  0 I1Cent=           0 NGrid=           0
         NMat0=    1 NMatS0=      1 NMatT0=    0 NMatD0=    1 NMtDS0=    0 NMtDT0=    0
 Petite list used in FoFCou.
 Leave Link  703 at Sat Sep 14 17:48:18 2024, MaxMem=  4294967296 cpu:             109.1 elap:               6.4
 (Enter /home/appl/Gaussian/g16/l716.exe)
 Dipole        = 1.77635684D-15 2.13162821D-14-9.53087307D-02
 ***** Axes restored to original set *****
 -------------------------------------------------------------------
 Center     Atomic                   Forces (Hartrees/Bohr)
 Number     Number              X              Y              Z
 -------------------------------------------------------------------
      1       16          -0.000036177    0.000103116   -0.000127569
      2        9           0.000039274    0.000009866    0.000086313
      3        8          -0.000049045   -0.000061302    0.000039736
      4        8          -0.000003622   -0.000015682    0.000001052
      5        7           0.000013571    0.000013571    0.000000000
      6       16           0.000103116   -0.000036177    0.000127569
      7        9           0.000009866    0.000039274   -0.000086313
      8        8          -0.000015682   -0.000003622   -0.000001052
      9        8          -0.000061302   -0.000049045   -0.000039736
 -------------------------------------------------------------------
 Cartesian Forces:  Max     0.000127569 RMS     0.000058050
 Leave Link  716 at Sat Sep 14 17:48:18 2024, MaxMem=  4294967296 cpu:               2.4 elap:               0.2
 (Enter /home/appl/Gaussian/g16/l103.exe)

 GradGradGradGradGradGradGradGradGradGradGradGradGradGradGradGradGradGrad
 Berny optimization.
 Using GEDIIS/GDIIS optimizer.
 FormGI is forming the generalized inverse of G from B-inverse, IUseBI=4.
 Internal  Forces:  Max     0.000095649 RMS     0.000040483
 Search for a local minimum.
 Step number  11 out of a maximum of  100
 All quantities printed in internal units (Hartrees-Bohrs-Radians)
 RMS Force = .40483D-04 SwitMx=.10000D-02 MixMth= 2
 Mixed Optimization -- En-DIIS/RFO-DIIS
 Swapping is turned off.
 Update second derivatives using D2CorX and points    2    3    4    5    6
                                                      7    8    9   10   11
 DE= -3.91D-07 DEPred=-3.12D-07 R= 1.26D+00
 Trust test= 1.26D+00 RLast= 4.75D-03 DXMaxT set to 8.49D-01
 ITU=  0  1  1  1  1  1  1  1  1  1  0
     Eigenvalues ---    0.01018   0.04055   0.15061   0.18098   0.19110
     Eigenvalues ---    0.23437   0.24027   0.24704   0.25000   0.25000
     Eigenvalues ---    0.25000   0.28982   0.31659   0.40426   0.51353
     Eigenvalues ---    0.73973   0.79596   1.03293   1.22487   1.28723
     Eigenvalues ---    2.53498
 En-DIIS/RFO-DIIS/Sim-DIIS IScMMF=       -3 using points:    11   10    9    8    7
 RFO step:  Lambda=-1.27217882D-07.
 NNeg= 0 NGDIIS= 5 SimSw=  2.50D-01 Rises=F DC= -3.91D-07 SmlDif=  1.00D-05
 NRisDI= 0 DoIntr=F SqrtH=F CThrHd= 10.0 CDAdj=  3.0
 RMS Error=  0.4344961899D-03 NUsed= 5 OKEnD=F EnDIS=F
 InvSVX:  RCond= 4.11D-09 Info=           0 Equed=N FErr=  3.25D-12 BErr=  7.84D-17
 DIIS inversion failure, remove point   5.
 InvSVX:  RCond= 4.37D-08 Info=           0 Equed=N FErr=  2.36D-13 BErr=  7.51D-17
 DIIS inversion failure, remove point   4.
 InvSVX:  RCond= 1.12D-07 Info=           0 Equed=N FErr=  5.81D-14 BErr=  9.81D-17
 RFO-DIIS uses    3 points instead of    5
 DidBck=F Rises=F RFO-DIIS coefs:    1.46270   -0.45889   -0.00381    0.00000    0.00000
 Iteration  1 RMS(Cart)=  0.00111572 RMS(Int)=  0.00000045
 Iteration  2 RMS(Cart)=  0.00000049 RMS(Int)=  0.00000000
 ITry= 1 IFail=0 DXMaxC= 2.25D-03 DCOld= 1.00D+10 DXMaxT= 8.49D-01 DXLimC= 3.00D+00 Rises=F
 ClnCor:  largest displacement from symmetrization is 3.31D-12 for atom     9.
 Variable       Old X    -DE/DX   Delta X   Delta X   Delta X     New X
                                 (Linear)    (Quad)   (Total)
    R1        3.10216   0.00010   0.00006   0.00013   0.00018   3.10235
    R2        2.72299  -0.00009   0.00016  -0.00014   0.00002   2.72301
    R3        2.71779   0.00002   0.00003  -0.00001   0.00002   2.71782
    R4        2.99986  -0.00006   0.00001  -0.00005  -0.00004   2.99982
    R5        2.99986  -0.00006   0.00001  -0.00005  -0.00004   2.99982
    R6        3.10216   0.00010   0.00006   0.00013   0.00018   3.10235
    R7        2.71779   0.00002   0.00003  -0.00001   0.00002   2.71782
    R8        2.72299  -0.00009   0.00016  -0.00014   0.00002   2.72301
    A1        1.80988  -0.00000  -0.00004   0.00001  -0.00003   1.80985
    A2        1.80678  -0.00000   0.00004  -0.00004   0.00000   1.80678
    A3        1.78955   0.00002   0.00007   0.00003   0.00011   1.78966
    A4        2.08745  -0.00001  -0.00002  -0.00000  -0.00002   2.08742
    A5        2.03098   0.00001   0.00006  -0.00002   0.00005   2.03103
    A6        1.89574  -0.00002  -0.00010   0.00002  -0.00008   1.89566
    A7        2.15873  -0.00002  -0.00024   0.00011  -0.00012   2.15861
    A8        1.78955   0.00002   0.00007   0.00003   0.00011   1.78966
    A9        1.89574  -0.00002  -0.00010   0.00002  -0.00008   1.89566
   A10        2.03098   0.00001   0.00006  -0.00002   0.00005   2.03103
   A11        1.80678  -0.00000   0.00004  -0.00004   0.00000   1.80678
   A12        1.80988  -0.00000  -0.00004   0.00001  -0.00003   1.80985
   A13        2.08745  -0.00001  -0.00002  -0.00000  -0.00002   2.08742
    D1        1.32667  -0.00001  -0.00090   0.00000  -0.00090   1.32578
    D2       -0.63495  -0.00002  -0.00093  -0.00002  -0.00095  -0.63590
    D3       -3.05193  -0.00001  -0.00086  -0.00002  -0.00087  -3.05280
    D4        1.32667  -0.00001  -0.00090   0.00000  -0.00090   1.32578
    D5       -3.05193  -0.00001  -0.00086  -0.00002  -0.00087  -3.05280
    D6       -0.63495  -0.00002  -0.00093  -0.00002  -0.00095  -0.63590
         Item               Value     Threshold  Converged?
 Maximum Force            0.000096     0.000450     YES
 RMS     Force            0.000040     0.000300     YES
 Maximum Displacement     0.002249     0.001800     NO 
 RMS     Displacement     0.001116     0.001200     YES
 Predicted change in Energy=-6.360848D-08
 Lowest energy point so far.  Saving SCF results.
 GradGradGradGradGradGradGradGradGradGradGradGradGradGradGradGradGradGrad

 Leave Link  103 at Sat Sep 14 17:48:27 2024, MaxMem=  4294967296 cpu:             104.2 elap:               8.4
 (Enter /home/appl/Gaussian/g16/l202.exe)
                          Input orientation:                          
 ---------------------------------------------------------------------
 Center     Atomic      Atomic             Coordinates (Angstroms)
 Number     Number       Type             X           Y           Z
 ---------------------------------------------------------------------
      1         16           0        7.034217   11.111845    4.887366
      2          9           0        7.597129   11.271509    6.421248
      3          8           0        7.893364   11.974889    4.117063
      4          8           0        7.068080    9.691671    4.662879
      5          7           0        5.519782   11.566782    5.026900
      6         16           0        5.064845   13.081217    5.166434
      7          9           0        5.224509   13.644129    3.632552
      8          8           0        3.644671   13.115080    5.390921
      9          8           0        5.927889   13.940364    5.936737
 ---------------------------------------------------------------------
                    Distance matrix (angstroms):
                    1          2          3          4          5
     1  S    0.000000
     2  F    1.641693   0.000000
     3  O    1.440953   2.427296   0.000000
     4  O    1.438206   2.422322   2.488392   0.000000
     5  N    1.587435   2.519278   2.574537   2.458817   0.000000
     6  S    2.799059   3.355899   3.213356   3.969325   1.587435
     7  F    3.355899   4.362966   3.184948   4.481323   2.519278
     8  O    3.969325   4.481323   4.579753   4.895866   2.458817
     9  O    3.213356   3.184948   3.322258   4.579753   2.574537
                    6          7          8          9
     6  S    0.000000
     7  F    1.641693   0.000000
     8  O    1.438206   2.422322   0.000000
     9  O    1.440953   2.427296   2.488392   0.000000
 Stoichiometry    F2NO4S2(1-)
 Framework group  C2[C2(N),X(F2O4S2)]
 Deg. of freedom    11
 Full point group                 C2      NOp   2
 RotChk:  IX=0 Diff= 1.94D-04
 Largest Abelian subgroup         C2      NOp   2
 Largest concise Abelian subgroup C2      NOp   2
                         Standard orientation:                         
 ---------------------------------------------------------------------
 Center     Atomic      Atomic             Coordinates (Angstroms)
 Number     Number       Type             X           Y           Z
 ---------------------------------------------------------------------
      1         16           0        0.000000    1.399530    0.087109
      2          9           0       -1.554668    1.530319   -0.423829
      3          8           0        0.766740    1.473587   -1.130664
      4          8           0        0.120860    2.444948    1.067379
      5          7           0        0.000000   -0.000000    0.836287
      6         16           0       -0.000000   -1.399530    0.087109
      7          9           0        1.554668   -1.530319   -0.423829
      8          8           0       -0.120860   -2.444948    1.067379
      9          8           0       -0.766740   -1.473587   -1.130664
 ---------------------------------------------------------------------
 Rotational constants (GHZ):           2.5254129           0.8792251           0.8623710
 Leave Link  202 at Sat Sep 14 17:48:28 2024, MaxMem=  4294967296 cpu:               3.0 elap:               0.4
 (Enter /home/appl/Gaussian/g16/l301.exe)
 Standard basis: 6-311++G(d,p) (5D, 7F)
 Ernie: Thresh=  0.10000D-02 Tol=  0.10000D-05 Strict=F.
 There are   113 symmetry adapted cartesian basis functions of A   symmetry.
 There are   110 symmetry adapted cartesian basis functions of B   symmetry.
 There are   108 symmetry adapted basis functions of A   symmetry.
 There are   106 symmetry adapted basis functions of B   symmetry.
   214 basis functions,   352 primitive gaussians,   223 cartesian basis functions
    45 alpha electrons       45 beta electrons
       nuclear repulsion energy       772.1291377740 Hartrees.
 IExCor= 4639 DFT=T Ex+Corr=wB97XD ExCW=0 ScaHFX=  1.000000
 ScaDFX=  1.000000  1.000000  1.000000  1.000000 ScalE2=  1.000000  1.000000
 IRadAn=      5 IRanWt=     -1 IRanGd=            0 ICorTp=0 IEmpDi=121
 HFx  wShort=  0.000000 wLong=  0.200000 cFull=  0.222036 cShort=  0.000000 cLong=  0.777964
 DFx  wShort=  0.000000 wLong=  0.200000 cFull=  0.000000 cShort=  0.000000 cLong=  1.000000
 NAtoms=    9 NActive=    9 NUniq=    5 SFac= 3.24D+00 NAtFMM=   60 NAOKFM=F Big=F
 Integral buffers will be    131072 words long.
 Raffenetti 2 integral format.
 Two-electron integral symmetry is turned on.
 R6Disp:  Grimme-D2 Dispersion energy=       -0.0028637949 Hartrees.
 Nuclear repulsion after empirical dispersion term =      772.1262739791 Hartrees.
 Leave Link  301 at Sat Sep 14 17:48:29 2024, MaxMem=  4294967296 cpu:               3.9 elap:               0.3
 (Enter /home/appl/Gaussian/g16/l302.exe)
 NPDir=0 NMtPBC=     1 NCelOv=     1 NCel=       1 NClECP=     1 NCelD=      1
         NCelK=      1 NCelE2=     1 NClLst=     1 CellRange=     0.0.
 One-electron integrals computed using PRISM.
 One-electron integral symmetry used in STVInt
 NBasis=   214 RedAO= T EigKep=  2.24D-04  NBF=   108   106
 NBsUse=   214 1.00D-06 EigRej= -1.00D+00 NBFU=   108   106
 Precomputing XC quadrature grid using
 IXCGrd= 4 IRadAn=           5 IRanWt=          -1 IRanGd=           0 AccXCQ= 0.00D+00.
 Generated NRdTot=       0 NPtTot=           0 NUsed=           0 NTot=          32
 NSgBfM=   223   223   223   223   223 MxSgAt=     9 MxSgA2=     9.
 Leave Link  302 at Sat Sep 14 17:48:41 2024, MaxMem=  4294967296 cpu:             207.7 elap:              11.4
 (Enter /home/appl/Gaussian/g16/l303.exe)
 DipDrv:  MaxL=1.
 Leave Link  303 at Sat Sep 14 17:48:43 2024, MaxMem=  4294967296 cpu:              12.1 elap:               0.7
 (Enter /home/appl/Gaussian/g16/l401.exe)
 Initial guess from the checkpoint file:  "/scr/Gau-139338.chk"
 B after Tr=     0.000000   -0.000000   -0.000000
         Rot=    1.000000    0.000000    0.000000   -0.000060 Ang=  -0.01 deg.
 Guess basis will be translated and rotated to current coordinates.
 JPrj=2 DoOrth=T DoCkMO=T.
 Initial guess orbital symmetries:
       Occupied  (B) (A) (A) (B) (B) (A) (B) (A) (A) (B) (A) (B)
                 (A) (B) (A) (A) (B) (A) (B) (A) (B) (A) (B) (A)
                 (B) (A) (B) (B) (A) (A) (B) (A) (B) (A) (B) (A)
                 (B) (A) (A) (B) (B) (A) (B) (B) (A)
       Virtual   (A) (B) (A) (B) (A) (B) (A) (A) (B) (A) (B) (B)
                 (A) (B) (A) (B) (A) (B) (A) (A) (B) (A) (B) (B)
                 (A) (A) (B) (B) (B) (A) (B) (A) (A) (B) (A) (A)
                 (A) (B) (B) (A) (B) (A) (B) (B) (A) (B) (B) (A)
                 (B) (A) (A) (B) (A) (B) (A) (B) (A) (B) (B) (A)
                 (B) (B) (A) (A) (B) (B) (A) (B) (A) (B) (A) (A)
                 (B) (A) (B) (A) (B) (A) (A) (B) (B) (A) (A) (B)
                 (B) (A) (A) (B) (A) (B) (A) (A) (B) (B) (B) (A)
                 (B) (A) (A) (B) (A) (A) (B) (A) (B) (A) (B) (B)
                 (B) (A) (A) (B) (A) (B) (A) (B) (A) (B) (A) (B)
                 (A) (B) (A) (B) (A) (B) (A) (A) (B) (B) (A) (B)
                 (A) (B) (A) (B) (A) (B) (A) (B) (B) (A) (B) (A)
                 (A) (B) (A) (B) (B) (A) (A) (B) (A) (B) (A) (B)
                 (A) (B) (A) (B) (A) (A) (B) (A) (B) (B) (A) (A)
                 (B)
 The electronic state of the initial guess is 1-A.
 Leave Link  401 at Sat Sep 14 17:48:49 2024, MaxMem=  4294967296 cpu:              96.8 elap:               5.3
 (Enter /home/appl/Gaussian/g16/l502.exe)
 Keep R1 ints in memory in symmetry-blocked form, NReq=793946642.
 FoFCou: FMM=F IPFlag=           0 FMFlag=           0 FMFlg1=           0
         NFxFlg=           0 DoJE=F BraDBF=F KetDBF=F FulRan=T
         wScrn=  0.000000 ICntrl=       600 IOpCl=  0 I1Cent=           0 NGrid=           0
         NMat0=    1 NMatS0=  23005 NMatT0=    0 NMatD0=    1 NMtDS0=    0 NMtDT0=    0
 Petite list used in FoFCou.
 Closed shell SCF:
 Using DIIS extrapolation, IDIIS=  1040.
 NGot=  4294967296 LenX=  4162486518 LenY=  4162436348
 Requested convergence on RMS density matrix=1.00D-08 within 128 cycles.
 Requested convergence on MAX density matrix=1.00D-06.
 Requested convergence on             energy=1.00D-06.
 No special actions if energy rises.

 Cycle   1  Pass 1  IDiag  1:
 E= -1351.69494582629    
 DIIS: error= 6.22D-05 at cycle   1 NSaved=   1.
 NSaved= 1 IEnMin= 1 EnMin= -1351.69494582629     IErMin= 1 ErrMin= 6.22D-05
 ErrMax= 6.22D-05  0.00D+00 EMaxC= 1.00D-01 BMatC= 2.00D-06 BMatP= 2.00D-06
 IDIUse=1 WtCom= 1.00D+00 WtEn= 0.00D+00
 Coeff-Com:  0.100D+01
 Coeff:      0.100D+01
 Gap=     0.428 Goal=   None    Shift=    0.000
 RMSDP=1.55D-05 MaxDP=2.71D-04              OVMax= 3.33D-04

 Cycle   2  Pass 1  IDiag  1:
 E= -1351.69494884137     Delta-E=       -0.000003015081 Rises=F Damp=F
 DIIS: error= 1.71D-05 at cycle   2 NSaved=   2.
 NSaved= 2 IEnMin= 2 EnMin= -1351.69494884137     IErMin= 2 ErrMin= 1.71D-05
 ErrMax= 1.71D-05  0.00D+00 EMaxC= 1.00D-01 BMatC= 1.05D-07 BMatP= 2.00D-06
 IDIUse=1 WtCom= 1.00D+00 WtEn= 0.00D+00
 Coeff-Com: -0.120D+00 0.112D+01
 Coeff:     -0.120D+00 0.112D+01
 Gap=     0.428 Goal=   None    Shift=    0.000
 RMSDP=4.38D-06 MaxDP=8.02D-05 DE=-3.02D-06 OVMax= 1.33D-04

 Cycle   3  Pass 1  IDiag  1:
 E= -1351.69494893050     Delta-E=       -0.000000089125 Rises=F Damp=F
 DIIS: error= 2.33D-05 at cycle   3 NSaved=   3.
 NSaved= 3 IEnMin= 3 EnMin= -1351.69494893050     IErMin= 2 ErrMin= 1.71D-05
 ErrMax= 2.33D-05  0.00D+00 EMaxC= 1.00D-01 BMatC= 1.24D-07 BMatP= 1.05D-07
 IDIUse=1 WtCom= 1.00D+00 WtEn= 0.00D+00
 Coeff-Com: -0.105D+00 0.646D+00 0.459D+00
 Coeff:     -0.105D+00 0.646D+00 0.459D+00
 Gap=     0.428 Goal=   None    Shift=    0.000
 RMSDP=1.97D-06 MaxDP=3.35D-05 DE=-8.91D-08 OVMax= 6.23D-05

 Cycle   4  Pass 1  IDiag  1:
 E= -1351.69494901382     Delta-E=       -0.000000083322 Rises=F Damp=F
 DIIS: error= 3.65D-06 at cycle   4 NSaved=   4.
 NSaved= 4 IEnMin= 4 EnMin= -1351.69494901382     IErMin= 4 ErrMin= 3.65D-06
 ErrMax= 3.65D-06  0.00D+00 EMaxC= 1.00D-01 BMatC= 2.21D-09 BMatP= 1.05D-07
 IDIUse=1 WtCom= 1.00D+00 WtEn= 0.00D+00
 Coeff-Com:  0.267D-02-0.616D-01 0.778D-01 0.981D+00
 Coeff:      0.267D-02-0.616D-01 0.778D-01 0.981D+00
 Gap=     0.428 Goal=   None    Shift=    0.000
 RMSDP=4.92D-07 MaxDP=7.52D-06 DE=-8.33D-08 OVMax= 2.00D-05

 Cycle   5  Pass 1  IDiag  1:
 E= -1351.69494901654     Delta-E=       -0.000000002722 Rises=F Damp=F
 DIIS: error= 1.28D-06 at cycle   5 NSaved=   5.
 NSaved= 5 IEnMin= 5 EnMin= -1351.69494901654     IErMin= 5 ErrMin= 1.28D-06
 ErrMax= 1.28D-06  0.00D+00 EMaxC= 1.00D-01 BMatC= 3.11D-10 BMatP= 2.21D-09
 IDIUse=1 WtCom= 1.00D+00 WtEn= 0.00D+00
 Coeff-Com:  0.549D-02-0.552D-01 0.125D-01 0.429D+00 0.608D+00
 Coeff:      0.549D-02-0.552D-01 0.125D-01 0.429D+00 0.608D+00
 Gap=     0.428 Goal=   None    Shift=    0.000
 RMSDP=1.60D-07 MaxDP=2.54D-06 DE=-2.72D-09 OVMax= 4.00D-06

 Cycle   6  Pass 1  IDiag  1:
 E= -1351.69494901680     Delta-E=       -0.000000000260 Rises=F Damp=F
 DIIS: error= 5.76D-07 at cycle   6 NSaved=   6.
 NSaved= 6 IEnMin= 6 EnMin= -1351.69494901680     IErMin= 6 ErrMin= 5.76D-07
 ErrMax= 5.76D-07  0.00D+00 EMaxC= 1.00D-01 BMatC= 5.09D-11 BMatP= 3.11D-10
 IDIUse=1 WtCom= 1.00D+00 WtEn= 0.00D+00
 Coeff-Com:  0.223D-02-0.145D-01-0.145D-01-0.220D-01 0.279D+00 0.770D+00
 Coeff:      0.223D-02-0.145D-01-0.145D-01-0.220D-01 0.279D+00 0.770D+00
 Gap=     0.428 Goal=   None    Shift=    0.000
 RMSDP=7.80D-08 MaxDP=1.61D-06 DE=-2.60D-10 OVMax= 2.94D-06

 Cycle   7  Pass 1  IDiag  1:
 E= -1351.69494901686     Delta-E=       -0.000000000060 Rises=F Damp=F
 DIIS: error= 7.66D-08 at cycle   7 NSaved=   7.
 NSaved= 7 IEnMin= 7 EnMin= -1351.69494901686     IErMin= 7 ErrMin= 7.66D-08
 ErrMax= 7.66D-08  0.00D+00 EMaxC= 1.00D-01 BMatC= 1.39D-12 BMatP= 5.09D-11
 IDIUse=1 WtCom= 1.00D+00 WtEn= 0.00D+00
 Coeff-Com: -0.205D-03 0.332D-02-0.277D-02-0.407D-01-0.175D-01 0.828D-01
 Coeff-Com:  0.975D+00
 Coeff:     -0.205D-03 0.332D-02-0.277D-02-0.407D-01-0.175D-01 0.828D-01
 Coeff:      0.975D+00
 Gap=     0.428 Goal=   None    Shift=    0.000
 RMSDP=2.71D-08 MaxDP=5.91D-07 DE=-6.00D-11 OVMax= 1.10D-06

 Cycle   8  Pass 1  IDiag  1:
 E= -1351.69494901687     Delta-E=       -0.000000000007 Rises=F Damp=F
 DIIS: error= 3.47D-08 at cycle   8 NSaved=   8.
 NSaved= 8 IEnMin= 8 EnMin= -1351.69494901687     IErMin= 8 ErrMin= 3.47D-08
 ErrMax= 3.47D-08  0.00D+00 EMaxC= 1.00D-01 BMatC= 5.05D-13 BMatP= 1.39D-12
 IDIUse=1 WtCom= 1.00D+00 WtEn= 0.00D+00
 Coeff-Com: -0.255D-03 0.261D-02-0.238D-03-0.171D-01-0.280D-01-0.135D-01
 Coeff-Com:  0.452D+00 0.605D+00
 Coeff:     -0.255D-03 0.261D-02-0.238D-03-0.171D-01-0.280D-01-0.135D-01
 Coeff:      0.452D+00 0.605D+00
 Gap=     0.428 Goal=   None    Shift=    0.000
 RMSDP=6.42D-09 MaxDP=1.65D-07 DE=-6.82D-12 OVMax= 2.02D-07

 SCF Done:  E(RwB97XD) =  -1351.69494902     A.U. after    8 cycles
            NFock=  8  Conv=0.64D-08     -V/T= 2.0017
 KE= 1.349387093638D+03 PE=-4.766340425711D+03 EE= 1.293132109078D+03
 Leave Link  502 at Sat Sep 14 17:50:45 2024, MaxMem=  4294967296 cpu:            1854.0 elap:             116.0
 (Enter /home/appl/Gaussian/g16/l701.exe)
 ... and contract with generalized density number  0.
 Compute integral first derivatives.
 R6Disp: Adding Grimme-D2 dispersion energy 1st derivatives to the gradient.
 Leave Link  701 at Sat Sep 14 17:50:51 2024, MaxMem=  4294967296 cpu:              65.4 elap:               3.7
 (Enter /home/appl/Gaussian/g16/l702.exe)
 L702 exits ... SP integral derivatives will be done elsewhere.
 Leave Link  702 at Sat Sep 14 17:50:52 2024, MaxMem=  4294967296 cpu:               1.8 elap:               0.2
 (Enter /home/appl/Gaussian/g16/l703.exe)
 Integral derivatives from FoFJK, PRISM(SPDF).
 Compute integral first derivatives, UseDBF=F ICtDFT=           0.
 Calling FoFJK, ICntrl=      2127 FMM=F ISym2X=1 I1Cent= 0 IOpClX= 0 NMat=1 NMatS=1 NMatT=0.
 FoFJK:  IHMeth= 1 ICntrl=    2127 DoSepK=T KAlg= 0 I1Cent=           0 FoldK=F
 IRaf=         1 NMat=       1 IRICut=       1 DoRegI=T DoRafI=F ISym2E= 1 IDoP0=0 IntGTp=1.
 FoFCou: FMM=F IPFlag=           0 FMFlag=      100000 FMFlg1=         800
         NFxFlg=           0 DoJE=F BraDBF=F KetDBF=F FulRan=T
         wScrn=  0.000000 ICntrl=      2527 IOpCl=  0 I1Cent=           0 NGrid=           0
         NMat0=    1 NMatS0=      1 NMatT0=    0 NMatD0=    1 NMtDS0=    0 NMtDT0=    0
 Petite list used in FoFCou.
 Leave Link  703 at Sat Sep 14 17:50:59 2024, MaxMem=  4294967296 cpu:             107.2 elap:               6.4
 (Enter /home/appl/Gaussian/g16/l716.exe)
 Dipole        = 0.00000000D+00-1.06581410D-14-9.54786261D-02
 ***** Axes restored to original set *****
 -------------------------------------------------------------------
 Center     Atomic                   Forces (Hartrees/Bohr)
 Number     Number              X              Y              Z
 -------------------------------------------------------------------
      1       16           0.000015697    0.000054350   -0.000104736
      2        9           0.000019673    0.000006375    0.000046865
      3        8          -0.000064917   -0.000059616    0.000053341
      4        8           0.000001028   -0.000002195    0.000002717
      5        7           0.000029605    0.000029605   -0.000000000
      6       16           0.000054350    0.000015697    0.000104736
      7        9           0.000006375    0.000019673   -0.000046865
      8        8          -0.000002195    0.000001028   -0.000002717
      9        8          -0.000059616   -0.000064917   -0.000053341
 -------------------------------------------------------------------
 Cartesian Forces:  Max     0.000104736 RMS     0.000045783
 Leave Link  716 at Sat Sep 14 17:51:00 2024, MaxMem=  4294967296 cpu:               1.9 elap:               0.2
 (Enter /home/appl/Gaussian/g16/l103.exe)

 GradGradGradGradGradGradGradGradGradGradGradGradGradGradGradGradGradGrad
 Berny optimization.
 Using GEDIIS/GDIIS optimizer.
 FormGI is forming the generalized inverse of G from B-inverse, IUseBI=4.
 Internal  Forces:  Max     0.000103217 RMS     0.000032702
 Search for a local minimum.
 Step number  12 out of a maximum of  100
 All quantities printed in internal units (Hartrees-Bohrs-Radians)
 RMS Force = .32702D-04 SwitMx=.10000D-02 MixMth= 2
 Mixed Optimization -- En-DIIS/RFO-DIIS
 Swapping is turned off.
 Update second derivatives using D2CorX and points    2    3    4    5    6
                                                      7    8    9   10   11
                                                     12
 DE= -8.44D-08 DEPred=-6.36D-08 R= 1.33D+00
 Trust test= 1.33D+00 RLast= 2.25D-03 DXMaxT set to 8.49D-01
 ITU=  0  0  1  1  1  1  1  1  1  1  1  0
     Eigenvalues ---    0.00848   0.04055   0.15061   0.18097   0.18281
     Eigenvalues ---    0.22444   0.23999   0.25000   0.25000   0.25000
     Eigenvalues ---    0.26551   0.27259   0.32000   0.40561   0.51353
     Eigenvalues ---    0.71113   0.79596   0.96692   1.21505   1.28723
     Eigenvalues ---    2.53498
 En-DIIS/RFO-DIIS/Sim-DIIS IScMMF=       -3 using points:    12   11   10    9    8    7
 RFO step:  Lambda=-6.31327763D-08.
 NNeg= 0 NGDIIS= 6 SimSw=  2.50D-01 Rises=F DC= -8.44D-08 SmlDif=  1.00D-05
 NRisDI= 0 DoIntr=F SqrtH=F CThrHd= 10.0 CDAdj=  3.0
 RMS Error=  0.2988199664D-03 NUsed= 6 OKEnD=F EnDIS=F
 InvSVX:  RCond= 3.75D-10 Info=           0 Equed=N FErr=  2.28D-11 BErr=  3.88D-17
 DIIS inversion failure, remove point   6.
 InvSVX:  RCond= 9.30D-10 Info=           0 Equed=N FErr=  7.78D-12 BErr=  8.23D-17
 DIIS inversion failure, remove point   5.
 InvSVX:  RCond= 1.95D-09 Info=           0 Equed=N FErr=  1.91D-12 BErr=  8.42D-17
 DIIS inversion failure, remove point   4.
 InvSVX:  RCond= 3.20D-09 Info=           0 Equed=N FErr=  1.11D-12 BErr=  3.28D-17
 DIIS inversion failure, remove point   3.
 InvSVX:  RCond= 1.27D-06 Info=           0 Equed=N FErr=  3.11D-15 BErr=  4.47D-17
 RFO-DIIS uses    2 points instead of    6
 DidBck=F Rises=F RFO-DIIS coefs:    1.68136   -0.68136    0.00000    0.00000    0.00000
                  RFO-DIIS coefs:    0.00000
 Iteration  1 RMS(Cart)=  0.00075654 RMS(Int)=  0.00000021
 Iteration  2 RMS(Cart)=  0.00000022 RMS(Int)=  0.00000000
 ITry= 1 IFail=0 DXMaxC= 1.50D-03 DCOld= 1.00D+10 DXMaxT= 8.49D-01 DXLimC= 3.00D+00 Rises=F
 ClnCor:  largest displacement from symmetrization is 1.58D-12 for atom     9.
 Variable       Old X    -DE/DX   Delta X   Delta X   Delta X     New X
                                 (Linear)    (Quad)   (Total)
    R1        3.10235   0.00005   0.00013   0.00006   0.00019   3.10254
    R2        2.72301  -0.00010   0.00001  -0.00009  -0.00008   2.72293
    R3        2.71782   0.00000   0.00002  -0.00001   0.00000   2.71782
    R4        2.99982  -0.00003  -0.00003  -0.00004  -0.00006   2.99975
    R5        2.99982  -0.00003  -0.00003  -0.00004  -0.00006   2.99975
    R6        3.10235   0.00005   0.00013   0.00006   0.00019   3.10254
    R7        2.71782   0.00000   0.00002  -0.00001   0.00000   2.71782
    R8        2.72301  -0.00010   0.00001  -0.00009  -0.00008   2.72293
    A1        1.80985  -0.00000  -0.00002  -0.00000  -0.00002   1.80983
    A2        1.80678  -0.00000   0.00000  -0.00001  -0.00001   1.80677
    A3        1.78966   0.00000   0.00007  -0.00003   0.00004   1.78970
    A4        2.08742   0.00000  -0.00002   0.00004   0.00002   2.08744
    A5        2.03103  -0.00001   0.00003  -0.00004  -0.00001   2.03102
    A6        1.89566   0.00000  -0.00005   0.00003  -0.00002   1.89564
    A7        2.15861   0.00002  -0.00008   0.00011   0.00003   2.15863
    A8        1.78966   0.00000   0.00007  -0.00003   0.00004   1.78970
    A9        1.89566   0.00000  -0.00005   0.00003  -0.00002   1.89564
   A10        2.03103  -0.00001   0.00003  -0.00004  -0.00001   2.03102
   A11        1.80678  -0.00000   0.00000  -0.00001  -0.00001   1.80677
   A12        1.80985  -0.00000  -0.00002  -0.00000  -0.00002   1.80983
   A13        2.08742   0.00000  -0.00002   0.00004   0.00002   2.08744
    D1        1.32578  -0.00001  -0.00061  -0.00001  -0.00062   1.32516
    D2       -0.63590  -0.00000  -0.00065   0.00003  -0.00062  -0.63652
    D3       -3.05280  -0.00001  -0.00060  -0.00003  -0.00062  -3.05342
    D4        1.32578  -0.00001  -0.00061  -0.00001  -0.00062   1.32516
    D5       -3.05280  -0.00001  -0.00060  -0.00003  -0.00062  -3.05342
    D6       -0.63590  -0.00000  -0.00065   0.00003  -0.00062  -0.63652
         Item               Value     Threshold  Converged?
 Maximum Force            0.000103     0.000450     YES
 RMS     Force            0.000033     0.000300     YES
 Maximum Displacement     0.001499     0.001800     YES
 RMS     Displacement     0.000757     0.001200     YES
 Predicted change in Energy=-3.156644D-08
 Optimization completed.
    -- Stationary point found.
                           ----------------------------
                           !   Optimized Parameters   !
                           ! (Angstroms and Degrees)  !
 --------------------------                            --------------------------
 ! Name  Definition              Value          Derivative Info.                !
 --------------------------------------------------------------------------------
 ! R1    R(1,2)                  1.6417         -DE/DX =    0.0001              !
 ! R2    R(1,3)                  1.441          -DE/DX =   -0.0001              !
 ! R3    R(1,4)                  1.4382         -DE/DX =    0.0                 !
 ! R4    R(1,5)                  1.5874         -DE/DX =    0.0                 !
 ! R5    R(5,6)                  1.5874         -DE/DX =    0.0                 !
 ! R6    R(6,7)                  1.6417         -DE/DX =    0.0001              !
 ! R7    R(6,8)                  1.4382         -DE/DX =    0.0                 !
 ! R8    R(6,9)                  1.441          -DE/DX =   -0.0001              !
 ! A1    A(2,1,3)              103.6967         -DE/DX =    0.0                 !
 ! A2    A(2,1,4)              103.5209         -DE/DX =    0.0                 !
 ! A3    A(2,1,5)              102.5398         -DE/DX =    0.0                 !
 ! A4    A(3,1,4)              119.6006         -DE/DX =    0.0                 !
 ! A5    A(3,1,5)              116.3694         -DE/DX =    0.0                 !
 ! A6    A(4,1,5)              108.6131         -DE/DX =    0.0                 !
 ! A7    A(1,5,6)              123.6791         -DE/DX =    0.0                 !
 ! A8    A(5,6,7)              102.5398         -DE/DX =    0.0                 !
 ! A9    A(5,6,8)              108.6131         -DE/DX =    0.0                 !
 ! A10   A(5,6,9)              116.3694         -DE/DX =    0.0                 !
 ! A11   A(7,6,8)              103.5209         -DE/DX =    0.0                 !
 ! A12   A(7,6,9)              103.6967         -DE/DX =    0.0                 !
 ! A13   A(8,6,9)              119.6006         -DE/DX =    0.0                 !
 ! D1    D(2,1,5,6)             75.9615         -DE/DX =    0.0                 !
 ! D2    D(3,1,5,6)            -36.4344         -DE/DX =    0.0                 !
 ! D3    D(4,1,5,6)           -174.9127         -DE/DX =    0.0                 !
 ! D4    D(1,5,6,7)             75.9615         -DE/DX =    0.0                 !
 ! D5    D(1,5,6,8)           -174.9127         -DE/DX =    0.0                 !
 ! D6    D(1,5,6,9)            -36.4344         -DE/DX =    0.0                 !
 --------------------------------------------------------------------------------
 Lowest energy point so far.  Saving SCF results.
 Largest change from initial coordinates is atom    4       0.199 Angstoms.
 GradGradGradGradGradGradGradGradGradGradGradGradGradGradGradGradGradGrad

 Leave Link  103 at Sat Sep 14 17:51:11 2024, MaxMem=  4294967296 cpu:             117.7 elap:              10.2
 (Enter /home/appl/Gaussian/g16/l202.exe)
                          Input orientation:                          
 ---------------------------------------------------------------------
 Center     Atomic      Atomic             Coordinates (Angstroms)
 Number     Number       Type             X           Y           Z
 ---------------------------------------------------------------------
      1         16           0        7.034217   11.111845    4.887366
      2          9           0        7.597129   11.271509    6.421248
      3          8           0        7.893364   11.974889    4.117063
      4          8           0        7.068080    9.691671    4.662879
      5          7           0        5.519782   11.566782    5.026900
      6         16           0        5.064845   13.081217    5.166434
      7          9           0        5.224509   13.644129    3.632552
      8          8           0        3.644671   13.115080    5.390921
      9          8           0        5.927889   13.940364    5.936737
 ---------------------------------------------------------------------
                    Distance matrix (angstroms):
                    1          2          3          4          5
     1  S    0.000000
     2  F    1.641693   0.000000
     3  O    1.440953   2.427296   0.000000
     4  O    1.438206   2.422322   2.488392   0.000000
     5  N    1.587435   2.519278   2.574537   2.458817   0.000000
     6  S    2.799059   3.355899   3.213356   3.969325   1.587435
     7  F    3.355899   4.362966   3.184948   4.481323   2.519278
     8  O    3.969325   4.481323   4.579753   4.895866   2.458817
     9  O    3.213356   3.184948   3.322258   4.579753   2.574537
                    6          7          8          9
     6  S    0.000000
     7  F    1.641693   0.000000
     8  O    1.438206   2.422322   0.000000
     9  O    1.440953   2.427296   2.488392   0.000000
 Stoichiometry    F2NO4S2(1-)
 Framework group  C2[C2(N),X(F2O4S2)]
 Deg. of freedom    11
 Full point group                 C2      NOp   2
 RotChk:  IX=0 Diff= 5.20D-15
 Largest Abelian subgroup         C2      NOp   2
 Largest concise Abelian subgroup C2      NOp   2
                         Standard orientation:                         
 ---------------------------------------------------------------------
 Center     Atomic      Atomic             Coordinates (Angstroms)
 Number     Number       Type             X           Y           Z
 ---------------------------------------------------------------------
      1         16           0       -0.000000    1.399530    0.087109
      2          9           0       -1.554668    1.530319   -0.423829
      3          8           0        0.766740    1.473587   -1.130664
      4          8           0        0.120860    2.444948    1.067379
      5          7           0        0.000000    0.000000    0.836287
      6         16           0       -0.000000   -1.399530    0.087109
      7          9           0        1.554668   -1.530319   -0.423829
      8          8           0       -0.120860   -2.444948    1.067379
      9          8           0       -0.766740   -1.473587   -1.130664
 ---------------------------------------------------------------------
 Rotational constants (GHZ):           2.5254129           0.8792251           0.8623710
 Leave Link  202 at Sat Sep 14 17:51:12 2024, MaxMem=  4294967296 cpu:               2.9 elap:               0.4
 (Enter /home/appl/Gaussian/g16/l601.exe)
 Copying SCF densities to generalized density rwf, IOpCl= 0 IROHF=0.

 **********************************************************************

            Population analysis using the SCF Density.

 **********************************************************************

 Orbital symmetries:
       Occupied  (B) (A) (A) (B) (B) (A) (B) (A) (A) (B) (A) (B)
                 (A) (B) (A) (A) (B) (A) (B) (A) (B) (A) (B) (A)
                 (B) (A) (B) (B) (A) (A) (B) (A) (B) (A) (B) (A)
                 (B) (A) (A) (B) (B) (A) (B) (B) (A)
       Virtual   (A) (B) (A) (B) (A) (B) (A) (A) (B) (A) (B) (B)
                 (A) (B) (A) (B) (A) (B) (A) (A) (B) (A) (B) (B)
                 (A) (A) (B) (B) (B) (A) (B) (A) (A) (B) (A) (A)
                 (A) (B) (B) (A) (B) (A) (B) (B) (A) (B) (B) (A)
                 (B) (A) (A) (B) (A) (B) (A) (B) (A) (B) (B) (A)
                 (B) (B) (A) (A) (B) (B) (A) (B) (A) (B) (A) (A)
                 (B) (A) (B) (A) (B) (A) (A) (B) (B) (A) (A) (B)
                 (B) (A) (A) (B) (A) (B) (A) (A) (B) (B) (B) (A)
                 (B) (A) (A) (B) (A) (A) (B) (A) (B) (A) (B) (B)
                 (B) (A) (A) (B) (A) (B) (A) (B) (A) (B) (A) (B)
                 (A) (B) (A) (B) (A) (B) (A) (A) (B) (B) (A) (B)
                 (A) (B) (A) (B) (A) (B) (A) (B) (B) (A) (B) (A)
                 (A) (B) (A) (B) (B) (A) (A) (B) (A) (B) (A) (B)
                 (A) (B) (A) (B) (A) (A) (B) (A) (B) (B) (A) (A)
                 (B)
 The electronic state is 1-A.
 Alpha  occ. eigenvalues --  -89.14859 -89.14859 -24.68912 -24.68912 -19.12702
 Alpha  occ. eigenvalues --  -19.12702 -19.12582 -19.12581 -14.31810  -8.16012
 Alpha  occ. eigenvalues --   -8.16011  -6.11015  -6.11015  -6.10696  -6.10696
 Alpha  occ. eigenvalues --   -6.10647  -6.10646  -1.21555  -1.20967  -1.09744
 Alpha  occ. eigenvalues --   -1.08874  -1.00550  -1.00306  -0.90439  -0.68531
 Alpha  occ. eigenvalues --   -0.58245  -0.55382  -0.48353  -0.48349  -0.46445
 Alpha  occ. eigenvalues --   -0.44753  -0.41780  -0.40113  -0.39407  -0.39217
 Alpha  occ. eigenvalues --   -0.35607  -0.34220  -0.32967  -0.32549  -0.31524
 Alpha  occ. eigenvalues --   -0.28678  -0.27989  -0.27049  -0.24486  -0.24252
 Alpha virt. eigenvalues --    0.18593   0.20382   0.21216   0.21621   0.22076
 Alpha virt. eigenvalues --    0.23936   0.24021   0.24160   0.24830   0.26392
 Alpha virt. eigenvalues --    0.29202   0.31479   0.32500   0.32826   0.33976
 Alpha virt. eigenvalues --    0.35470   0.36200   0.39576   0.39918   0.40289
 Alpha virt. eigenvalues --    0.40442   0.42679   0.43396   0.44185   0.44519
 Alpha virt. eigenvalues --    0.45874   0.45936   0.47154   0.47491   0.48114
 Alpha virt. eigenvalues --    0.49208   0.49415   0.49937   0.50017   0.51398
 Alpha virt. eigenvalues --    0.52280   0.53311   0.54229   0.55898   0.58314
 Alpha virt. eigenvalues --    0.58664   0.59864   0.60115   0.62964   0.64036
 Alpha virt. eigenvalues --    0.64662   0.65965   0.68242   0.71747   0.74008
 Alpha virt. eigenvalues --    0.83862   0.85796   0.86974   0.88103   1.02234
 Alpha virt. eigenvalues --    1.07114   1.12233   1.13617   1.15219   1.17246
 Alpha virt. eigenvalues --    1.18040   1.21994   1.22974   1.25736   1.26907
 Alpha virt. eigenvalues --    1.30337   1.30900   1.31789   1.32810   1.34160
 Alpha virt. eigenvalues --    1.34690   1.35126   1.35684   1.37308   1.40047
 Alpha virt. eigenvalues --    1.42328   1.42680   1.50754   1.59079   1.59488
 Alpha virt. eigenvalues --    1.60316   1.64818   1.65425   1.66320   1.77539
 Alpha virt. eigenvalues --    1.78463   1.88640   1.90185   1.93843   1.96784
 Alpha virt. eigenvalues --    1.98223   2.06200   2.07473   2.11913   2.21565
 Alpha virt. eigenvalues --    2.26771   2.36749   2.39354   2.44997   2.78902
 Alpha virt. eigenvalues --    2.78937   3.02088   3.02775   3.03710   3.03949
 Alpha virt. eigenvalues --    3.04708   3.04917   3.07388   3.08330   3.09673
 Alpha virt. eigenvalues --    3.10372   3.20646   3.22455   3.22930   3.24057
 Alpha virt. eigenvalues --    3.34915   3.36863   3.67928   3.68816   3.79980
 Alpha virt. eigenvalues --    3.80859   3.97048   3.99172   4.00149   4.00809
 Alpha virt. eigenvalues --    4.02176   4.02889   4.06764   4.09682   4.12555
 Alpha virt. eigenvalues --    4.24300   4.32533   4.33804   4.46907   5.21077
 Alpha virt. eigenvalues --    5.21636   5.22832   5.23059   5.25018   5.25753
 Alpha virt. eigenvalues --    5.27817   5.30514   5.37682   5.40078   5.53702
 Alpha virt. eigenvalues --    5.53941   6.56672   6.57147   6.58158   6.59030
 Alpha virt. eigenvalues --    6.61222   6.65130   8.32267   8.39697  17.48824
 Alpha virt. eigenvalues --   17.50768  17.59550  17.66437  17.70537  17.76399
 Alpha virt. eigenvalues --   35.66138  50.11451  50.11584  50.15665  50.16707
 Alpha virt. eigenvalues --   67.05832  67.07951 189.49583 189.57848
          Condensed to atoms (all electrons):
               1          2          3          4          5          6
     1  S   15.436177   0.121433   0.213725  -0.062845  -0.305352   0.081744
     2  F    0.121433   9.223921  -0.007529  -0.088348  -0.037163  -0.052706
     3  O    0.213725  -0.007529   8.768032  -0.428278  -0.222476  -0.046888
     4  O   -0.062845  -0.088348  -0.428278   8.861486  -0.094872   0.063511
     5  N   -0.305352  -0.037163  -0.222476  -0.094872   9.013962  -0.305352
     6  S    0.081744  -0.052706  -0.046888   0.063511  -0.305352  15.436177
     7  F   -0.052706   0.001561   0.035745  -0.006460  -0.037163   0.121433
     8  O    0.063511  -0.006460   0.005045  -0.001838  -0.094872  -0.062845
     9  O   -0.046888   0.035745  -0.051151   0.005045  -0.222476   0.213725
               7          8          9
     1  S   -0.052706   0.063511  -0.046888
     2  F    0.001561  -0.006460   0.035745
     3  O    0.035745   0.005045  -0.051151
     4  O   -0.006460  -0.001838   0.005045
     5  N   -0.037163  -0.094872  -0.222476
     6  S    0.121433  -0.062845   0.213725
     7  F    9.223921  -0.088348  -0.007529
     8  O   -0.088348   8.861486  -0.428278
     9  O   -0.007529  -0.428278   8.768032
 Mulliken charges:
               1
     1  S    0.551198
     2  F   -0.190454
     3  O   -0.266225
     4  O   -0.247401
     5  N   -0.694237
     6  S    0.551198
     7  F   -0.190454
     8  O   -0.247401
     9  O   -0.266225
 Sum of Mulliken charges =  -1.00000
 Mulliken charges with hydrogens summed into heavy atoms:
               1
     1  S    0.551198
     2  F   -0.190454
     3  O   -0.266225
     4  O   -0.247401
     5  N   -0.694237
     6  S    0.551198
     7  F   -0.190454
     8  O   -0.247401
     9  O   -0.266225
 Electronic spatial extent (au):  <R**2>=           1371.2522
 Charge=             -1.0000 electrons
 Dipole moment (field-independent basis, Debye):
    X=             -0.0000    Y=             -0.0000    Z=             -0.2427  Tot=              0.2427
 Quadrupole moment (field-independent basis, Debye-Ang):
   XX=            -70.2366   YY=            -87.2834   ZZ=            -75.7700
   XY=             -0.6587   XZ=              0.0000   YZ=              0.0000
 Traceless Quadrupole moment (field-independent basis, Debye-Ang):
   XX=              7.5267   YY=             -9.5201   ZZ=              1.9934
   XY=             -0.6587   XZ=              0.0000   YZ=              0.0000
 Octapole moment (field-independent basis, Debye-Ang**2):
  XXX=             -0.0000  YYY=             -0.0000  ZZZ=             -8.2076  XYY=              0.0000
  XXY=              0.0000  XXZ=              3.6800  XZZ=              0.0000  YZZ=              0.0000
  YYZ=            -16.9074  XYZ=              2.1359
 Hexadecapole moment (field-independent basis, Debye-Ang**3):
 XXXX=           -263.3095 YYYY=          -1200.9728 ZZZZ=           -284.1684 XXXY=             35.6980
 XXXZ=              0.0000 YYYX=             16.1558 YYYZ=              0.0000 ZZZX=              0.0000
 ZZZY=              0.0000 XXYY=           -234.3622 XXZZ=            -90.3033 YYZZ=           -261.9982
 XXYZ=             -0.0000 YYXZ=              0.0000 ZZXY=              0.6429
 N-N= 7.721262739791D+02 E-N=-4.766340427125D+03  KE= 1.349387093638D+03
 Symmetry A    KE= 6.966394845497D+02
 Symmetry B    KE= 6.527476090878D+02
 No NMR shielding tensors so no spin-rotation constants.
 Leave Link  601 at Sat Sep 14 17:51:17 2024, MaxMem=  4294967296 cpu:              79.0 elap:               4.5
 (Enter /home/appl/Gaussian/g16/l9999.exe)
 Unable to Open any file for archive entry.
 1\1\GINC-VODKA06\FOpt\RwB97XD\6-311++G(d,p)\F2N1O4S2(1-)\SASAKIRAK\14-
 Sep-2024\0\\#P wb97xd/6-311++g(d,p) opt(maxcycle=256)\\Gaussian input 
 prepared by ASE\\-1,1\S,7.0342172338,11.1118451225,4.8873660564\F,7.59
 71286998,11.2715092101,6.4212479417\O,7.8933636158,11.9748890899,4.117
 0627623\O,7.0680802044,9.6916708078,4.6628792786\N,5.5197824164,11.566
 7824164,5.0269\S,5.0648451225,13.0812172338,5.1664339436\F,5.224509210
 1,13.6441286998,3.6325520583\O,3.6446708078,13.1150802044,5.3909207214
 \O,5.9278890899,13.9403636158,5.9367372377\\Version=ES64L-G16RevC.01\S
 tate=1-A\HF=-1351.694949\RMSD=6.421e-09\RMSF=4.578e-05\Dipole=0.067513
 6,0.0675136,0.\Quadrupole=-2.6863931,-2.6863931,5.3727862,4.1684087,1.
 2284485,-1.2284485\PG=C02 [C2(N1),X(F2O4S2)]\\@
 The archive entry for this job was punched.


 WHEN A MATHEMATICIAN ENGAGED IN INVESTIGATING
 PHYSICAL ACTIONS AND RESULTS HAS ARRIVED AT HIS
 CONCLUSIONS, MAY THEY NOT BE EXPRESSED IN COMMON
 LANGUAGE AS FULLY, CLEARLY, AND DEFINITELY AS IN
 MATHEMATICAL FORMULAE?
           - LETTER FROM M. FARADAY TO J.C. MAXWELL, 1857.
 Job cpu time:       0 days  9 hours 48 minutes  6.9 seconds.
 Elapsed time:       0 days  0 hours 33 minutes 56.8 seconds.
 File lengths (MBytes):  RWF=     23 Int=      0 D2E=      0 Chk=      4 Scr=      1
 Normal termination of Gaussian 16 at Sat Sep 14 17:51:18 2024.
