9

S       0.981297000000000      7.036295000000000      5.178712000000000
F       0.815605000000000      7.588563000000000      3.641031000000000
O       0.127982000000000      7.906477000000000      5.947399000000000
O       2.402913000000000      7.063371000000000      5.394282000000000
N       0.516821000000000      5.523433000000000      5.053094000000000
S      -1.001281000000000      5.076119000000000      4.928570000000000
F      -1.551325000000000      5.250644000000000      6.466120000000000
O      -1.044675000000000      3.654554000000000      4.715495000000000
O      -1.861714000000000      5.937920000000000      4.158687000000000
