9

S       6.945584200000000     11.132527000000000      4.906254400000000
F       7.449903999999999     11.342962600000000      6.409297500000000
O       7.776441999999999     12.045624000000000      4.267838100000001
O       7.030242200000000      9.913451800000001      4.554371399999999
N       5.525748600000001     11.572748600000001      5.026900000000000
S       5.085527000000001     12.992584200000000      5.147545600000002
F       5.295962600000001     13.496904000000001      3.644502499999999
O       3.866451800000000     13.077242200000001      5.499428600000000
O       5.998624000000001     13.823442000000000      5.785961900000000
