 Entering Gaussian System, Link 0=g16
 Input=/Users/srak/Desktop/imolcraft/vsite_positiondiff/distance_scan/cn__Li_dist_0__1.60.gjf
 Output=/Users/srak/Desktop/imolcraft/vsite_positiondiff/distance_scan/cn__Li_dist_0__1.60.log
 Initial command:
 /Applications/g16/l1.exe "/Users/srak/g16_scratch/Gau-74172.inp" -scrdir="/Users/srak/g16_scratch/"
 Entering Link 1 = /Applications/g16/l1.exe PID=     74174.
  
 Copyright (c) 1988-2021, Gaussian, Inc.  All Rights Reserved.
  
 This is part of the Gaussian(R) 16 program.  It is based on
 the Gaussian(R) 09 system (copyright 2009, Gaussian, Inc.),
 the Gaussian(R) 03 system (copyright 2003, Gaussian, Inc.),
 the Gaussian(R) 98 system (copyright 1998, Gaussian, Inc.),
 the Gaussian(R) 94 system (copyright 1995, Gaussian, Inc.),
 the Gaussian 92(TM) system (copyright 1992, Gaussian, Inc.),
 the Gaussian 90(TM) system (copyright 1990, Gaussian, Inc.),
 the Gaussian 88(TM) system (copyright 1988, Gaussian, Inc.),
 the Gaussian 86(TM) system (copyright 1986, Carnegie Mellon
 University), and the Gaussian 82(TM) system (copyright 1983,
 Carnegie Mellon University). Gaussian is a federally registered
 trademark of Gaussian, Inc.
  
 This software contains proprietary and confidential information,
 including trade secrets, belonging to Gaussian, Inc.
  
 This software is provided under written license and may be
 used, copied, transmitted, or stored only in accord with that
 written license.
  
 The following legend is applicable only to US Government
 contracts under FAR:
  
                    RESTRICTED RIGHTS LEGEND
  
 Use, reproduction and disclosure by the US Government is
 subject to restrictions as set forth in subparagraphs (a)
 and (c) of the Commercial Computer Software - Restricted
 Rights clause in FAR 52.227-19.
  
 Gaussian, Inc.
 340 Quinnipiac St., Bldg. 40, Wallingford CT 06492
  
  
 ---------------------------------------------------------------
 Warning -- This program may not be used in any manner that
 competes with the business of Gaussian, Inc. or will provide
 assistance to any competitor of Gaussian, Inc.  The licensee
 of this program is prohibited from giving any competitor of
 Gaussian, Inc. access to this program.  By using this program,
 the user acknowledges that Gaussian, Inc. is engaged in the
 business of creating and licensing software in the field of
 computational chemistry and represents and warrants to the
 licensee that it is not a competitor of Gaussian, Inc. and that
 it will not use this program in any manner prohibited above.
 ---------------------------------------------------------------
  

 Cite this work as:
 Gaussian 16, Revision C.02,
 M. J. Frisch, G. W. Trucks, H. B. Schlegel, G. E. Scuseria, 
 M. A. Robb, J. R. Cheeseman, G. Scalmani, V. Barone, 
 G. A. Petersson, H. Nakatsuji, X. Li, M. Caricato, A. V. Marenich, 
 J. Bloino, B. G. Janesko, R. Gomperts, B. Mennucci, H. P. Hratchian, 
 J. V. Ortiz, A. F. Izmaylov, J. L. Sonnenberg, D. Williams-Young, 
 F. Ding, F. Lipparini, F. Egidi, J. Goings, B. Peng, A. Petrone, 
 T. Henderson, D. Ranasinghe, V. G. Zakrzewski, J. Gao, N. Rega, 
 G. Zheng, W. Liang, M. Hada, M. Ehara, K. Toyota, R. Fukuda, 
 J. Hasegawa, M. Ishida, T. Nakajima, Y. Honda, O. Kitao, H. Nakai, 
 T. Vreven, K. Throssell, J. A. Montgomery, Jr., J. E. Peralta, 
 F. Ogliaro, M. J. Bearpark, J. J. Heyd, E. N. Brothers, K. N. Kudin, 
 V. N. Staroverov, T. A. Keith, R. Kobayashi, J. Normand, 
 K. Raghavachari, A. P. Rendell, J. C. Burant, S. S. Iyengar, 
 J. Tomasi, M. Cossi, J. M. Millam, M. Klene, C. Adamo, R. Cammi, 
 J. W. Ochterski, R. L. Martin, K. Morokuma, O. Farkas, 
 J. B. Foresman, and D. J. Fox, Gaussian, Inc., Wallingford CT, 2019.
 
 *********************************************
 Gaussian 16:  Apple M1-G16RevC.02  7-Dec-2021
                   7-Aug-2025 
 *********************************************
 -----------------------------------
 #p opt=modredundant wb97xd/6-31g(d)
 -----------------------------------
 1/18=120,19=15,26=3,38=1/1,3;
 2/9=110,12=2,17=6,18=5,40=1/2;
 3/5=1,6=6,7=1,11=2,25=1,30=1,71=1,74=-58/1,2,3;
 4//1;
 5/5=2,38=5/2;
 6/7=2,8=2,9=2,10=2,28=1/1;
 7//1,2,3,16;
 1/18=20,19=15,26=3/3(2);
 2/9=110/2;
 99//99;
 2/9=110/2;
 3/5=1,6=6,7=1,11=2,25=1,30=1,71=1,74=-58/1,2,3;
 4/5=5,16=3,69=1/1;
 5/5=2,38=5/2;
 7//1,2,3,16;
 1/18=20,19=15,26=3/3(-5);
 2/9=110/2;
 6/7=2,8=2,9=2,10=2,19=2,28=1/1;
 99/9=1/99;
 Leave Link    1 at Thu Aug  7 18:40:31 2025, MaxMem=           0 cpu:               0.0 elap:               0.0
 (Enter /Applications/g16/l101.exe)
 ------------------------------
 Gaussian input prepared by ASE
 ------------------------------
 Symbolic Z-matrix:
 Charge =  1 Multiplicity = 1
 N                    -2.96698   0.26569  -0.00078 
 C                    -1.888    -0.14892   0.00022 
 C                    -0.50753  -0.63119   0.00015 
 C                     0.45556   0.58246   0.00018 
 C                     1.85311   0.17      0.00016 
 N                     2.96125  -0.16308   0.00026 
 H                     0.29304   1.20958  -0.88379 
 H                     0.29305   1.20951   0.88419 
 H                    -0.34464  -1.25271  -0.88545 
 H                    -0.34463  -1.25277   0.8857 
 Li                    4.51013  -0.56428  -0.00026 
 
 The following ModRedundant input section has been read:
 B       6      11 F                                                           
 
 ITRead=  0  0  0  0  0  0  0  0  0  0  0
 MicOpt= -1 -1 -1 -1 -1 -1 -1 -1 -1 -1 -1
 NAtoms=     11 NQM=       11 NQMF=       0 NMMI=      0 NMMIF=      0
                NMic=       0 NMicF=      0.
                    Isotopes and Nuclear Properties:
 (Nuclear quadrupole moments (NQMom) in fm**2, nuclear magnetic moments (NMagM)
  in nuclear magnetons)

  Atom         1           2           3           4           5           6           7           8           9          10
 IAtWgt=          14          12          12          12          12          14           1           1           1           1
 AtmWgt=  14.0030740  12.0000000  12.0000000  12.0000000  12.0000000  14.0030740   1.0078250   1.0078250   1.0078250   1.0078250
 NucSpn=           2           0           0           0           0           2           1           1           1           1
 AtZEff=  -0.0000000  -0.0000000  -0.0000000  -0.0000000  -0.0000000  -0.0000000  -0.0000000  -0.0000000  -0.0000000  -0.0000000
 NQMom=    2.0440000   0.0000000   0.0000000   0.0000000   0.0000000   2.0440000   0.0000000   0.0000000   0.0000000   0.0000000
 NMagM=    0.4037610   0.0000000   0.0000000   0.0000000   0.0000000   0.4037610   2.7928460   2.7928460   2.7928460   2.7928460
 AtZNuc=   7.0000000   6.0000000   6.0000000   6.0000000   6.0000000   7.0000000   1.0000000   1.0000000   1.0000000   1.0000000

  Atom        11
 IAtWgt=           7
 AtmWgt=   7.0160045
 NucSpn=           3
 AtZEff=  -0.0000000
 NQMom=   -4.0100000
 NMagM=    3.2564240
 AtZNuc=   3.0000000
 Leave Link  101 at Thu Aug  7 18:40:31 2025, MaxMem=   104857600 cpu:               0.0 elap:               0.1
 (Enter /Applications/g16/l103.exe)

 GradGradGradGradGradGradGradGradGradGradGradGradGradGradGradGradGradGrad
 Berny optimization.
 Initialization pass.
                           ----------------------------
                           !    Initial Parameters    !
                           ! (Angstroms and Degrees)  !
 --------------------------                            --------------------------
 ! Name  Definition              Value          Derivative Info.                !
 --------------------------------------------------------------------------------
 ! R1    R(1,2)                  1.1559         estimate D2E/DX2                !
 ! R2    R(2,3)                  1.4623         estimate D2E/DX2                !
 ! R3    R(3,4)                  1.5494         estimate D2E/DX2                !
 ! R4    R(3,9)                  1.0941         estimate D2E/DX2                !
 ! R5    R(3,10)                 1.0941         estimate D2E/DX2                !
 ! R6    R(4,5)                  1.4571         estimate D2E/DX2                !
 ! R7    R(4,7)                  1.0959         estimate D2E/DX2                !
 ! R8    R(4,8)                  1.0959         estimate D2E/DX2                !
 ! R9    R(5,6)                  1.1571         estimate D2E/DX2                !
 ! R10   R(6,11)                 1.6            Frozen                          !
 ! A1    A(2,3,4)              109.1766         estimate D2E/DX2                !
 ! A2    A(2,3,9)              109.1434         estimate D2E/DX2                !
 ! A3    A(2,3,10)             109.1407         estimate D2E/DX2                !
 ! A4    A(4,3,9)              110.6369         estimate D2E/DX2                !
 ! A5    A(4,3,10)             110.637          estimate D2E/DX2                !
 ! A6    A(9,3,10)             108.0735         estimate D2E/DX2                !
 ! A7    A(3,4,5)              111.9904         estimate D2E/DX2                !
 ! A8    A(3,4,7)              110.8567         estimate D2E/DX2                !
 ! A9    A(3,4,8)              110.8564         estimate D2E/DX2                !
 ! A10   A(5,4,7)              107.7096         estimate D2E/DX2                !
 ! A11   A(5,4,8)              107.7097         estimate D2E/DX2                !
 ! A12   A(7,4,8)              107.5311         estimate D2E/DX2                !
 ! A13   L(1,2,3,8,-1)         178.4049         estimate D2E/DX2                !
 ! A14   L(4,5,6,9,-1)         179.7411         estimate D2E/DX2                !
 ! A15   L(5,6,11,9,-1)        181.998          estimate D2E/DX2                !
 ! A16   L(1,2,3,8,-2)         180.9251         estimate D2E/DX2                !
 ! A17   L(4,5,6,9,-2)         180.1542         estimate D2E/DX2                !
 ! A18   L(5,6,11,9,-2)        178.4187         estimate D2E/DX2                !
 ! D1    D(2,3,4,5)            179.9982         estimate D2E/DX2                !
 ! D2    D(2,3,4,7)            -59.6756         estimate D2E/DX2                !
 ! D3    D(2,3,4,8)             59.6719         estimate D2E/DX2                !
 ! D4    D(9,3,4,5)            -59.8705         estimate D2E/DX2                !
 ! D5    D(9,3,4,7)             60.4557         estimate D2E/DX2                !
 ! D6    D(9,3,4,8)            179.8032         estimate D2E/DX2                !
 ! D7    D(10,3,4,5)            59.8702         estimate D2E/DX2                !
 ! D8    D(10,3,4,7)          -179.8035         estimate D2E/DX2                !
 ! D9    D(10,3,4,8)           -60.456          estimate D2E/DX2                !
 --------------------------------------------------------------------------------
 Trust Radius=3.00D-01 FncErr=1.00D-07 GrdErr=1.00D-06 EigMax=2.50D+02 EigMin=1.00D-04
 Number of steps in this run=     47 maximum allowed number of steps=    100.
 GradGradGradGradGradGradGradGradGradGradGradGradGradGradGradGradGradGrad

 Leave Link  103 at Thu Aug  7 18:40:31 2025, MaxMem=   104857600 cpu:               0.0 elap:               0.0
 (Enter /Applications/g16/l202.exe)
                          Input orientation:                          
 ---------------------------------------------------------------------
 Center     Atomic      Atomic             Coordinates (Angstroms)
 Number     Number       Type             X           Y           Z
 ---------------------------------------------------------------------
      1          7           0       -2.966979    0.265693   -0.000779
      2          6           0       -1.888000   -0.148920    0.000221
      3          6           0       -0.507531   -0.631193    0.000150
      4          6           0        0.455564    0.582463    0.000182
      5          6           0        1.853112    0.169995    0.000157
      6          7           0        2.961246   -0.163077    0.000256
      7          1           0        0.293039    1.209576   -0.883786
      8          1           0        0.293050    1.209514    0.884195
      9          1           0       -0.344642   -1.252713   -0.885452
     10          1           0       -0.344625   -1.252774    0.885703
     11          3           0        4.510129   -0.564276   -0.000258
 ---------------------------------------------------------------------
                    Distance matrix (angstroms):
                    1          2          3          4          5
     1  N    0.000000
     2  C    1.155898   0.000000
     3  C    2.617879   1.462287   0.000000
     4  C    3.437171   2.455038   1.549359   0.000000
     5  C    4.821041   3.754681   2.492897   1.457145   0.000000
     6  N    5.943711   4.849267   3.500221   2.614244   1.157108
     7  H    3.506898   2.717335   2.193328   1.095940   2.072658
     8  H    3.507387   2.717302   2.193323   1.095939   2.072659
     9  H    3.156716   2.093975   1.094126   2.189189   2.763788
    10  H    3.157267   2.093938   1.094123   2.189188   2.763786
    11  Li   7.523031   6.411597   5.018106   4.213610   2.756609
                    6          7          8          9         10
     6  N    0.000000
     7  H    3.128104   0.000000
     8  H    3.128038   1.767981   0.000000
     9  H    3.591752   2.543523   3.098526   0.000000
    10  H    3.591690   3.098528   2.543520   1.771155   0.000000
    11  Li   1.600000   4.659509   4.659651   4.982602   4.982730
                   11
    11  Li   0.000000
 Stoichiometry    C4H4LiN2(1+)
 Framework group  C1[X(C4H4LiN2)]
 Deg. of freedom    27
 Full point group                 C1      NOp   1
 Largest Abelian subgroup         C1      NOp   1
 Largest concise Abelian subgroup C1      NOp   1
                         Standard orientation:                         
 ---------------------------------------------------------------------
 Center     Atomic      Atomic             Coordinates (Angstroms)
 Number     Number       Type             X           Y           Z
 ---------------------------------------------------------------------
      1          7           0        3.261187   -0.178236   -0.000790
      2          6           0        2.168278    0.198128    0.000210
      3          6           0        0.771684    0.631493    0.000139
      4          6           0       -0.148080   -0.615322    0.000171
      5          6           0       -1.559284   -0.252319    0.000146
      6          7           0       -2.678459    0.041528    0.000245
      7          1           0        0.036426   -1.236323   -0.883797
      8          1           0        0.036413   -1.236262    0.884184
      9          1           0        0.587011    1.246892   -0.885463
     10          1           0        0.586992    1.246953    0.885692
     11          3           0       -4.240509    0.387939   -0.000269
 ---------------------------------------------------------------------
 Rotational constants (GHZ):          23.5743684           1.0705558           1.0373186
 Leave Link  202 at Thu Aug  7 18:40:31 2025, MaxMem=   104857600 cpu:               0.0 elap:               0.0
 (Enter /Applications/g16/l301.exe)
 Standard basis: 6-31G(d) (6D, 7F)
 Ernie: Thresh=  0.10000D-02 Tol=  0.10000D-05 Strict=F.
 There are   113 symmetry adapted cartesian basis functions of A   symmetry.
 There are   113 symmetry adapted basis functions of A   symmetry.
   113 basis functions,   212 primitive gaussians,   113 cartesian basis functions
    22 alpha electrons       22 beta electrons
       nuclear repulsion energy       197.8832580724 Hartrees.
 IExCor= 4639 DFT=T Ex+Corr=wB97XD ExCW=0 ScaHFX=  1.000000
 ScaDFX=  1.000000  1.000000  1.000000  1.000000 ScalE2=  1.000000  1.000000
 IRadAn=      5 IRanWt=     -1 IRanGd=            0 ICorTp=0 IEmpDi=121
 HFx  wShort=  0.000000 wLong=  0.200000 cFull=  0.222036 cShort=  0.000000 cLong=  0.777964
 DFx  wShort=  0.000000 wLong=  0.200000 cFull=  0.000000 cShort=  0.000000 cLong=  1.000000
 NAtoms=   11 NActive=   11 NUniq=   11 SFac= 1.00D+00 NAtFMM=   60 NAOKFM=F Big=F
 Integral buffers will be    131072 words long.
 Raffenetti 2 integral format.
 Two-electron integral symmetry is turned on.
 R6Disp:  Grimme-D2 Dispersion energy=       -0.0048306771 Hartrees.
 Nuclear repulsion after empirical dispersion term =      197.8784273952 Hartrees.
 Leave Link  301 at Thu Aug  7 18:40:31 2025, MaxMem=   104857600 cpu:               0.0 elap:               0.0
 (Enter /Applications/g16/l302.exe)
 NPDir=0 NMtPBC=     1 NCelOv=     1 NCel=       1 NClECP=     1 NCelD=      1
         NCelK=      1 NCelE2=     1 NClLst=     1 CellRange=     0.0.
 One-electron integrals computed using PRISM.
 One-electron integral symmetry used in STVInt
 NBasis=   113 RedAO= T EigKep=  8.19D-04  NBF=   113
 NBsUse=   113 1.00D-06 EigRej= -1.00D+00 NBFU=   113
 Precomputing XC quadrature grid using
 IXCGrd= 4 IRadAn=           5 IRanWt=          -1 IRanGd=           0 AccXCQ= 0.00D+00.
 Generated NRdTot=       0 NPtTot=           0 NUsed=           0 NTot=          32
 NSgBfM=   113   113   113   113   113 MxSgAt=    11 MxSgA2=    11.
 Leave Link  302 at Thu Aug  7 18:40:31 2025, MaxMem=   104857600 cpu:               0.1 elap:               0.1
 (Enter /Applications/g16/l303.exe)
 DipDrv:  MaxL=1.
 Leave Link  303 at Thu Aug  7 18:40:31 2025, MaxMem=   104857600 cpu:               0.0 elap:               0.0
 (Enter /Applications/g16/l401.exe)
 ExpMin= 3.60D-02 ExpMax= 4.17D+03 ExpMxC= 6.27D+02 IAcc=3 IRadAn=         5 AccDes= 0.00D+00
 Harris functional with IExCor= 4639 and IRadAn=       5 diagonalized for initial guess.
 HarFok:  IExCor= 4639 AccDes= 0.00D+00 IRadAn=         5 IDoV= 1 UseB2=F ITyADJ=14
 ICtDFT=  3500011 ScaDFX=  1.000000  1.000000  1.000000  1.000000
 FoFCou: FMM=F IPFlag=           0 FMFlag=      100000 FMFlg1=           0
         NFxFlg=           0 DoJE=T BraDBF=F KetDBF=T FulRan=T
         wScrn=  0.000000 ICntrl=       500 IOpCl=  0 I1Cent=   200000004 NGrid=           0
         NMat0=    1 NMatS0=      1 NMatT0=    0 NMatD0=    1 NMtDS0=    0 NMtDT0=    0
 Petite list used in FoFCou.
 Harris En= -259.783320249058    
 JPrj=0 DoOrth=F DoCkMO=F.
 Leave Link  401 at Thu Aug  7 18:40:31 2025, MaxMem=   104857600 cpu:               0.6 elap:               0.6
 (Enter /Applications/g16/l502.exe)
 Keep R1 ints in memory in canonical form, NReq=43174005.
 FoFCou: FMM=F IPFlag=           0 FMFlag=           0 FMFlg1=           0
         NFxFlg=           0 DoJE=F BraDBF=F KetDBF=F FulRan=T
         wScrn=  0.000000 ICntrl=       600 IOpCl=  0 I1Cent=           0 NGrid=           0
         NMat0=    1 NMatS0=   6441 NMatT0=    0 NMatD0=    1 NMtDS0=    0 NMtDT0=    0
 Symmetry not used in FoFCou.
 Two-electron integral symmetry not used.
 Closed shell SCF:
 Using DIIS extrapolation, IDIIS=  1040.
 NGot=   104857600 LenX=    63336875 LenY=    63323665
 Requested convergence on RMS density matrix=1.00D-08 within 128 cycles.
 Requested convergence on MAX density matrix=1.00D-06.
 Requested convergence on             energy=1.00D-06.
 No special actions if energy rises.

 Cycle   1  Pass 1  IDiag  1:
 E= -271.459239886095    
 DIIS: error= 5.97D-02 at cycle   1 NSaved=   1.
 NSaved= 1 IEnMin= 1 EnMin= -271.459239886095     IErMin= 1 ErrMin= 5.97D-02
 ErrMax= 5.97D-02  0.00D+00 EMaxC= 1.00D-01 BMatC= 2.55D-01 BMatP= 2.55D-01
 IDIUse=3 WtCom= 4.03D-01 WtEn= 5.97D-01
 Coeff-Com:  0.100D+01
 Coeff-En:   0.100D+01
 Coeff:      0.100D+01
 Gap=     0.411 Goal=   None    Shift=    0.000
 GapD=    0.411 DampG=2.000 DampE=0.500 DampFc=1.0000 IDamp=-1.
 RMSDP=5.95D-03 MaxDP=1.04D-01              OVMax= 9.82D-02

 Cycle   2  Pass 1  IDiag  1:
 E= -271.486282993060     Delta-E=       -0.027043106965 Rises=F Damp=F
 DIIS: error= 2.25D-02 at cycle   2 NSaved=   2.
 NSaved= 2 IEnMin= 2 EnMin= -271.486282993060     IErMin= 2 ErrMin= 2.25D-02
 ErrMax= 2.25D-02  0.00D+00 EMaxC= 1.00D-01 BMatC= 6.06D-02 BMatP= 2.55D-01
 IDIUse=3 WtCom= 7.75D-01 WtEn= 2.25D-01
 Coeff-Com:  0.256D+00 0.744D+00
 Coeff-En:   0.336D+00 0.664D+00
 Coeff:      0.274D+00 0.726D+00
 Gap=     0.399 Goal=   None    Shift=    0.000
 RMSDP=2.76D-03 MaxDP=7.53D-02 DE=-2.70D-02 OVMax= 1.06D-01

 Cycle   3  Pass 1  IDiag  1:
 E= -271.497520094378     Delta-E=       -0.011237101318 Rises=F Damp=F
 DIIS: error= 1.89D-02 at cycle   3 NSaved=   3.
 NSaved= 3 IEnMin= 3 EnMin= -271.497520094378     IErMin= 3 ErrMin= 1.89D-02
 ErrMax= 1.89D-02  0.00D+00 EMaxC= 1.00D-01 BMatC= 4.75D-02 BMatP= 6.06D-02
 IDIUse=3 WtCom= 8.11D-01 WtEn= 1.89D-01
 Coeff-Com:  0.260D-01 0.465D+00 0.509D+00
 Coeff-En:   0.000D+00 0.448D+00 0.552D+00
 Coeff:      0.211D-01 0.462D+00 0.517D+00
 Gap=     0.396 Goal=   None    Shift=    0.000
 RMSDP=1.33D-03 MaxDP=4.13D-02 DE=-1.12D-02 OVMax= 5.68D-02

 Cycle   4  Pass 1  IDiag  1:
 E= -271.536545202594     Delta-E=       -0.039025108216 Rises=F Damp=F
 DIIS: error= 1.25D-03 at cycle   4 NSaved=   4.
 NSaved= 4 IEnMin= 4 EnMin= -271.536545202594     IErMin= 4 ErrMin= 1.25D-03
 ErrMax= 1.25D-03  0.00D+00 EMaxC= 1.00D-01 BMatC= 3.29D-04 BMatP= 4.75D-02
 IDIUse=3 WtCom= 9.88D-01 WtEn= 1.25D-02
 Coeff-Com:  0.685D-03 0.136D+00 0.175D+00 0.688D+00
 Coeff-En:   0.000D+00 0.000D+00 0.000D+00 0.100D+01
 Coeff:      0.677D-03 0.134D+00 0.173D+00 0.692D+00
 Gap=     0.400 Goal=   None    Shift=    0.000
 RMSDP=2.34D-04 MaxDP=7.68D-03 DE=-3.90D-02 OVMax= 5.06D-03

 Cycle   5  Pass 1  IDiag  1:
 E= -271.536799425722     Delta-E=       -0.000254223128 Rises=F Damp=F
 DIIS: error= 6.79D-04 at cycle   5 NSaved=   5.
 NSaved= 5 IEnMin= 5 EnMin= -271.536799425722     IErMin= 5 ErrMin= 6.79D-04
 ErrMax= 6.79D-04  0.00D+00 EMaxC= 1.00D-01 BMatC= 5.56D-05 BMatP= 3.29D-04
 IDIUse=3 WtCom= 9.93D-01 WtEn= 6.79D-03
 Coeff-Com: -0.701D-03 0.412D-01 0.580D-01 0.345D+00 0.556D+00
 Coeff-En:   0.000D+00 0.000D+00 0.000D+00 0.000D+00 0.100D+01
 Coeff:     -0.696D-03 0.409D-01 0.576D-01 0.343D+00 0.559D+00
 Gap=     0.398 Goal=   None    Shift=    0.000
 RMSDP=6.35D-05 MaxDP=1.68D-03 DE=-2.54D-04 OVMax= 2.96D-03

 Cycle   6  Pass 1  IDiag  1:
 E= -271.536841544253     Delta-E=       -0.000042118531 Rises=F Damp=F
 DIIS: error= 2.77D-04 at cycle   6 NSaved=   6.
 NSaved= 6 IEnMin= 6 EnMin= -271.536841544253     IErMin= 6 ErrMin= 2.77D-04
 ErrMax= 2.77D-04  0.00D+00 EMaxC= 1.00D-01 BMatC= 8.26D-06 BMatP= 5.56D-05
 IDIUse=3 WtCom= 9.97D-01 WtEn= 2.77D-03
 Coeff-Com: -0.478D-03-0.816D-02-0.719D-02 0.348D-01 0.294D+00 0.687D+00
 Coeff-En:   0.000D+00 0.000D+00 0.000D+00 0.000D+00 0.815D-01 0.918D+00
 Coeff:     -0.477D-03-0.814D-02-0.717D-02 0.347D-01 0.293D+00 0.688D+00
 Gap=     0.399 Goal=   None    Shift=    0.000
 RMSDP=4.26D-05 MaxDP=1.79D-03 DE=-4.21D-05 OVMax= 8.11D-04

 Cycle   7  Pass 1  IDiag  1:
 E= -271.536848807253     Delta-E=       -0.000007263000 Rises=F Damp=F
 DIIS: error= 4.19D-05 at cycle   7 NSaved=   7.
 NSaved= 7 IEnMin= 7 EnMin= -271.536848807253     IErMin= 7 ErrMin= 4.19D-05
 ErrMax= 4.19D-05  0.00D+00 EMaxC= 1.00D-01 BMatC= 1.87D-07 BMatP= 8.26D-06
 IDIUse=1 WtCom= 1.00D+00 WtEn= 0.00D+00
 Coeff-Com: -0.177D-04-0.533D-02-0.598D-02-0.167D-01 0.374D-01 0.173D+00
 Coeff-Com:  0.817D+00
 Coeff:     -0.177D-04-0.533D-02-0.598D-02-0.167D-01 0.374D-01 0.173D+00
 Coeff:      0.817D+00
 Gap=     0.399 Goal=   None    Shift=    0.000
 RMSDP=9.20D-06 MaxDP=3.57D-04 DE=-7.26D-06 OVMax= 1.34D-04

 Cycle   8  Pass 1  IDiag  1:
 E= -271.536849037226     Delta-E=       -0.000000229973 Rises=F Damp=F
 DIIS: error= 9.81D-06 at cycle   8 NSaved=   8.
 NSaved= 8 IEnMin= 8 EnMin= -271.536849037226     IErMin= 8 ErrMin= 9.81D-06
 ErrMax= 9.81D-06  0.00D+00 EMaxC= 1.00D-01 BMatC= 1.41D-08 BMatP= 1.87D-07
 IDIUse=1 WtCom= 1.00D+00 WtEn= 0.00D+00
 Coeff-Com:  0.390D-05-0.809D-03-0.101D-02-0.718D-02-0.135D-01-0.770D-02
 Coeff-Com:  0.214D+00 0.816D+00
 Coeff:      0.390D-05-0.809D-03-0.101D-02-0.718D-02-0.135D-01-0.770D-02
 Coeff:      0.214D+00 0.816D+00
 Gap=     0.399 Goal=   None    Shift=    0.000
 RMSDP=2.64D-06 MaxDP=1.04D-04 DE=-2.30D-07 OVMax= 3.95D-05

 Cycle   9  Pass 1  IDiag  1:
 E= -271.536849056605     Delta-E=       -0.000000019379 Rises=F Damp=F
 DIIS: error= 2.00D-06 at cycle   9 NSaved=   9.
 NSaved= 9 IEnMin= 9 EnMin= -271.536849056605     IErMin= 9 ErrMin= 2.00D-06
 ErrMax= 2.00D-06  0.00D+00 EMaxC= 1.00D-01 BMatC= 5.03D-10 BMatP= 1.41D-08
 IDIUse=1 WtCom= 1.00D+00 WtEn= 0.00D+00
 Coeff-Com:  0.114D-05 0.200D-03 0.213D-03-0.293D-04-0.387D-02-0.987D-02
 Coeff-Com: -0.243D-01 0.772D-01 0.960D+00
 Coeff:      0.114D-05 0.200D-03 0.213D-03-0.293D-04-0.387D-02-0.987D-02
 Coeff:     -0.243D-01 0.772D-01 0.960D+00
 Gap=     0.399 Goal=   None    Shift=    0.000
 RMSDP=5.59D-07 MaxDP=1.45D-05 DE=-1.94D-08 OVMax= 1.36D-05

 Cycle  10  Pass 1  IDiag  1:
 E= -271.536849057744     Delta-E=       -0.000000001139 Rises=F Damp=F
 DIIS: error= 8.23D-07 at cycle  10 NSaved=  10.
 NSaved=10 IEnMin=10 EnMin= -271.536849057744     IErMin=10 ErrMin= 8.23D-07
 ErrMax= 8.23D-07  0.00D+00 EMaxC= 1.00D-01 BMatC= 5.40D-11 BMatP= 5.03D-10
 IDIUse=1 WtCom= 1.00D+00 WtEn= 0.00D+00
 Coeff-Com:  0.123D-05 0.103D-03 0.118D-03 0.458D-03-0.466D-04-0.159D-02
 Coeff-Com: -0.180D-01-0.345D-01 0.184D+00 0.869D+00
 Coeff:      0.123D-05 0.103D-03 0.118D-03 0.458D-03-0.466D-04-0.159D-02
 Coeff:     -0.180D-01-0.345D-01 0.184D+00 0.869D+00
 Gap=     0.399 Goal=   None    Shift=    0.000
 RMSDP=1.47D-07 MaxDP=2.99D-06 DE=-1.14D-09 OVMax= 5.63D-06

 Cycle  11  Pass 1  IDiag  1:
 E= -271.536849057869     Delta-E=       -0.000000000125 Rises=F Damp=F
 DIIS: error= 2.47D-07 at cycle  11 NSaved=  11.
 NSaved=11 IEnMin=11 EnMin= -271.536849057869     IErMin=11 ErrMin= 2.47D-07
 ErrMax= 2.47D-07  0.00D+00 EMaxC= 1.00D-01 BMatC= 4.54D-12 BMatP= 5.40D-11
 IDIUse=1 WtCom= 1.00D+00 WtEn= 0.00D+00
 Coeff-Com: -0.679D-07-0.162D-04-0.162D-04 0.915D-06 0.267D-03 0.787D-03
 Coeff-Com:  0.250D-02-0.454D-02-0.959D-01-0.108D-01 0.111D+01
 Coeff:     -0.679D-07-0.162D-04-0.162D-04 0.915D-06 0.267D-03 0.787D-03
 Coeff:      0.250D-02-0.454D-02-0.959D-01-0.108D-01 0.111D+01
 Gap=     0.399 Goal=   None    Shift=    0.000
 RMSDP=5.55D-08 MaxDP=1.51D-06 DE=-1.25D-10 OVMax= 2.86D-06

 Cycle  12  Pass 1  IDiag  1:
 E= -271.536849057887     Delta-E=       -0.000000000018 Rises=F Damp=F
 DIIS: error= 8.88D-08 at cycle  12 NSaved=  12.
 NSaved=12 IEnMin=12 EnMin= -271.536849057887     IErMin=12 ErrMin= 8.88D-08
 ErrMax= 8.88D-08  0.00D+00 EMaxC= 1.00D-01 BMatC= 2.81D-13 BMatP= 4.54D-12
 IDIUse=1 WtCom= 1.00D+00 WtEn= 0.00D+00
 Coeff-Com: -0.114D-06-0.489D-05-0.526D-05-0.270D-04-0.159D-04 0.146D-04
 Coeff-Com:  0.630D-03 0.250D-02 0.231D-02-0.627D-01-0.193D+00 0.125D+01
 Coeff:     -0.114D-06-0.489D-05-0.526D-05-0.270D-04-0.159D-04 0.146D-04
 Coeff:      0.630D-03 0.250D-02 0.231D-02-0.627D-01-0.193D+00 0.125D+01
 Gap=     0.399 Goal=   None    Shift=    0.000
 RMSDP=1.67D-08 MaxDP=4.74D-07 DE=-1.81D-11 OVMax= 9.94D-07

 Cycle  13  Pass 1  IDiag  1:
 E= -271.536849057890     Delta-E=       -0.000000000003 Rises=F Damp=F
 DIIS: error= 1.01D-08 at cycle  13 NSaved=  13.
 NSaved=13 IEnMin=13 EnMin= -271.536849057890     IErMin=13 ErrMin= 1.01D-08
 ErrMax= 1.01D-08  0.00D+00 EMaxC= 1.00D-01 BMatC= 1.44D-14 BMatP= 2.81D-13
 IDIUse=1 WtCom= 1.00D+00 WtEn= 0.00D+00
 Coeff-Com: -0.193D-07-0.199D-06-0.475D-06-0.237D-05-0.305D-05-0.158D-04
 Coeff-Com: -0.154D-04 0.321D-03 0.339D-02-0.347D-02-0.492D-01 0.733D-01
 Coeff-Com:  0.976D+00
 Coeff:     -0.193D-07-0.199D-06-0.475D-06-0.237D-05-0.305D-05-0.158D-04
 Coeff:     -0.154D-04 0.321D-03 0.339D-02-0.347D-02-0.492D-01 0.733D-01
 Coeff:      0.976D+00
 Gap=     0.399 Goal=   None    Shift=    0.000
 RMSDP=2.59D-09 MaxDP=4.92D-08 DE=-3.41D-12 OVMax= 1.13D-07

 SCF Done:  E(RwB97XD) =  -271.536849058     A.U. after   13 cycles
            NFock= 13  Conv=0.26D-08     -V/T= 2.0084
 KE= 2.692756730129D+02 PE=-1.019134198886D+03 EE= 2.804432494197D+02
 Leave Link  502 at Thu Aug  7 18:40:39 2025, MaxMem=   104857600 cpu:               8.0 elap:               8.0
 (Enter /Applications/g16/l601.exe)
 Copying SCF densities to generalized density rwf, IOpCl= 0 IROHF=0.

 **********************************************************************

            Population analysis using the SCF Density.

 **********************************************************************

 Orbital symmetries:
       Occupied  (A) (A) (A) (A) (A) (A) (A) (A) (A) (A) (A) (A)
                 (A) (A) (A) (A) (A) (A) (A) (A) (A) (A)
       Virtual   (A) (A) (A) (A) (A) (A) (A) (A) (A) (A) (A) (A)
                 (A) (A) (A) (A) (A) (A) (A) (A) (A) (A) (A) (A)
                 (A) (A) (A) (A) (A) (A) (A) (A) (A) (A) (A) (A)
                 (A) (A) (A) (A) (A) (A) (A) (A) (A) (A) (A) (A)
                 (A) (A) (A) (A) (A) (A) (A) (A) (A) (A) (A) (A)
                 (A) (A) (A) (A) (A) (A) (A) (A) (A) (A) (A) (A)
                 (A) (A) (A) (A) (A) (A) (A) (A) (A) (A) (A) (A)
                 (A) (A) (A) (A) (A) (A) (A)
 The electronic state is 1-A.
 Alpha  occ. eigenvalues --  -14.67412 -14.57878 -10.58856 -10.53402 -10.51254
 Alpha  occ. eigenvalues --  -10.46467  -2.31813  -1.24038  -1.13454  -1.09546
 Alpha  occ. eigenvalues --   -0.97859  -0.80808  -0.76128  -0.75711  -0.72389
 Alpha  occ. eigenvalues --   -0.69339  -0.67721  -0.63843  -0.62718  -0.56442
 Alpha  occ. eigenvalues --   -0.53763  -0.53393
 Alpha virt. eigenvalues --   -0.13474  -0.13408  -0.12915  -0.06811  -0.06461
 Alpha virt. eigenvalues --   -0.06273  -0.01341  -0.00589   0.04209   0.04812
 Alpha virt. eigenvalues --    0.05111   0.06102   0.07665   0.08930   0.10363
 Alpha virt. eigenvalues --    0.13040   0.14506   0.14640   0.20535   0.28228
 Alpha virt. eigenvalues --    0.33805   0.36790   0.36792   0.38874   0.41303
 Alpha virt. eigenvalues --    0.47253   0.47376   0.49304   0.51124   0.52759
 Alpha virt. eigenvalues --    0.54241   0.59921   0.60038   0.64018   0.65771
 Alpha virt. eigenvalues --    0.69670   0.73639   0.74438   0.77096   0.77779
 Alpha virt. eigenvalues --    0.80634   0.82519   0.84185   0.86070   0.90186
 Alpha virt. eigenvalues --    0.93865   0.96345   1.01659   1.03495   1.09084
 Alpha virt. eigenvalues --    1.11046   1.29221   1.30348   1.31870   1.37703
 Alpha virt. eigenvalues --    1.38890   1.42400   1.45343   1.47769   1.51114
 Alpha virt. eigenvalues --    1.62133   1.64633   1.69237   1.76941   1.77852
 Alpha virt. eigenvalues --    1.81470   1.85444   1.88580   1.88984   1.91483
 Alpha virt. eigenvalues --    1.94134   1.97479   2.13249   2.13555   2.17094
 Alpha virt. eigenvalues --    2.26098   2.36198   2.60307   2.66752   2.72716
 Alpha virt. eigenvalues --    2.75902   2.77552   2.84051   3.10977   3.23177
 Alpha virt. eigenvalues --    3.99919   4.02846   4.08248   4.17148   4.47073
 Alpha virt. eigenvalues --    4.68737
          Condensed to atoms (all electrons):
               1          2          3          4          5          6
     1  N    6.622919   0.857069  -0.081009  -0.000716  -0.000064  -0.000000
     2  C    0.857069   4.603184   0.278780  -0.038953   0.004036  -0.000029
     3  C   -0.081009   0.278780   5.225072   0.305050  -0.033724  -0.001439
     4  C   -0.000716  -0.038953   0.305050   5.237203   0.289103  -0.058956
     5  C   -0.000064   0.004036  -0.033724   0.289103   4.618492   0.604850
     6  N   -0.000000  -0.000029  -0.001439  -0.058956   0.604850   6.885038
     7  H    0.000314  -0.001691  -0.025732   0.375427  -0.032877  -0.001454
     8  H    0.000312  -0.001691  -0.025733   0.375426  -0.032872  -0.001455
     9  H   -0.000556  -0.026914   0.377626  -0.031566  -0.003670   0.000095
    10  H   -0.000547  -0.026904   0.377586  -0.031560  -0.003676   0.000094
    11  Li  -0.000007  -0.000155   0.000679  -0.000550  -0.048576   0.220912
               7          8          9         10         11
     1  N    0.000314   0.000312  -0.000556  -0.000547  -0.000007
     2  C   -0.001691  -0.001691  -0.026914  -0.026904  -0.000155
     3  C   -0.025732  -0.025733   0.377626   0.377586   0.000679
     4  C    0.375427   0.375426  -0.031566  -0.031560  -0.000550
     5  C   -0.032877  -0.032872  -0.003670  -0.003676  -0.048576
     6  N   -0.001454  -0.001455   0.000095   0.000094   0.220912
     7  H    0.402827  -0.016329  -0.002228   0.002620   0.000367
     8  H   -0.016329   0.402829   0.002619  -0.002227   0.000366
     9  H   -0.002228   0.002619   0.439298  -0.020334   0.000456
    10  H    0.002620  -0.002227  -0.020334   0.439352   0.000456
    11  Li   0.000367   0.000366   0.000456   0.000456   2.083690
 Mulliken charges:
               1
     1  N   -0.397715
     2  C    0.353266
     3  C   -0.397156
     4  C   -0.419909
     5  C    0.638980
     6  N   -0.647656
     7  H    0.298756
     8  H    0.298755
     9  H    0.265176
    10  H    0.265141
    11  Li   0.742362
 Sum of Mulliken charges =   1.00000
 Mulliken charges with hydrogens summed into heavy atoms:
               1
     1  N   -0.397715
     2  C    0.353266
     3  C    0.133161
     4  C    0.177602
     5  C    0.638980
     6  N   -0.647656
    11  Li   0.742362
 Electronic spatial extent (au):  <R**2>=            894.6338
 Charge=              1.0000 electrons
 Dipole moment (field-independent basis, Debye):
    X=            -16.1901    Y=              1.3803    Z=             -0.0000  Tot=             16.2488
 Quadrupole moment (field-independent basis, Debye-Ang):
   XX=             17.4212   YY=            -30.4400   ZZ=            -32.3809
   XY=             -4.0953   XZ=              0.0105   YZ=             -0.0011
 Traceless Quadrupole moment (field-independent basis, Debye-Ang):
   XX=             32.5544   YY=            -15.3068   ZZ=            -17.2477
   XY=             -4.0953   XZ=              0.0105   YZ=             -0.0011
 Octapole moment (field-independent basis, Debye-Ang**2):
  XXX=           -360.2716  YYY=              1.3555  ZZZ=             -0.0011  XYY=             -8.6333
  XXY=             35.6825  XXZ=             -0.0135  XZZ=             -5.8296  YZZ=              0.1965
  YYZ=             -0.0005  XYZ=              0.0014
 Hexadecapole moment (field-independent basis, Debye-Ang**3):
 XXXX=            206.2907 YYYY=            -78.9611 ZZZZ=            -41.4253 XXXY=           -123.3720
 XXXZ=              0.2053 YYYX=             -7.6990 YYYZ=             -0.0025 ZZZX=              0.0473
 ZZZY=             -0.0030 XXYY=           -160.8980 XXZZ=           -166.8442 YYZZ=            -16.5288
 XXYZ=             -0.0145 YYXZ=              0.0171 ZZXY=             -1.9360
 N-N= 1.978784273952D+02 E-N=-1.019134198835D+03  KE= 2.692756730129D+02
 No NMR shielding tensors so no spin-rotation constants.
 Leave Link  601 at Thu Aug  7 18:40:39 2025, MaxMem=   104857600 cpu:               0.0 elap:               0.0
 (Enter /Applications/g16/l701.exe)
 ... and contract with generalized density number  0.
 Compute integral first derivatives.
 R6Disp: Adding Grimme-D2 dispersion energy 1st derivatives to the gradient.
 Leave Link  701 at Thu Aug  7 18:40:40 2025, MaxMem=   104857600 cpu:               0.0 elap:               0.0
 (Enter /Applications/g16/l702.exe)
 L702 exits ... SP integral derivatives will be done elsewhere.
 Leave Link  702 at Thu Aug  7 18:40:40 2025, MaxMem=   104857600 cpu:               0.0 elap:               0.0
 (Enter /Applications/g16/l703.exe)
 Integral derivatives from FoFJK, PRISM(SPDF).
 Compute integral first derivatives, UseDBF=F ICtDFT=           0.
 Calling FoFJK, ICntrl=      2127 FMM=F ISym2X=0 I1Cent= 0 IOpClX= 0 NMat=1 NMatS=1 NMatT=0.
 FoFJK:  IHMeth= 1 ICntrl=    2127 DoSepK=T KAlg= 0 I1Cent=           0 FoldK=F
 IRaf=         1 NMat=       1 IRICut=       1 DoRegI=T DoRafI=F ISym2E= 0 IDoP0=0 IntGTp=1.
 FoFCou: FMM=F IPFlag=           0 FMFlag=      100000 FMFlg1=         800
         NFxFlg=           0 DoJE=F BraDBF=F KetDBF=F FulRan=T
         wScrn=  0.000000 ICntrl=      2527 IOpCl=  0 I1Cent=           0 NGrid=           0
         NMat0=    1 NMatS0=      1 NMatT0=    0 NMatD0=    1 NMtDS0=    0 NMtDT0=    0
 Symmetry not used in FoFCou.
 Leave Link  703 at Thu Aug  7 18:40:42 2025, MaxMem=   104857600 cpu:               2.4 elap:               2.4
 (Enter /Applications/g16/l716.exe)
 Dipole        =-6.36966647D+00 5.43060349D-01-1.07475951D-05
 ***** Axes restored to original set *****
 -------------------------------------------------------------------
 Center     Atomic                   Forces (Hartrees/Bohr)
 Number     Number              X              Y              Z
 -------------------------------------------------------------------
      1        7          -0.000005493   -0.000005501    0.000034594
      2        6           0.000013675    0.000015828   -0.000074098
      3        6           0.000007474   -0.000002306    0.000038506
      4        6          -0.000012055    0.000018958   -0.000003525
      5        6          -0.000008050   -0.000023451    0.000011789
      6        7          -0.082087811    0.021274892    0.000017059
      7        1           0.000001828   -0.000002344    0.000001307
      8        1           0.000005969   -0.000001514   -0.000000799
      9        1          -0.000010918   -0.000002229   -0.000000585
     10        1           0.000007881   -0.000006537    0.000000314
     11        3           0.082087502   -0.021265796   -0.000024563
 -------------------------------------------------------------------
 Cartesian Forces:  Max     0.082087811 RMS     0.020875992
 Leave Link  716 at Thu Aug  7 18:40:42 2025, MaxMem=   104857600 cpu:               0.0 elap:               0.0
 (Enter /Applications/g16/l103.exe)

 GradGradGradGradGradGradGradGradGradGradGradGradGradGradGradGradGradGrad
 Berny optimization.
 FormGI is forming the generalized inverse of G from B-inverse, IUseBI=4.
 GSVD:  received Info=                   1 from GESDD.
 Internal  Forces:  Max     0.084797154 RMS     0.013940572
 Search for a local minimum.
 Step number   1 out of a maximum of   47
 All quantities printed in internal units (Hartrees-Bohrs-Radians)
 RMS Force = .12371D-04 SwitMx=.10000D-02 MixMth= 2
 Mixed Optimization -- En-DIIS/RFO-DIIS
 Second derivative matrix not updated -- first step.
 ITU=  0
     Eigenvalues ---    0.00230   0.01265   0.01265   0.04736   0.04736
     Eigenvalues ---    0.04905   0.04905   0.05318   0.05645   0.05726
     Eigenvalues ---    0.05800   0.16000   0.16000   0.16000   0.16000
     Eigenvalues ---    0.22259   0.22339   0.27706   0.34135   0.34135
     Eigenvalues ---    0.34340   0.34340   0.36680   0.37324   1.29705
     Eigenvalues ---    1.305161000.000001000.000001000.000001000.00000
     Eigenvalues --- 1000.000001000.000001000.000001000.000001000.00000
     Eigenvalues --- 1000.000001000.00000
 RFO step:  Lambda=-3.43123805D-07 EMin= 2.30000000D-03
 Linear search not attempted -- first point.
 Iteration  1 RMS(Cart)=  0.00113282 RMS(Int)=  0.00000270
 Iteration  2 RMS(Cart)=  0.00000297 RMS(Int)=  0.00000000
 Iteration  3 RMS(Cart)=  0.00000000 RMS(Int)=  0.00000000
 Iteration  1 RMS(Cart)=  0.00000000 RMS(Int)=  0.00000000
 ITry= 1 IFail=0 DXMaxC= 5.50D-03 DCOld= 1.00D+10 DXMaxT= 3.00D-01 DXLimC= 3.00D+00 Rises=F
 Variable       Old X    -DE/DX   Delta X   Delta X   Delta X     New X
                                 (Linear)    (Quad)   (Total)
    R1        2.18433   0.00000   0.00000   0.00000   0.00000   2.18433
    R2        2.76332  -0.00000   0.00000  -0.00001  -0.00001   2.76331
    R3        2.92786  -0.00001   0.00000  -0.00002  -0.00002   2.92784
    R4        2.06760   0.00000   0.00000   0.00000   0.00000   2.06760
    R5        2.06759   0.00001   0.00000   0.00002   0.00002   2.06761
    R6        2.75360  -0.00000   0.00000  -0.00001  -0.00001   2.75359
    R7        2.07103  -0.00000   0.00000  -0.00001  -0.00001   2.07102
    R8        2.07102  -0.00000   0.00000  -0.00001  -0.00001   2.07102
    R9        2.18662  -0.00000   0.00000  -0.00000  -0.00000   2.18661
   R10        3.02356   0.08480   0.00000   0.00000  -0.00000   3.02356
    A1        1.90549  -0.00001   0.00000  -0.00004  -0.00004   1.90545
    A2        1.90491  -0.00001   0.00000  -0.00012  -0.00012   1.90479
    A3        1.90486   0.00001   0.00000   0.00012   0.00012   1.90498
    A4        1.93098   0.00001   0.00000   0.00004   0.00004   1.93102
    A5        1.93098  -0.00000   0.00000   0.00002   0.00002   1.93100
    A6        1.88624  -0.00000   0.00000  -0.00002  -0.00002   1.88621
    A7        1.95460  -0.00001   0.00000  -0.00007  -0.00007   1.95453
    A8        1.93481   0.00000   0.00000   0.00002   0.00002   1.93483
    A9        1.93481   0.00001   0.00000   0.00004   0.00004   1.93485
   A10        1.87989   0.00000   0.00000   0.00001   0.00001   1.87989
   A11        1.87989   0.00000   0.00000  -0.00003  -0.00003   1.87986
   A12        1.87677  -0.00000   0.00000   0.00003   0.00003   1.87681
   A13        3.11375  -0.00001   0.00000  -0.00103  -0.00103   3.11272
   A14        3.13707   0.00002   0.00000   0.00031   0.00031   3.13739
   A15        3.17646  -0.00000   0.00000  -0.00001  -0.00001   3.17646
   A16        3.15774  -0.00006   0.00000  -0.00498  -0.00498   3.15276
   A17        3.14428  -0.00001   0.00000  -0.00026  -0.00026   3.14403
   A18        3.11399   0.00001   0.00000   0.00011   0.00011   3.11411
    D1        3.14156   0.00001   0.00000   0.00020   0.00020  -3.14143
    D2       -1.04154   0.00000   0.00000   0.00017   0.00017  -1.04136
    D3        1.04147   0.00001   0.00000   0.00025   0.00025   1.04173
    D4       -1.04494  -0.00000   0.00000   0.00005   0.00005  -1.04488
    D5        1.05515  -0.00001   0.00000   0.00003   0.00003   1.05518
    D6        3.13816  -0.00000   0.00000   0.00011   0.00011   3.13827
    D7        1.04493  -0.00000   0.00000   0.00007   0.00007   1.04500
    D8       -3.13816  -0.00000   0.00000   0.00004   0.00004  -3.13812
    D9       -1.05516   0.00000   0.00000   0.00012   0.00012  -1.05504
         Item               Value     Threshold  Converged?
 Maximum Force            0.000063     0.000450     YES
 RMS     Force            0.000012     0.000300     YES
 Maximum Displacement     0.005502     0.001800     NO 
 RMS     Displacement     0.001133     0.001200     YES
 Predicted change in Energy=-1.715619D-07
 Lowest energy point so far.  Saving SCF results.
 GradGradGradGradGradGradGradGradGradGradGradGradGradGradGradGradGradGrad

 Leave Link  103 at Thu Aug  7 18:40:42 2025, MaxMem=   104857600 cpu:               0.0 elap:               0.0
 (Enter /Applications/g16/l202.exe)
                          Input orientation:                          
 ---------------------------------------------------------------------
 Center     Atomic      Atomic             Coordinates (Angstroms)
 Number     Number       Type             X           Y           Z
 ---------------------------------------------------------------------
      1          7           0       -2.967180    0.265382    0.002132
      2          6           0       -1.887982   -0.148652   -0.001096
      3          6           0       -0.507587   -0.631113   -0.000427
      4          6           0        0.455620    0.582440   -0.000226
      5          6           0        1.853093    0.169740    0.000212
      6          7           0        2.961291   -0.163112    0.000611
      7          1           0        0.293457    1.209477   -0.884310
      8          1           0        0.292971    1.209591    0.883687
      9          1           0       -0.344487   -1.252797   -0.885876
     10          1           0       -0.345071   -1.252605    0.885270
     11          3           0        4.510239   -0.564063    0.000613
 ---------------------------------------------------------------------
                    Distance matrix (angstroms):
                    1          2          3          4          5
     1  N    0.000000
     2  C    1.155899   0.000000
     3  C    2.617883   1.462280   0.000000
     4  C    3.437455   2.454989   1.549348   0.000000
     5  C    4.821222   3.754599   2.492824   1.457138   0.000000
     6  N    5.943937   4.849295   3.500305   2.614237   1.157106
     7  H    3.508398   2.717216   2.193329   1.095936   2.072654
     8  H    3.506744   2.717393   2.193340   1.095936   2.072631
     9  H    3.157839   2.093884   1.094126   2.189210   2.763714
    10  H    3.155895   2.094023   1.094131   2.189201   2.763750
    11  Li   7.523282   6.411693   5.018273   4.213597   2.756609
                    6          7          8          9         10
     6  N    0.000000
     7  H    3.128006   0.000000
     8  H    3.127950   1.767997   0.000000
     9  H    3.591857   2.543574   3.098558   0.000000
    10  H    3.591886   3.098544   2.543523   1.771147   0.000000
    11  Li   1.600000   4.659375   4.659508   4.982828   4.983045
                   11
    11  Li   0.000000
 Stoichiometry    C4H4LiN2(1+)
 Framework group  C1[X(C4H4LiN2)]
 Deg. of freedom    27
 Full point group                 C1      NOp   1
 RotChk:  IX=2 Diff= 6.95D-04
 Largest Abelian subgroup         C1      NOp   1
 Largest concise Abelian subgroup C1      NOp   1
                         Standard orientation:                         
 ---------------------------------------------------------------------
 Center     Atomic      Atomic             Coordinates (Angstroms)
 Number     Number       Type             X           Y           Z
 ---------------------------------------------------------------------
      1          7           0        3.261359   -0.178008    0.001635
      2          6           0        2.168259    0.197791   -0.001352
      3          6           0        0.771738    0.631372   -0.000396
      4          6           0       -0.148163   -0.615328   -0.000754
      5          6           0       -1.559294   -0.252064   -0.000063
      6          7           0       -2.678520    0.041580    0.000540
      7          1           0        0.035919   -1.235837   -0.885150
      8          1           0        0.036505   -1.236797    0.882846
      9          1           0        0.586813    1.247363   -0.885534
     10          1           0        0.587499    1.246327    0.885612
     11          3           0       -4.240619    0.387770    0.000796
 ---------------------------------------------------------------------
 Rotational constants (GHZ):          23.5821513           1.0704927           1.0372747
 Leave Link  202 at Thu Aug  7 18:40:42 2025, MaxMem=   104857600 cpu:               0.0 elap:               0.0
 (Enter /Applications/g16/l301.exe)
 Standard basis: 6-31G(d) (6D, 7F)
 Ernie: Thresh=  0.10000D-02 Tol=  0.10000D-05 Strict=F.
 There are   113 symmetry adapted cartesian basis functions of A   symmetry.
 There are   113 symmetry adapted basis functions of A   symmetry.
   113 basis functions,   212 primitive gaussians,   113 cartesian basis functions
    22 alpha electrons       22 beta electrons
       nuclear repulsion energy       197.8826357650 Hartrees.
 IExCor= 4639 DFT=T Ex+Corr=wB97XD ExCW=0 ScaHFX=  1.000000
 ScaDFX=  1.000000  1.000000  1.000000  1.000000 ScalE2=  1.000000  1.000000
 IRadAn=      5 IRanWt=     -1 IRanGd=            0 ICorTp=0 IEmpDi=121
 HFx  wShort=  0.000000 wLong=  0.200000 cFull=  0.222036 cShort=  0.000000 cLong=  0.777964
 DFx  wShort=  0.000000 wLong=  0.200000 cFull=  0.000000 cShort=  0.000000 cLong=  1.000000
 NAtoms=   11 NActive=   11 NUniq=   11 SFac= 1.00D+00 NAtFMM=   60 NAOKFM=F Big=F
 Integral buffers will be    131072 words long.
 Raffenetti 2 integral format.
 Two-electron integral symmetry is turned on.
 R6Disp:  Grimme-D2 Dispersion energy=       -0.0048305287 Hartrees.
 Nuclear repulsion after empirical dispersion term =      197.8778052363 Hartrees.
 Leave Link  301 at Thu Aug  7 18:40:42 2025, MaxMem=   104857600 cpu:               0.0 elap:               0.0
 (Enter /Applications/g16/l302.exe)
 NPDir=0 NMtPBC=     1 NCelOv=     1 NCel=       1 NClECP=     1 NCelD=      1
         NCelK=      1 NCelE2=     1 NClLst=     1 CellRange=     0.0.
 One-electron integrals computed using PRISM.
 One-electron integral symmetry used in STVInt
 NBasis=   113 RedAO= T EigKep=  8.19D-04  NBF=   113
 NBsUse=   113 1.00D-06 EigRej= -1.00D+00 NBFU=   113
 Precomputing XC quadrature grid using
 IXCGrd= 4 IRadAn=           5 IRanWt=          -1 IRanGd=           0 AccXCQ= 0.00D+00.
 Generated NRdTot=       0 NPtTot=           0 NUsed=           0 NTot=          32
 NSgBfM=   113   113   113   113   113 MxSgAt=    11 MxSgA2=    11.
 Leave Link  302 at Thu Aug  7 18:40:42 2025, MaxMem=   104857600 cpu:               0.1 elap:               0.1
 (Enter /Applications/g16/l303.exe)
 DipDrv:  MaxL=1.
 Leave Link  303 at Thu Aug  7 18:40:42 2025, MaxMem=   104857600 cpu:               0.0 elap:               0.0
 (Enter /Applications/g16/l401.exe)
 Initial guess from the checkpoint file:  "/Users/srak/g16_scratch/Gau-74174.chk"
 B after Tr=     0.000000    0.000000   -0.000000
         Rot=    1.000000   -0.000104    0.000033    0.000004 Ang=  -0.01 deg.
 Guess basis will be translated and rotated to current coordinates.
 JPrj=2 DoOrth=T DoCkMO=T.
 Leave Link  401 at Thu Aug  7 18:40:42 2025, MaxMem=   104857600 cpu:               0.0 elap:               0.0
 (Enter /Applications/g16/l502.exe)
 Keep R1 ints in memory in canonical form, NReq=43174005.
 FoFCou: FMM=F IPFlag=           0 FMFlag=           0 FMFlg1=           0
         NFxFlg=           0 DoJE=F BraDBF=F KetDBF=F FulRan=T
         wScrn=  0.000000 ICntrl=       600 IOpCl=  0 I1Cent=           0 NGrid=           0
         NMat0=    1 NMatS0=   6441 NMatT0=    0 NMatD0=    1 NMtDS0=    0 NMtDT0=    0
 Symmetry not used in FoFCou.
 Two-electron integral symmetry not used.
 Closed shell SCF:
 Using DIIS extrapolation, IDIIS=  1040.
 NGot=   104857600 LenX=    63336875 LenY=    63323665
 Requested convergence on RMS density matrix=1.00D-08 within 128 cycles.
 Requested convergence on MAX density matrix=1.00D-06.
 Requested convergence on             energy=1.00D-06.
 No special actions if energy rises.

 Cycle   1  Pass 1  IDiag  1:
 E= -271.536840790116    
 DIIS: error= 2.52D-04 at cycle   1 NSaved=   1.
 NSaved= 1 IEnMin= 1 EnMin= -271.536840790116     IErMin= 1 ErrMin= 2.52D-04
 ErrMax= 2.52D-04  0.00D+00 EMaxC= 1.00D-01 BMatC= 4.59D-06 BMatP= 4.59D-06
 IDIUse=3 WtCom= 9.97D-01 WtEn= 2.52D-03
 Coeff-Com:  0.100D+01
 Coeff-En:   0.100D+01
 Coeff:      0.100D+01
 Gap=     1.466 Goal=   None    Shift=    0.000
 RMSDP=2.49D-05 MaxDP=8.77D-04              OVMax= 1.08D-03

 Cycle   2  Pass 1  IDiag  1:
 E= -271.536848106734     Delta-E=       -0.000007316618 Rises=F Damp=F
 DIIS: error= 4.27D-05 at cycle   2 NSaved=   2.
 NSaved= 2 IEnMin= 2 EnMin= -271.536848106734     IErMin= 2 ErrMin= 4.27D-05
 ErrMax= 4.27D-05  0.00D+00 EMaxC= 1.00D-01 BMatC= 1.95D-07 BMatP= 4.59D-06
 IDIUse=1 WtCom= 1.00D+00 WtEn= 0.00D+00
 Coeff-Com: -0.189D+00 0.119D+01
 Coeff:     -0.189D+00 0.119D+01
 Gap=     0.399 Goal=   None    Shift=    0.000
 RMSDP=8.31D-06 MaxDP=2.40D-04 DE=-7.32D-06 OVMax= 4.28D-04

 Cycle   3  Pass 1  IDiag  1:
 E= -271.536848621364     Delta-E=       -0.000000514631 Rises=F Damp=F
 DIIS: error= 1.38D-05 at cycle   3 NSaved=   3.
 NSaved= 3 IEnMin= 3 EnMin= -271.536848621364     IErMin= 3 ErrMin= 1.38D-05
 ErrMax= 1.38D-05  0.00D+00 EMaxC= 1.00D-01 BMatC= 6.34D-09 BMatP= 1.95D-07
 IDIUse=1 WtCom= 1.00D+00 WtEn= 0.00D+00
 Coeff-Com:  0.628D-03-0.975D-01 0.110D+01
 Coeff:      0.628D-03-0.975D-01 0.110D+01
 Gap=     0.399 Goal=   None    Shift=    0.000
 RMSDP=1.92D-06 MaxDP=4.63D-05 DE=-5.15D-07 OVMax= 1.19D-04

 Cycle   4  Pass 1  IDiag  1:
 E= -271.536848642805     Delta-E=       -0.000000021440 Rises=F Damp=F
 DIIS: error= 3.28D-06 at cycle   4 NSaved=   4.
 NSaved= 4 IEnMin= 4 EnMin= -271.536848642805     IErMin= 4 ErrMin= 3.28D-06
 ErrMax= 3.28D-06  0.00D+00 EMaxC= 1.00D-01 BMatC= 2.01D-09 BMatP= 6.34D-09
 IDIUse=1 WtCom= 1.00D+00 WtEn= 0.00D+00
 Coeff-Com:  0.134D-01-0.116D+00 0.347D+00 0.755D+00
 Coeff:      0.134D-01-0.116D+00 0.347D+00 0.755D+00
 Gap=     0.399 Goal=   None    Shift=    0.000
 RMSDP=6.06D-07 MaxDP=1.04D-05 DE=-2.14D-08 OVMax= 2.55D-05

 Cycle   5  Pass 1  IDiag  1:
 E= -271.536848644485     Delta-E=       -0.000000001681 Rises=F Damp=F
 DIIS: error= 2.91D-06 at cycle   5 NSaved=   5.
 NSaved= 5 IEnMin= 5 EnMin= -271.536848644485     IErMin= 5 ErrMin= 2.91D-06
 ErrMax= 2.91D-06  0.00D+00 EMaxC= 1.00D-01 BMatC= 1.16D-09 BMatP= 2.01D-09
 IDIUse=1 WtCom= 1.00D+00 WtEn= 0.00D+00
 Coeff-Com:  0.935D-02-0.616D-01 0.182D-01 0.489D+00 0.545D+00
 Coeff:      0.935D-02-0.616D-01 0.182D-01 0.489D+00 0.545D+00
 Gap=     0.399 Goal=   None    Shift=    0.000
 RMSDP=2.77D-07 MaxDP=5.63D-06 DE=-1.68D-09 OVMax= 9.89D-06

 Cycle   6  Pass 1  IDiag  1:
 E= -271.536848645547     Delta-E=       -0.000000001062 Rises=F Damp=F
 DIIS: error= 2.34D-07 at cycle   6 NSaved=   6.
 NSaved= 6 IEnMin= 6 EnMin= -271.536848645547     IErMin= 6 ErrMin= 2.34D-07
 ErrMax= 2.34D-07  0.00D+00 EMaxC= 1.00D-01 BMatC= 1.18D-11 BMatP= 1.16D-09
 IDIUse=1 WtCom= 1.00D+00 WtEn= 0.00D+00
 Coeff-Com:  0.533D-04 0.234D-02-0.201D-01-0.163D-01 0.645D-01 0.970D+00
 Coeff:      0.533D-04 0.234D-02-0.201D-01-0.163D-01 0.645D-01 0.970D+00
 Gap=     0.399 Goal=   None    Shift=    0.000
 RMSDP=5.42D-08 MaxDP=1.13D-06 DE=-1.06D-09 OVMax= 2.54D-06

 Cycle   7  Pass 1  IDiag  1:
 E= -271.536848645561     Delta-E=       -0.000000000014 Rises=F Damp=F
 DIIS: error= 9.23D-08 at cycle   7 NSaved=   7.
 NSaved= 7 IEnMin= 7 EnMin= -271.536848645561     IErMin= 7 ErrMin= 9.23D-08
 ErrMax= 9.23D-08  0.00D+00 EMaxC= 1.00D-01 BMatC= 1.76D-12 BMatP= 1.18D-11
 IDIUse=1 WtCom= 1.00D+00 WtEn= 0.00D+00
 Coeff-Com: -0.384D-03 0.343D-02-0.652D-02-0.304D-01-0.540D-02 0.345D+00
 Coeff-Com:  0.694D+00
 Coeff:     -0.384D-03 0.343D-02-0.652D-02-0.304D-01-0.540D-02 0.345D+00
 Coeff:      0.694D+00
 Gap=     0.399 Goal=   None    Shift=    0.000
 RMSDP=1.53D-08 MaxDP=3.07D-07 DE=-1.38D-11 OVMax= 3.95D-07

 Cycle   8  Pass 1  IDiag  1:
 E= -271.536848645565     Delta-E=       -0.000000000004 Rises=F Damp=F
 DIIS: error= 5.53D-08 at cycle   8 NSaved=   8.
 NSaved= 8 IEnMin= 8 EnMin= -271.536848645565     IErMin= 8 ErrMin= 5.53D-08
 ErrMax= 5.53D-08  0.00D+00 EMaxC= 1.00D-01 BMatC= 4.50D-13 BMatP= 1.76D-12
 IDIUse=1 WtCom= 1.00D+00 WtEn= 0.00D+00
 Coeff-Com: -0.205D-03 0.153D-02-0.112D-02-0.155D-01-0.107D-01 0.818D-01
 Coeff-Com:  0.369D+00 0.575D+00
 Coeff:     -0.205D-03 0.153D-02-0.112D-02-0.155D-01-0.107D-01 0.818D-01
 Coeff:      0.369D+00 0.575D+00
 Gap=     0.399 Goal=   None    Shift=    0.000
 RMSDP=6.37D-09 MaxDP=1.29D-07 DE=-4.32D-12 OVMax= 1.63D-07

 SCF Done:  E(RwB97XD) =  -271.536848646     A.U. after    8 cycles
            NFock=  8  Conv=0.64D-08     -V/T= 2.0084
 KE= 2.692757568285D+02 PE=-1.019133063933D+03 EE= 2.804426532227D+02
 Leave Link  502 at Thu Aug  7 18:40:47 2025, MaxMem=   104857600 cpu:               5.1 elap:               5.1
 (Enter /Applications/g16/l701.exe)
 ... and contract with generalized density number  0.
 Compute integral first derivatives.
 R6Disp: Adding Grimme-D2 dispersion energy 1st derivatives to the gradient.
 Leave Link  701 at Thu Aug  7 18:40:47 2025, MaxMem=   104857600 cpu:               0.0 elap:               0.0
 (Enter /Applications/g16/l702.exe)
 L702 exits ... SP integral derivatives will be done elsewhere.
 Leave Link  702 at Thu Aug  7 18:40:47 2025, MaxMem=   104857600 cpu:               0.0 elap:               0.0
 (Enter /Applications/g16/l703.exe)
 Integral derivatives from FoFJK, PRISM(SPDF).
 Compute integral first derivatives, UseDBF=F ICtDFT=           0.
 Calling FoFJK, ICntrl=      2127 FMM=F ISym2X=0 I1Cent= 0 IOpClX= 0 NMat=1 NMatS=1 NMatT=0.
 FoFJK:  IHMeth= 1 ICntrl=    2127 DoSepK=T KAlg= 0 I1Cent=           0 FoldK=F
 IRaf=         1 NMat=       1 IRICut=       1 DoRegI=T DoRafI=F ISym2E= 0 IDoP0=0 IntGTp=1.
 FoFCou: FMM=F IPFlag=           0 FMFlag=      100000 FMFlg1=         800
         NFxFlg=           0 DoJE=F BraDBF=F KetDBF=F FulRan=T
         wScrn=  0.000000 ICntrl=      2527 IOpCl=  0 I1Cent=           0 NGrid=           0
         NMat0=    1 NMatS0=      1 NMatT0=    0 NMatD0=    1 NMtDS0=    0 NMtDT0=    0
 Symmetry not used in FoFCou.
 Leave Link  703 at Thu Aug  7 18:40:50 2025, MaxMem=   104857600 cpu:               2.3 elap:               2.4
 (Enter /Applications/g16/l716.exe)
 Dipole        =-6.36993158D+00 5.42664698D-01-7.16204163D-04
 ***** Axes restored to original set *****
 -------------------------------------------------------------------
 Center     Atomic                   Forces (Hartrees/Bohr)
 Number     Number              X              Y              Z
 -------------------------------------------------------------------
      1        7           0.000007471    0.000014909   -0.000123282
      2        6          -0.000017337   -0.000031640    0.000264613
      3        6           0.000003993    0.000020693   -0.000139498
      4        6          -0.000001732   -0.000010633   -0.000005631
      5        6           0.000010485    0.000016298    0.000003302
      6        7          -0.082092904    0.021244831   -0.000006613
      7        1           0.000006759   -0.000000459   -0.000000085
      8        1          -0.000001484   -0.000002627    0.000001293
      9        1           0.000030583   -0.000006041    0.000000710
     10        1          -0.000036581    0.000008068    0.000002201
     11        3           0.082090747   -0.021253401    0.000002991
 -------------------------------------------------------------------
 Cartesian Forces:  Max     0.082092904 RMS     0.020875747
 Leave Link  716 at Thu Aug  7 18:40:50 2025, MaxMem=   104857600 cpu:               0.0 elap:               0.0
 (Enter /Applications/g16/l103.exe)

 GradGradGradGradGradGradGradGradGradGradGradGradGradGradGradGradGradGrad
 Berny optimization.
 Using GEDIIS/GDIIS optimizer.
 FormGI is forming the generalized inverse of G from B-inverse, IUseBI=4.
 GSVD:  received Info=                   1 from GESDD.
 Internal  Forces:  Max     0.084797186 RMS     0.013940627
 Search for a local minimum.
 Step number   2 out of a maximum of   47
 All quantities printed in internal units (Hartrees-Bohrs-Radians)
 RMS Force = .40074D-04 SwitMx=.10000D-02 MixMth= 2
 Mixed Optimization -- En-DIIS/RFO-DIIS
 Swapping is turned off.
 Update second derivatives using D2CorX and points    1    2
 DE=  4.12D-07 DEPred=-1.72D-07 R=-2.40D+00
 Trust test=-2.40D+00 RLast= 5.12D-03 DXMaxT set to 1.50D-01
 ITU= -1  0
     Eigenvalues ---    0.00230   0.01247   0.04561   0.04723   0.04737
     Eigenvalues ---    0.04896   0.05051   0.05318   0.05716   0.05800
     Eigenvalues ---    0.06699   0.15981   0.16000   0.16000   0.16326
     Eigenvalues ---    0.22247   0.22378   0.27705   0.34132   0.34135
     Eigenvalues ---    0.34337   0.34353   0.36677   0.37324   1.29703
     Eigenvalues ---    1.305151000.000001000.000001000.000001000.00000
     Eigenvalues --- 1000.000001000.000001000.000001000.000001000.00000
     Eigenvalues --- 1000.000001000.00000
 En-DIIS/RFO-DIIS/Sim-DIIS IScMMF=       -3 using points:     2    1
 RFO step:  Lambda=-8.10359963D-06.
 NNeg= 0 NGDIIS= 2 SimSw=  2.50D-03 Rises=T DC=  4.12D-07 SmlDif=  1.00D-05
 NRisDI= 1 DoIntr=F SqrtH=F CThrHd= 10.0 CDAdj=  3.0
 RMS Error=  0.6518088194D-03 NUsed= 2 OKEnD=T EnDIS=T
 InvSVX:  RCond= 2.95D-05 Info=           0 Equed=N FErr=  1.24D-15 BErr=  6.73D-17
 IWarn =    0
 DidBck=T Rises=T En-DIIS coefs:    0.36373    0.63627
 Iteration  1 RMS(Cart)=  0.00089446 RMS(Int)=  0.00000169
 Iteration  2 RMS(Cart)=  0.00000188 RMS(Int)=  0.00000000
 Iteration  3 RMS(Cart)=  0.00000000 RMS(Int)=  0.00000000
 Iteration  1 RMS(Cart)=  0.00000000 RMS(Int)=  0.00000000
 ITry= 1 IFail=0 DXMaxC= 4.41D-03 DCOld= 1.00D+10 DXMaxT= 1.50D-01 DXLimC= 3.00D+00 Rises=F
 Variable       Old X    -DE/DX   Delta X   Delta X   Delta X     New X
                                 (Linear)    (Quad)   (Total)
    R1        2.18433  -0.00000  -0.00000   0.00000  -0.00000   2.18433
    R2        2.76331   0.00000   0.00001  -0.00001   0.00000   2.76331
    R3        2.92784   0.00001   0.00001  -0.00001   0.00000   2.92785
    R4        2.06760   0.00001  -0.00000   0.00001   0.00001   2.06760
    R5        2.06761  -0.00001  -0.00001   0.00001  -0.00000   2.06760
    R6        2.75359   0.00001   0.00001  -0.00001   0.00000   2.75359
    R7        2.07102  -0.00000   0.00000  -0.00001  -0.00000   2.07102
    R8        2.07102  -0.00000   0.00000  -0.00000  -0.00000   2.07102
    R9        2.18661  -0.00000   0.00000  -0.00000  -0.00000   2.18661
   R10        3.02356   0.08480   0.00000   0.00000   0.00000   3.02356
    A1        1.90545   0.00002   0.00003  -0.00001   0.00002   1.90547
    A2        1.90479   0.00003   0.00008   0.00001   0.00008   1.90488
    A3        1.90498  -0.00004  -0.00007  -0.00003  -0.00010   1.90488
    A4        1.93102  -0.00002  -0.00003   0.00002  -0.00001   1.93101
    A5        1.93100   0.00002  -0.00001   0.00002   0.00001   1.93101
    A6        1.88621   0.00000   0.00002  -0.00002  -0.00000   1.88621
    A7        1.95453   0.00001   0.00004  -0.00004   0.00001   1.95454
    A8        1.93483   0.00000  -0.00001   0.00002   0.00001   1.93484
    A9        1.93485  -0.00001  -0.00003   0.00002  -0.00001   1.93484
   A10        1.87989  -0.00001  -0.00000  -0.00001  -0.00001   1.87988
   A11        1.87986  -0.00000   0.00002  -0.00002  -0.00000   1.87986
   A12        1.87681   0.00000  -0.00002   0.00002   0.00000   1.87681
   A13        3.11272   0.00008   0.00066   0.00069   0.00134   3.11406
   A14        3.13739  -0.00002  -0.00020   0.00012  -0.00008   3.13731
   A15        3.17646  -0.00000   0.00001  -0.00002  -0.00001   3.17644
   A16        3.15276   0.00021   0.00317   0.00055   0.00371   3.15647
   A17        3.14403   0.00001   0.00016  -0.00014   0.00002   3.14405
   A18        3.11411   0.00001  -0.00007   0.00010   0.00003   3.11414
    D1       -3.14143  -0.00002  -0.00013  -0.00005  -0.00017   3.14159
    D2       -1.04136  -0.00002  -0.00011  -0.00006  -0.00017  -1.04154
    D3        1.04173  -0.00002  -0.00016  -0.00001  -0.00017   1.04155
    D4       -1.04488   0.00001  -0.00003  -0.00003  -0.00006  -1.04495
    D5        1.05518   0.00001  -0.00002  -0.00005  -0.00006   1.05511
    D6        3.13827   0.00001  -0.00007   0.00001  -0.00006   3.13821
    D7        1.04500   0.00001  -0.00004  -0.00002  -0.00006   1.04493
    D8       -3.13812   0.00001  -0.00003  -0.00004  -0.00006  -3.13819
    D9       -1.05504   0.00001  -0.00008   0.00002  -0.00006  -1.05510
         Item               Value     Threshold  Converged?
 Maximum Force            0.000214     0.000450     YES
 RMS     Force            0.000040     0.000300     YES
 Maximum Displacement     0.004412     0.001800     NO 
 RMS     Displacement     0.000895     0.001200     YES
 Predicted change in Energy=-4.565790D-07
 GradGradGradGradGradGradGradGradGradGradGradGradGradGradGradGradGradGrad

 Leave Link  103 at Thu Aug  7 18:40:50 2025, MaxMem=   104857600 cpu:               0.0 elap:               0.0
 (Enter /Applications/g16/l202.exe)
                          Input orientation:                          
 ---------------------------------------------------------------------
 Center     Atomic      Atomic             Coordinates (Angstroms)
 Number     Number       Type             X           Y           Z
 ---------------------------------------------------------------------
      1          7           0       -2.967204    0.265302   -0.000202
      2          6           0       -1.887981   -0.148677   -0.000044
      3          6           0       -0.507569   -0.631096    0.000036
      4          6           0        0.455620    0.582473    0.000103
      5          6           0        1.853104    0.169804    0.000193
      6          7           0        2.961284   -0.163109    0.000300
      7          1           0        0.293253    1.209574   -0.883897
      8          1           0        0.293160    1.209553    0.884100
      9          1           0       -0.344700   -1.252676   -0.885532
     10          1           0       -0.344805   -1.252687    0.885615
     11          3           0        4.510202   -0.564174   -0.000082
 ---------------------------------------------------------------------
                    Distance matrix (angstroms):
                    1          2          3          4          5
     1  N    0.000000
     2  C    1.155899   0.000000
     3  C    2.617887   1.462280   0.000000
     4  C    3.437488   2.455004   1.549350   0.000000
     5  C    4.821254   3.754616   2.492833   1.457139   0.000000
     6  N    5.943947   4.849286   3.500279   2.614238   1.157106
     7  H    3.507585   2.717320   2.193336   1.095935   2.072648
     8  H    3.507645   2.717329   2.193337   1.095935   2.072630
     9  H    3.156833   2.093947   1.094129   2.189208   2.763747
    10  H    3.156888   2.093949   1.094129   2.189207   2.763739
    11  Li   7.523273   6.411659   5.018217   4.213601   2.756609
                    6          7          8          9         10
     6  N    0.000000
     7  H    3.128011   0.000000
     8  H    3.127969   1.767997   0.000000
     9  H    3.591850   2.543553   3.098554   0.000000
    10  H    3.591822   3.098552   2.543547   1.771147   0.000000
    11  Li   1.600000   4.659395   4.659542   4.982783   4.982931
                   11
    11  Li   0.000000
 Stoichiometry    C4H4LiN2(1+)
 Framework group  C1[X(C4H4LiN2)]
 Deg. of freedom    27
 Full point group                 C1      NOp   1
 RotChk:  IX=0 Diff= 6.94D-04
 Largest Abelian subgroup         C1      NOp   1
 Largest concise Abelian subgroup C1      NOp   1
                         Standard orientation:                         
 ---------------------------------------------------------------------
 Center     Atomic      Atomic             Coordinates (Angstroms)
 Number     Number       Type             X           Y           Z
 ---------------------------------------------------------------------
      1          7           0        3.261377   -0.177950   -0.000257
      2          6           0        2.168255    0.197798   -0.000099
      3          6           0        0.771723    0.631345   -0.000018
      4          6           0       -0.148168   -0.615365    0.000048
      5          6           0       -1.559306   -0.252126    0.000139
      6          7           0       -2.678514    0.041587    0.000246
      7          1           0        0.036165   -1.236365   -0.883952
      8          1           0        0.036258   -1.236341    0.884046
      9          1           0        0.587083    1.246809   -0.885586
     10          1           0        0.587187    1.246824    0.885560
     11          3           0       -4.240586    0.387901   -0.000137
 ---------------------------------------------------------------------
 Rotational constants (GHZ):          23.5811337           1.0704946           1.0372742
 Leave Link  202 at Thu Aug  7 18:40:50 2025, MaxMem=   104857600 cpu:               0.0 elap:               0.0
 (Enter /Applications/g16/l301.exe)
 Standard basis: 6-31G(d) (6D, 7F)
 Ernie: Thresh=  0.10000D-02 Tol=  0.10000D-05 Strict=F.
 There are   113 symmetry adapted cartesian basis functions of A   symmetry.
 There are   113 symmetry adapted basis functions of A   symmetry.
   113 basis functions,   212 primitive gaussians,   113 cartesian basis functions
    22 alpha electrons       22 beta electrons
       nuclear repulsion energy       197.8824478760 Hartrees.
 IExCor= 4639 DFT=T Ex+Corr=wB97XD ExCW=0 ScaHFX=  1.000000
 ScaDFX=  1.000000  1.000000  1.000000  1.000000 ScalE2=  1.000000  1.000000
 IRadAn=      5 IRanWt=     -1 IRanGd=            0 ICorTp=0 IEmpDi=121
 HFx  wShort=  0.000000 wLong=  0.200000 cFull=  0.222036 cShort=  0.000000 cLong=  0.777964
 DFx  wShort=  0.000000 wLong=  0.200000 cFull=  0.000000 cShort=  0.000000 cLong=  1.000000
 NAtoms=   11 NActive=   11 NUniq=   11 SFac= 1.00D+00 NAtFMM=   60 NAOKFM=F Big=F
 Integral buffers will be    131072 words long.
 Raffenetti 2 integral format.
 Two-electron integral symmetry is turned on.
 R6Disp:  Grimme-D2 Dispersion energy=       -0.0048305320 Hartrees.
 Nuclear repulsion after empirical dispersion term =      197.8776173439 Hartrees.
 Leave Link  301 at Thu Aug  7 18:40:50 2025, MaxMem=   104857600 cpu:               0.0 elap:               0.0
 (Enter /Applications/g16/l302.exe)
 NPDir=0 NMtPBC=     1 NCelOv=     1 NCel=       1 NClECP=     1 NCelD=      1
         NCelK=      1 NCelE2=     1 NClLst=     1 CellRange=     0.0.
 One-electron integrals computed using PRISM.
 One-electron integral symmetry used in STVInt
 NBasis=   113 RedAO= T EigKep=  8.19D-04  NBF=   113
 NBsUse=   113 1.00D-06 EigRej= -1.00D+00 NBFU=   113
 Precomputing XC quadrature grid using
 IXCGrd= 4 IRadAn=           5 IRanWt=          -1 IRanGd=           0 AccXCQ= 0.00D+00.
 Generated NRdTot=       0 NPtTot=           0 NUsed=           0 NTot=          32
 NSgBfM=   113   113   113   113   113 MxSgAt=    11 MxSgA2=    11.
 Leave Link  302 at Thu Aug  7 18:40:50 2025, MaxMem=   104857600 cpu:               0.1 elap:               0.1
 (Enter /Applications/g16/l303.exe)
 DipDrv:  MaxL=1.
 Leave Link  303 at Thu Aug  7 18:40:50 2025, MaxMem=   104857600 cpu:               0.0 elap:               0.0
 (Enter /Applications/g16/l401.exe)
 Initial guess from the checkpoint file:  "/Users/srak/g16_scratch/Gau-74174.chk"
 B after Tr=    -0.000000   -0.000000   -0.000000
         Rot=    1.000000    0.000133   -0.000020   -0.000000 Ang=   0.02 deg.
 Guess basis will be translated and rotated to current coordinates.
 JPrj=2 DoOrth=T DoCkMO=T.
 Leave Link  401 at Thu Aug  7 18:40:50 2025, MaxMem=   104857600 cpu:               0.0 elap:               0.0
 (Enter /Applications/g16/l502.exe)
 Keep R1 ints in memory in canonical form, NReq=43174005.
 FoFCou: FMM=F IPFlag=           0 FMFlag=           0 FMFlg1=           0
         NFxFlg=           0 DoJE=F BraDBF=F KetDBF=F FulRan=T
         wScrn=  0.000000 ICntrl=       600 IOpCl=  0 I1Cent=           0 NGrid=           0
         NMat0=    1 NMatS0=   6441 NMatT0=    0 NMatD0=    1 NMtDS0=    0 NMtDT0=    0
 Symmetry not used in FoFCou.
 Two-electron integral symmetry not used.
 Closed shell SCF:
 Using DIIS extrapolation, IDIIS=  1040.
 NGot=   104857600 LenX=    63336875 LenY=    63323665
 Requested convergence on RMS density matrix=1.00D-08 within 128 cycles.
 Requested convergence on MAX density matrix=1.00D-06.
 Requested convergence on             energy=1.00D-06.
 No special actions if energy rises.

 Cycle   1  Pass 1  IDiag  1:
 E= -271.536844161339    
 DIIS: error= 2.02D-04 at cycle   1 NSaved=   1.
 NSaved= 1 IEnMin= 1 EnMin= -271.536844161339     IErMin= 1 ErrMin= 2.02D-04
 ErrMax= 2.02D-04  0.00D+00 EMaxC= 1.00D-01 BMatC= 2.88D-06 BMatP= 2.88D-06
 IDIUse=3 WtCom= 9.98D-01 WtEn= 2.02D-03
 Coeff-Com:  0.100D+01
 Coeff-En:   0.100D+01
 Coeff:      0.100D+01
 Gap=     1.466 Goal=   None    Shift=    0.000
 RMSDP=1.96D-05 MaxDP=7.03D-04              OVMax= 8.52D-04

 Cycle   2  Pass 1  IDiag  1:
 E= -271.536848753183     Delta-E=       -0.000004591844 Rises=F Damp=F
 DIIS: error= 3.43D-05 at cycle   2 NSaved=   2.
 NSaved= 2 IEnMin= 2 EnMin= -271.536848753183     IErMin= 2 ErrMin= 3.43D-05
 ErrMax= 3.43D-05  0.00D+00 EMaxC= 1.00D-01 BMatC= 1.23D-07 BMatP= 2.88D-06
 IDIUse=1 WtCom= 1.00D+00 WtEn= 0.00D+00
 Coeff-Com: -0.189D+00 0.119D+01
 Coeff:     -0.189D+00 0.119D+01
 Gap=     0.399 Goal=   None    Shift=    0.000
 RMSDP=6.56D-06 MaxDP=1.92D-04 DE=-4.59D-06 OVMax= 3.39D-04

 Cycle   3  Pass 1  IDiag  1:
 E= -271.536849076242     Delta-E=       -0.000000323058 Rises=F Damp=F
 DIIS: error= 1.10D-05 at cycle   3 NSaved=   3.
 NSaved= 3 IEnMin= 3 EnMin= -271.536849076242     IErMin= 3 ErrMin= 1.10D-05
 ErrMax= 1.10D-05  0.00D+00 EMaxC= 1.00D-01 BMatC= 3.73D-09 BMatP= 1.23D-07
 IDIUse=1 WtCom= 1.00D+00 WtEn= 0.00D+00
 Coeff-Com:  0.307D-02-0.113D+00 0.111D+01
 Coeff:      0.307D-02-0.113D+00 0.111D+01
 Gap=     0.399 Goal=   None    Shift=    0.000
 RMSDP=1.51D-06 MaxDP=3.74D-05 DE=-3.23D-07 OVMax= 9.54D-05

 Cycle   4  Pass 1  IDiag  1:
 E= -271.536849090195     Delta-E=       -0.000000013954 Rises=F Damp=F
 DIIS: error= 2.63D-06 at cycle   4 NSaved=   4.
 NSaved= 4 IEnMin= 4 EnMin= -271.536849090195     IErMin= 4 ErrMin= 2.63D-06
 ErrMax= 2.63D-06  0.00D+00 EMaxC= 1.00D-01 BMatC= 4.49D-10 BMatP= 3.73D-09
 IDIUse=1 WtCom= 1.00D+00 WtEn= 0.00D+00
 Coeff-Com:  0.149D-01-0.103D+00 0.819D-01 0.101D+01
 Coeff:      0.149D-01-0.103D+00 0.819D-01 0.101D+01
 Gap=     0.399 Goal=   None    Shift=    0.000
 RMSDP=4.06D-07 MaxDP=8.44D-06 DE=-1.40D-08 OVMax= 2.39D-05

 Cycle   5  Pass 1  IDiag  1:
 E= -271.536849091158     Delta-E=       -0.000000000963 Rises=F Damp=F
 DIIS: error= 4.57D-07 at cycle   5 NSaved=   5.
 NSaved= 5 IEnMin= 5 EnMin= -271.536849091158     IErMin= 5 ErrMin= 4.57D-07
 ErrMax= 4.57D-07  0.00D+00 EMaxC= 1.00D-01 BMatC= 2.99D-11 BMatP= 4.49D-10
 IDIUse=1 WtCom= 1.00D+00 WtEn= 0.00D+00
 Coeff-Com:  0.321D-02-0.184D-01-0.147D-01 0.198D+00 0.832D+00
 Coeff:      0.321D-02-0.184D-01-0.147D-01 0.198D+00 0.832D+00
 Gap=     0.399 Goal=   None    Shift=    0.000
 RMSDP=8.66D-08 MaxDP=1.81D-06 DE=-9.63D-10 OVMax= 3.23D-06

 Cycle   6  Pass 1  IDiag  1:
 E= -271.536849091173     Delta-E=       -0.000000000015 Rises=F Damp=F
 DIIS: error= 5.38D-07 at cycle   6 NSaved=   6.
 NSaved= 6 IEnMin= 6 EnMin= -271.536849091173     IErMin= 5 ErrMin= 4.57D-07
 ErrMax= 5.38D-07  0.00D+00 EMaxC= 1.00D-01 BMatC= 3.13D-11 BMatP= 2.99D-11
 IDIUse=1 WtCom= 1.00D+00 WtEn= 0.00D+00
 Coeff-Com: -0.321D-03 0.465D-02-0.192D-01-0.415D-01 0.537D+00 0.519D+00
 Coeff:     -0.321D-03 0.465D-02-0.192D-01-0.415D-01 0.537D+00 0.519D+00
 Gap=     0.399 Goal=   None    Shift=    0.000
 RMSDP=4.39D-08 MaxDP=1.06D-06 DE=-1.52D-11 OVMax= 1.74D-06

 Cycle   7  Pass 1  IDiag  1:
 E= -271.536849091203     Delta-E=       -0.000000000030 Rises=F Damp=F
 DIIS: error= 5.03D-08 at cycle   7 NSaved=   7.
 NSaved= 7 IEnMin= 7 EnMin= -271.536849091203     IErMin= 7 ErrMin= 5.03D-08
 ErrMax= 5.03D-08  0.00D+00 EMaxC= 1.00D-01 BMatC= 3.73D-13 BMatP= 2.99D-11
 IDIUse=1 WtCom= 1.00D+00 WtEn= 0.00D+00
 Coeff-Com: -0.314D-03 0.239D-02-0.204D-02-0.302D-01 0.559D-01 0.122D+00
 Coeff-Com:  0.852D+00
 Coeff:     -0.314D-03 0.239D-02-0.204D-02-0.302D-01 0.559D-01 0.122D+00
 Coeff:      0.852D+00
 Gap=     0.399 Goal=   None    Shift=    0.000
 RMSDP=9.67D-09 MaxDP=2.55D-07 DE=-2.96D-11 OVMax= 2.64D-07

 SCF Done:  E(RwB97XD) =  -271.536849091     A.U. after    7 cycles
            NFock=  7  Conv=0.97D-08     -V/T= 2.0084
 KE= 2.692757474150D+02 PE=-1.019132673587D+03 EE= 2.804424597372D+02
 Leave Link  502 at Thu Aug  7 18:40:54 2025, MaxMem=   104857600 cpu:               4.4 elap:               4.4
 (Enter /Applications/g16/l701.exe)
 ... and contract with generalized density number  0.
 Compute integral first derivatives.
 R6Disp: Adding Grimme-D2 dispersion energy 1st derivatives to the gradient.
 Leave Link  701 at Thu Aug  7 18:40:54 2025, MaxMem=   104857600 cpu:               0.0 elap:               0.0
 (Enter /Applications/g16/l702.exe)
 L702 exits ... SP integral derivatives will be done elsewhere.
 Leave Link  702 at Thu Aug  7 18:40:54 2025, MaxMem=   104857600 cpu:               0.0 elap:               0.0
 (Enter /Applications/g16/l703.exe)
 Integral derivatives from FoFJK, PRISM(SPDF).
 Compute integral first derivatives, UseDBF=F ICtDFT=           0.
 Calling FoFJK, ICntrl=      2127 FMM=F ISym2X=0 I1Cent= 0 IOpClX= 0 NMat=1 NMatS=1 NMatT=0.
 FoFJK:  IHMeth= 1 ICntrl=    2127 DoSepK=T KAlg= 0 I1Cent=           0 FoldK=F
 IRaf=         1 NMat=       1 IRICut=       1 DoRegI=T DoRafI=F ISym2E= 0 IDoP0=0 IntGTp=1.
 FoFCou: FMM=F IPFlag=           0 FMFlag=      100000 FMFlg1=         800
         NFxFlg=           0 DoJE=F BraDBF=F KetDBF=F FulRan=T
         wScrn=  0.000000 ICntrl=      2527 IOpCl=  0 I1Cent=           0 NGrid=           0
         NMat0=    1 NMatS0=      1 NMatT0=    0 NMatD0=    1 NMtDS0=    0 NMtDT0=    0
 Symmetry not used in FoFCou.
 Leave Link  703 at Thu Aug  7 18:40:56 2025, MaxMem=   104857600 cpu:               2.3 elap:               2.3
 (Enter /Applications/g16/l716.exe)
 Dipole        =-6.36990529D+00 5.42782043D-01-2.30828103D-04
 ***** Axes restored to original set *****
 -------------------------------------------------------------------
 Center     Atomic                   Forces (Hartrees/Bohr)
 Number     Number              X              Y              Z
 -------------------------------------------------------------------
      1        7           0.000008029    0.000015190    0.000003068
      2        6          -0.000016394   -0.000031047   -0.000006296
      3        6           0.000004783    0.000020005    0.000003471
      4        6          -0.000000681   -0.000006979    0.000000650
      5        6           0.000006738    0.000008084    0.000002435
      6        7          -0.082090232    0.021253878    0.000014534
      7        1           0.000002291   -0.000001205   -0.000000576
      8        1           0.000001075   -0.000000815    0.000000658
      9        1          -0.000003007    0.000001154   -0.000000742
     10        1          -0.000001877    0.000000860    0.000000664
     11        3           0.082089275   -0.021259126   -0.000017867
 -------------------------------------------------------------------
 Cartesian Forces:  Max     0.082090232 RMS     0.020875631
 Leave Link  716 at Thu Aug  7 18:40:56 2025, MaxMem=   104857600 cpu:               0.0 elap:               0.0
 (Enter /Applications/g16/l103.exe)

 GradGradGradGradGradGradGradGradGradGradGradGradGradGradGradGradGradGrad
 Berny optimization.
 Using GEDIIS/GDIIS optimizer.
 FormGI is forming the generalized inverse of G from B-inverse, IUseBI=4.
 GSVD:  received Info=                   1 from GESDD.
 Internal  Forces:  Max     0.084797197 RMS     0.013940575
 Search for a local minimum.
 Step number   3 out of a maximum of   47
 All quantities printed in internal units (Hartrees-Bohrs-Radians)
 RMS Force = .69366D-05 SwitMx=.10000D-02 MixMth= 2
 Mixed Optimization -- En-DIIS/RFO-DIIS
 Swapping is turned off.
 Update second derivatives using D2CorX and points    1    2    3
 DE= -4.46D-07 DEPred=-4.57D-07 R= 9.76D-01
 Trust test= 9.76D-01 RLast= 3.96D-03 DXMaxT set to 1.50D-01
 ITU=  0 -1  0
     Eigenvalues ---    0.00230   0.01919   0.04606   0.04736   0.04876
     Eigenvalues ---    0.04921   0.05288   0.05362   0.05713   0.05799
     Eigenvalues ---    0.06853   0.15925   0.16000   0.16003   0.16337
     Eigenvalues ---    0.22214   0.22785   0.27724   0.34124   0.34135
     Eigenvalues ---    0.34335   0.34353   0.36692   0.37357   1.29700
     Eigenvalues ---    1.305271000.000001000.000001000.000001000.00000
     Eigenvalues --- 1000.000001000.000001000.000001000.000001000.00000
     Eigenvalues --- 1000.000001000.00000
 En-DIIS/RFO-DIIS/Sim-DIIS IScMMF=       -3 using points:     3    2    1
 RFO step:  Lambda=-7.24537004D-06.
 NNeg= 0 NGDIIS= 3 SimSw=  2.50D-03 Rises=F DC= -4.46D-07 SmlDif=  1.00D-05
 NRisDI= 0 DoIntr=F SqrtH=F CThrHd= 10.0 CDAdj=  3.0
 RMS Error=  0.2598020855D-03 NUsed= 3 OKEnD=F EnDIS=F
 InvSVX:  RCond= 1.50D-06 Info=           0 Equed=N FErr=  2.53D-15 BErr=  5.55D-17
 DidBck=T Rises=F RFO-DIIS coefs:    0.12715    0.19259    0.68027
 Iteration  1 RMS(Cart)=  0.00013674 RMS(Int)=  0.00000004
 Iteration  2 RMS(Cart)=  0.00000004 RMS(Int)=  0.00000000
 Iteration  1 RMS(Cart)=  0.00000000 RMS(Int)=  0.00000000
 ITry= 1 IFail=0 DXMaxC= 6.05D-04 DCOld= 1.00D+10 DXMaxT= 1.50D-01 DXLimC= 3.00D+00 Rises=F
 Variable       Old X    -DE/DX   Delta X   Delta X   Delta X     New X
                                 (Linear)    (Quad)   (Total)
    R1        2.18433  -0.00000  -0.00000   0.00000  -0.00000   2.18433
    R2        2.76331   0.00000   0.00001  -0.00001   0.00000   2.76331
    R3        2.92785   0.00000   0.00001  -0.00001   0.00000   2.92785
    R4        2.06760  -0.00000  -0.00001   0.00001  -0.00000   2.06760
    R5        2.06760  -0.00000  -0.00001   0.00001  -0.00000   2.06760
    R6        2.75359   0.00000   0.00001  -0.00000   0.00000   2.75360
    R7        2.07102  -0.00000   0.00001  -0.00001  -0.00000   2.07102
    R8        2.07102  -0.00000   0.00001  -0.00000   0.00000   2.07102
    R9        2.18661   0.00000   0.00000  -0.00000   0.00000   2.18661
   R10        3.02356   0.08480   0.00000   0.00000   0.00000   3.02356
    A1        1.90547   0.00001   0.00001  -0.00000   0.00001   1.90548
    A2        1.90488  -0.00001   0.00001  -0.00001  -0.00001   1.90487
    A3        1.90488  -0.00001   0.00001  -0.00001  -0.00001   1.90487
    A4        1.93101  -0.00000  -0.00002   0.00002  -0.00000   1.93101
    A5        1.93101  -0.00000  -0.00002   0.00002  -0.00000   1.93101
    A6        1.88621   0.00000   0.00002  -0.00002   0.00000   1.88621
    A7        1.95454   0.00001   0.00004  -0.00004   0.00000   1.95454
    A8        1.93484  -0.00000  -0.00002   0.00002  -0.00000   1.93484
    A9        1.93484  -0.00000  -0.00002   0.00002  -0.00000   1.93484
   A10        1.87988  -0.00000   0.00000  -0.00001  -0.00000   1.87988
   A11        1.87986  -0.00000   0.00002  -0.00002  -0.00000   1.87986
   A12        1.87681   0.00000  -0.00002   0.00003   0.00000   1.87681
   A13        3.11406  -0.00003  -0.00047  -0.00001  -0.00048   3.11358
   A14        3.13731  -0.00001  -0.00014   0.00010  -0.00004   3.13727
   A15        3.17644  -0.00000   0.00002  -0.00002  -0.00001   3.17644
   A16        3.15647   0.00001   0.00015   0.00000   0.00015   3.15662
   A17        3.14405   0.00000   0.00015  -0.00014   0.00001   3.14407
   A18        3.11414   0.00001  -0.00010   0.00013   0.00002   3.11416
    D1        3.14159   0.00000   0.00002  -0.00001   0.00000   3.14159
    D2       -1.04154   0.00000   0.00003  -0.00004  -0.00000  -1.04154
    D3        1.04155   0.00000  -0.00002   0.00002   0.00000   1.04155
    D4       -1.04495   0.00000   0.00002  -0.00002   0.00000  -1.04495
    D5        1.05511   0.00000   0.00004  -0.00004  -0.00000   1.05511
    D6        3.13821   0.00000  -0.00002   0.00002   0.00000   3.13821
    D7        1.04493  -0.00000   0.00001  -0.00001   0.00000   1.04494
    D8       -3.13819  -0.00000   0.00003  -0.00003  -0.00000  -3.13819
    D9       -1.05510  -0.00000  -0.00003   0.00003   0.00000  -1.05510
         Item               Value     Threshold  Converged?
 Maximum Force            0.000034     0.000450     YES
 RMS     Force            0.000007     0.000300     YES
 Maximum Displacement     0.000605     0.001800     YES
 RMS     Displacement     0.000137     0.001200     YES
 Predicted change in Energy=-1.502347D-08
 Optimization completed.
    -- Stationary point found.
                           ----------------------------
                           !   Optimized Parameters   !
                           ! (Angstroms and Degrees)  !
 --------------------------                            --------------------------
 ! Name  Definition              Value          Derivative Info.                !
 --------------------------------------------------------------------------------
 ! R1    R(1,2)                  1.1559         -DE/DX =    0.0                 !
 ! R2    R(2,3)                  1.4623         -DE/DX =    0.0                 !
 ! R3    R(3,4)                  1.5493         -DE/DX =    0.0                 !
 ! R4    R(3,9)                  1.0941         -DE/DX =    0.0                 !
 ! R5    R(3,10)                 1.0941         -DE/DX =    0.0                 !
 ! R6    R(4,5)                  1.4571         -DE/DX =    0.0                 !
 ! R7    R(4,7)                  1.0959         -DE/DX =    0.0                 !
 ! R8    R(4,8)                  1.0959         -DE/DX =    0.0                 !
 ! R9    R(5,6)                  1.1571         -DE/DX =    0.0                 !
 ! R10   R(6,11)                 1.6            -DE/DX =    0.0848              !
 ! A1    A(2,3,4)              109.1752         -DE/DX =    0.0                 !
 ! A2    A(2,3,9)              109.1415         -DE/DX =    0.0                 !
 ! A3    A(2,3,10)             109.1416         -DE/DX =    0.0                 !
 ! A4    A(4,3,9)              110.6389         -DE/DX =    0.0                 !
 ! A5    A(4,3,10)             110.6388         -DE/DX =    0.0                 !
 ! A6    A(9,3,10)             108.0721         -DE/DX =    0.0                 !
 ! A7    A(3,4,5)              111.9869         -DE/DX =    0.0                 !
 ! A8    A(3,4,7)              110.8583         -DE/DX =    0.0                 !
 ! A9    A(3,4,8)              110.8584         -DE/DX =    0.0                 !
 ! A10   A(5,4,7)              107.7094         -DE/DX =    0.0                 !
 ! A11   A(5,4,8)              107.708          -DE/DX =    0.0                 !
 ! A12   A(7,4,8)              107.5331         -DE/DX =    0.0                 !
 ! A13   L(1,2,3,8,-1)         178.4226         -DE/DX =    0.0                 !
 ! A14   L(4,5,6,9,-1)         179.7545         -DE/DX =    0.0                 !
 ! A15   L(5,6,11,9,-1)        181.9968         -DE/DX =    0.0                 !
 ! A16   L(1,2,3,8,-2)         180.8527         -DE/DX =    0.0                 !
 ! A17   L(4,5,6,9,-2)         180.141          -DE/DX =    0.0                 !
 ! A18   L(5,6,11,9,-2)        178.427          -DE/DX =    0.0                 !
 ! D1    D(2,3,4,5)            179.9996         -DE/DX =    0.0                 !
 ! D2    D(2,3,4,7)            -59.6757         -DE/DX =    0.0                 !
 ! D3    D(2,3,4,8)             59.6767         -DE/DX =    0.0                 !
 ! D4    D(9,3,4,5)            -59.8711         -DE/DX =    0.0                 !
 ! D5    D(9,3,4,7)             60.4536         -DE/DX =    0.0                 !
 ! D6    D(9,3,4,8)            179.8059         -DE/DX =    0.0                 !
 ! D7    D(10,3,4,5)            59.8703         -DE/DX =    0.0                 !
 ! D8    D(10,3,4,7)          -179.805          -DE/DX =    0.0                 !
 ! D9    D(10,3,4,8)           -60.4526         -DE/DX =    0.0                 !
 --------------------------------------------------------------------------------
 Lowest energy point so far.  Saving SCF results.
 Largest change from initial coordinates is atom    1       0.000 Angstoms.
 GradGradGradGradGradGradGradGradGradGradGradGradGradGradGradGradGradGrad

 Leave Link  103 at Thu Aug  7 18:40:56 2025, MaxMem=   104857600 cpu:               0.0 elap:               0.0
 (Enter /Applications/g16/l202.exe)
                          Input orientation:                          
 ---------------------------------------------------------------------
 Center     Atomic      Atomic             Coordinates (Angstroms)
 Number     Number       Type             X           Y           Z
 ---------------------------------------------------------------------
      1          7           0       -2.967204    0.265302   -0.000202
      2          6           0       -1.887981   -0.148677   -0.000044
      3          6           0       -0.507569   -0.631096    0.000036
      4          6           0        0.455620    0.582473    0.000103
      5          6           0        1.853104    0.169804    0.000193
      6          7           0        2.961284   -0.163109    0.000300
      7          1           0        0.293253    1.209574   -0.883897
      8          1           0        0.293160    1.209553    0.884100
      9          1           0       -0.344700   -1.252676   -0.885532
     10          1           0       -0.344805   -1.252687    0.885615
     11          3           0        4.510202   -0.564174   -0.000082
 ---------------------------------------------------------------------
                    Distance matrix (angstroms):
                    1          2          3          4          5
     1  N    0.000000
     2  C    1.155899   0.000000
     3  C    2.617887   1.462280   0.000000
     4  C    3.437488   2.455004   1.549350   0.000000
     5  C    4.821254   3.754616   2.492833   1.457139   0.000000
     6  N    5.943947   4.849286   3.500279   2.614238   1.157106
     7  H    3.507585   2.717320   2.193336   1.095935   2.072648
     8  H    3.507645   2.717329   2.193337   1.095935   2.072630
     9  H    3.156833   2.093947   1.094129   2.189208   2.763747
    10  H    3.156888   2.093949   1.094129   2.189207   2.763739
    11  Li   7.523273   6.411659   5.018217   4.213601   2.756609
                    6          7          8          9         10
     6  N    0.000000
     7  H    3.128011   0.000000
     8  H    3.127969   1.767997   0.000000
     9  H    3.591850   2.543553   3.098554   0.000000
    10  H    3.591822   3.098552   2.543547   1.771147   0.000000
    11  Li   1.600000   4.659395   4.659542   4.982783   4.982931
                   11
    11  Li   0.000000
 Stoichiometry    C4H4LiN2(1+)
 Framework group  C1[X(C4H4LiN2)]
 Deg. of freedom    27
 Full point group                 C1      NOp   1
 RotChk:  IX=0 Diff= 5.42D-16
 Largest Abelian subgroup         C1      NOp   1
 Largest concise Abelian subgroup C1      NOp   1
                         Standard orientation:                         
 ---------------------------------------------------------------------
 Center     Atomic      Atomic             Coordinates (Angstroms)
 Number     Number       Type             X           Y           Z
 ---------------------------------------------------------------------
      1          7           0        3.261377   -0.177950   -0.000257
      2          6           0        2.168255    0.197798   -0.000099
      3          6           0        0.771723    0.631345   -0.000018
      4          6           0       -0.148168   -0.615365    0.000048
      5          6           0       -1.559306   -0.252126    0.000139
      6          7           0       -2.678514    0.041587    0.000246
      7          1           0        0.036165   -1.236365   -0.883952
      8          1           0        0.036258   -1.236341    0.884046
      9          1           0        0.587083    1.246809   -0.885586
     10          1           0        0.587187    1.246824    0.885560
     11          3           0       -4.240586    0.387901   -0.000137
 ---------------------------------------------------------------------
 Rotational constants (GHZ):          23.5811337           1.0704946           1.0372742
 Leave Link  202 at Thu Aug  7 18:40:57 2025, MaxMem=   104857600 cpu:               0.0 elap:               0.0
 (Enter /Applications/g16/l601.exe)
 Copying SCF densities to generalized density rwf, IOpCl= 0 IROHF=0.

 **********************************************************************

            Population analysis using the SCF Density.

 **********************************************************************

 Orbital symmetries:
       Occupied  (A) (A) (A) (A) (A) (A) (A) (A) (A) (A) (A) (A)
                 (A) (A) (A) (A) (A) (A) (A) (A) (A) (A)
       Virtual   (A) (A) (A) (A) (A) (A) (A) (A) (A) (A) (A) (A)
                 (A) (A) (A) (A) (A) (A) (A) (A) (A) (A) (A) (A)
                 (A) (A) (A) (A) (A) (A) (A) (A) (A) (A) (A) (A)
                 (A) (A) (A) (A) (A) (A) (A) (A) (A) (A) (A) (A)
                 (A) (A) (A) (A) (A) (A) (A) (A) (A) (A) (A) (A)
                 (A) (A) (A) (A) (A) (A) (A) (A) (A) (A) (A) (A)
                 (A) (A) (A) (A) (A) (A) (A) (A) (A) (A) (A) (A)
                 (A) (A) (A) (A) (A) (A) (A)
 The electronic state is 1-A.
 Alpha  occ. eigenvalues --  -14.67412 -14.57878 -10.58856 -10.53402 -10.51254
 Alpha  occ. eigenvalues --  -10.46467  -2.31813  -1.24038  -1.13453  -1.09547
 Alpha  occ. eigenvalues --   -0.97859  -0.80808  -0.76128  -0.75711  -0.72388
 Alpha  occ. eigenvalues --   -0.69340  -0.67721  -0.63843  -0.62719  -0.56441
 Alpha  occ. eigenvalues --   -0.53763  -0.53392
 Alpha virt. eigenvalues --   -0.13474  -0.13409  -0.12915  -0.06812  -0.06460
 Alpha virt. eigenvalues --   -0.06273  -0.01342  -0.00589   0.04210   0.04812
 Alpha virt. eigenvalues --    0.05111   0.06102   0.07664   0.08930   0.10364
 Alpha virt. eigenvalues --    0.13046   0.14499   0.14641   0.20535   0.28230
 Alpha virt. eigenvalues --    0.33801   0.36790   0.36792   0.38874   0.41302
 Alpha virt. eigenvalues --    0.47251   0.47376   0.49305   0.51124   0.52759
 Alpha virt. eigenvalues --    0.54241   0.59922   0.60037   0.64017   0.65775
 Alpha virt. eigenvalues --    0.69666   0.73639   0.74437   0.77098   0.77780
 Alpha virt. eigenvalues --    0.80637   0.82520   0.84186   0.86071   0.90187
 Alpha virt. eigenvalues --    0.93865   0.96348   1.01662   1.03494   1.09090
 Alpha virt. eigenvalues --    1.11051   1.29220   1.30339   1.31869   1.37702
 Alpha virt. eigenvalues --    1.38890   1.42400   1.45345   1.47769   1.51116
 Alpha virt. eigenvalues --    1.62132   1.64627   1.69256   1.76941   1.77850
 Alpha virt. eigenvalues --    1.81472   1.85434   1.88576   1.88991   1.91488
 Alpha virt. eigenvalues --    1.94123   1.97476   2.13260   2.13551   2.17091
 Alpha virt. eigenvalues --    2.26102   2.36204   2.60307   2.66751   2.72718
 Alpha virt. eigenvalues --    2.75891   2.77561   2.84055   3.10973   3.23189
 Alpha virt. eigenvalues --    3.99922   4.02849   4.08240   4.17153   4.47075
 Alpha virt. eigenvalues --    4.68749
          Condensed to atoms (all electrons):
               1          2          3          4          5          6
     1  N    6.622945   0.857091  -0.081018  -0.000712  -0.000065  -0.000000
     2  C    0.857091   4.603203   0.278735  -0.038934   0.004028  -0.000029
     3  C   -0.081018   0.278735   5.225145   0.304991  -0.033716  -0.001438
     4  C   -0.000712  -0.038934   0.304991   5.237249   0.289079  -0.058959
     5  C   -0.000065   0.004028  -0.033716   0.289079   4.618508   0.604855
     6  N   -0.000000  -0.000029  -0.001438  -0.058959   0.604855   6.885059
     7  H    0.000312  -0.001691  -0.025732   0.375437  -0.032881  -0.001456
     8  H    0.000312  -0.001692  -0.025731   0.375432  -0.032878  -0.001456
     9  H   -0.000555  -0.026919   0.377622  -0.031561  -0.003674   0.000094
    10  H   -0.000554  -0.026917   0.377618  -0.031559  -0.003675   0.000094
    11  Li  -0.000007  -0.000155   0.000679  -0.000550  -0.048573   0.220909
               7          8          9         10         11
     1  N    0.000312   0.000312  -0.000555  -0.000554  -0.000007
     2  C   -0.001691  -0.001692  -0.026919  -0.026917  -0.000155
     3  C   -0.025732  -0.025731   0.377622   0.377618   0.000679
     4  C    0.375437   0.375432  -0.031561  -0.031559  -0.000550
     5  C   -0.032881  -0.032878  -0.003674  -0.003675  -0.048573
     6  N   -0.001456  -0.001456   0.000094   0.000094   0.220909
     7  H    0.402823  -0.016328  -0.002227   0.002619   0.000367
     8  H   -0.016328   0.402823   0.002619  -0.002227   0.000366
     9  H   -0.002227   0.002619   0.439311  -0.020335   0.000455
    10  H    0.002619  -0.002227  -0.020335   0.439310   0.000455
    11  Li   0.000367   0.000366   0.000455   0.000455   2.083689
 Mulliken charges:
               1
     1  N   -0.397750
     2  C    0.353280
     3  C   -0.397154
     4  C   -0.419912
     5  C    0.638991
     6  N   -0.647673
     7  H    0.298757
     8  H    0.298759
     9  H    0.265169
    10  H    0.265170
    11  Li   0.742363
 Sum of Mulliken charges =   1.00000
 Mulliken charges with hydrogens summed into heavy atoms:
               1
     1  N   -0.397750
     2  C    0.353280
     3  C    0.133185
     4  C    0.177604
     5  C    0.638991
     6  N   -0.647673
    11  Li   0.742363
 Electronic spatial extent (au):  <R**2>=            894.6697
 Charge=              1.0000 electrons
 Dipole moment (field-independent basis, Debye):
    X=            -16.1907    Y=              1.3796    Z=             -0.0006  Tot=             16.2494
 Quadrupole moment (field-independent basis, Debye-Ang):
   XX=             17.4216   YY=            -30.4401   ZZ=            -32.3808
   XY=             -4.0960   XZ=              0.0052   YZ=             -0.0006
 Traceless Quadrupole moment (field-independent basis, Debye-Ang):
   XX=             32.5547   YY=            -15.3070   ZZ=            -17.2477
   XY=             -4.0960   XZ=              0.0052   YZ=             -0.0006
 Octapole moment (field-independent basis, Debye-Ang**2):
  XXX=           -360.2968  YYY=              1.3549  ZZZ=             -0.0007  XYY=             -8.6321
  XXY=             35.6743  XXZ=             -0.0122  XZZ=             -5.8299  YZZ=              0.1963
  YYZ=             -0.0003  XYZ=              0.0010
 Hexadecapole moment (field-independent basis, Debye-Ang**3):
 XXXX=            206.2855 YYYY=            -78.9455 ZZZZ=            -41.4250 XXXY=           -123.3767
 XXXZ=              0.1087 YYYX=             -7.6963 YYYZ=              0.0006 ZZZX=              0.0316
 ZZZY=              0.0003 XXYY=           -160.9047 XXZZ=           -166.8534 YYZZ=            -16.5261
 XXYZ=             -0.0063 YYXZ=              0.0112 ZZXY=             -1.9344
 N-N= 1.978776173439D+02 E-N=-1.019132674743D+03  KE= 2.692757474150D+02
 No NMR shielding tensors so no spin-rotation constants.
 Leave Link  601 at Thu Aug  7 18:40:57 2025, MaxMem=   104857600 cpu:               0.0 elap:               0.0
 (Enter /Applications/g16/l9999.exe)
 Unable to Open any file for archive entry.
 1\1\GINC-MBPSRAK\FOpt\RwB97XD\6-31G(d)\C4H4Li1N2(1+)\SRAK\07-Aug-2025\
 0\\#p opt=modredundant wb97xd/6-31g(d)\\Gaussian input prepared by ASE
 \\1,1\N,-2.9672043726,0.2653023388,-0.0002024075\C,-1.8879806944,-0.14
 8677153,-0.0000442248\C,-0.507569326,-0.6310961546,0.0000360202\C,0.45
 56202906,0.5824731866,0.000102569\C,1.8531035676,0.1698042064,0.000193
 1024\N,2.9612837088,-0.1631092499,0.0003003005\H,0.2932534246,1.209574
 4385,-0.883897173\H,0.2931599064,1.2095534413,0.8840999992\H,-0.344700
 254,-1.2526758394,-0.8855317735\H,-0.3448048077,-1.2526873767,0.885614
 8891\Li,4.5102017865,-0.5641736382,-0.0000823018\\Version=Apple M1-G16
 RevC.02\State=1-A\HF=-271.5368491\RMSD=9.666e-09\RMSF=2.088e-02\Dipole
 =6.3468614,-0.766587,-0.0002308\Quadrupole=23.9453895,-11.122159,-12.8
 232305,-4.2890556,-0.0038167,0.0005535\PG=C01 [X(C4H4Li1N2)]\\@
 The archive entry for this job was punched.


 IT IS BY LOGIC THAT WE PROVE, BUT BY INTUITION THAT WE DISCOVER.
     -- J.H.POINCARE (1854-1912)
 Job cpu time:       0 days  0 hours  0 minutes 25.7 seconds.
 Elapsed time:       0 days  0 hours  0 minutes 25.7 seconds.
 File lengths (MBytes):  RWF=     10 Int=      0 D2E=      0 Chk=      2 Scr=      1
 Normal termination of Gaussian 16 at Thu Aug  7 18:40:57 2025.
