#p opt=modredundant wb97xd/6-31g(d)

Gaussian input prepared by ASE

1 1
 N                 -2.96697900    0.26569300   -0.00077900
 C                 -1.88800000   -0.14892000    0.00022100
 C                 -0.50753100   -0.63119300    0.00015000
 C                  0.45556400    0.58246300    0.00018200
 C                  1.85311200    0.16999500    0.00015700
 N                  2.96124600   -0.16307700    0.00025600
 H                  0.29303900    1.20957600   -0.88378600
 H                  0.29305000    1.20951400    0.88419500
 H                 -0.34464200   -1.25271300   -0.88545200
 H                 -0.34462500   -1.25277400    0.88570300
 Li                 4.51012923   -0.56427580   -0.00025800

B 6 11 F

