 Entering Gaussian System, Link 0=g16
 Initial command:
 /Applications/g16/l1.exe "/Users/srak/g16_scratch/Gau-95634.inp" -scrdir="/Users/srak/g16_scratch/"
 Entering Link 1 = /Applications/g16/l1.exe PID=     95635.
  
 Copyright (c) 1988-2021, Gaussian, Inc.  All Rights Reserved.
  
 This is part of the Gaussian(R) 16 program.  It is based on
 the Gaussian(R) 09 system (copyright 2009, Gaussian, Inc.),
 the Gaussian(R) 03 system (copyright 2003, Gaussian, Inc.),
 the Gaussian(R) 98 system (copyright 1998, Gaussian, Inc.),
 the Gaussian(R) 94 system (copyright 1995, Gaussian, Inc.),
 the Gaussian 92(TM) system (copyright 1992, Gaussian, Inc.),
 the Gaussian 90(TM) system (copyright 1990, Gaussian, Inc.),
 the Gaussian 88(TM) system (copyright 1988, Gaussian, Inc.),
 the Gaussian 86(TM) system (copyright 1986, Carnegie Mellon
 University), and the Gaussian 82(TM) system (copyright 1983,
 Carnegie Mellon University). Gaussian is a federally registered
 trademark of Gaussian, Inc.
  
 This software contains proprietary and confidential information,
 including trade secrets, belonging to Gaussian, Inc.
  
 This software is provided under written license and may be
 used, copied, transmitted, or stored only in accord with that
 written license.
  
 The following legend is applicable only to US Government
 contracts under FAR:
  
                    RESTRICTED RIGHTS LEGEND
  
 Use, reproduction and disclosure by the US Government is
 subject to restrictions as set forth in subparagraphs (a)
 and (c) of the Commercial Computer Software - Restricted
 Rights clause in FAR 52.227-19.
  
 Gaussian, Inc.
 340 Quinnipiac St., Bldg. 40, Wallingford CT 06492
  
  
 ---------------------------------------------------------------
 Warning -- This program may not be used in any manner that
 competes with the business of Gaussian, Inc. or will provide
 assistance to any competitor of Gaussian, Inc.  The licensee
 of this program is prohibited from giving any competitor of
 Gaussian, Inc. access to this program.  By using this program,
 the user acknowledges that Gaussian, Inc. is engaged in the
 business of creating and licensing software in the field of
 computational chemistry and represents and warrants to the
 licensee that it is not a competitor of Gaussian, Inc. and that
 it will not use this program in any manner prohibited above.
 ---------------------------------------------------------------
  

 Cite this work as:
 Gaussian 16, Revision C.02,
 M. J. Frisch, G. W. Trucks, H. B. Schlegel, G. E. Scuseria, 
 M. A. Robb, J. R. Cheeseman, G. Scalmani, V. Barone, 
 G. A. Petersson, H. Nakatsuji, X. Li, M. Caricato, A. V. Marenich, 
 J. Bloino, B. G. Janesko, R. Gomperts, B. Mennucci, H. P. Hratchian, 
 J. V. Ortiz, A. F. Izmaylov, J. L. Sonnenberg, D. Williams-Young, 
 F. Ding, F. Lipparini, F. Egidi, J. Goings, B. Peng, A. Petrone, 
 T. Henderson, D. Ranasinghe, V. G. Zakrzewski, J. Gao, N. Rega, 
 G. Zheng, W. Liang, M. Hada, M. Ehara, K. Toyota, R. Fukuda, 
 J. Hasegawa, M. Ishida, T. Nakajima, Y. Honda, O. Kitao, H. Nakai, 
 T. Vreven, K. Throssell, J. A. Montgomery, Jr., J. E. Peralta, 
 F. Ogliaro, M. J. Bearpark, J. J. Heyd, E. N. Brothers, K. N. Kudin, 
 V. N. Staroverov, T. A. Keith, R. Kobayashi, J. Normand, 
 K. Raghavachari, A. P. Rendell, J. C. Burant, S. S. Iyengar, 
 J. Tomasi, M. Cossi, J. M. Millam, M. Klene, C. Adamo, R. Cammi, 
 J. W. Ochterski, R. L. Martin, K. Morokuma, O. Farkas, 
 J. B. Foresman, and D. J. Fox, Gaussian, Inc., Wallingford CT, 2019.
 
 *********************************************
 Gaussian 16:  Apple M1-G16RevC.02  7-Dec-2021
                   6-Aug-2025 
 *********************************************
 ------------------------------------
 #P wb97xd/6-31g(d) opt(modredundant)
 ------------------------------------
 1/18=120,19=15,26=3,38=1/1,3;
 2/9=110,12=2,17=6,18=5,40=1/2;
 3/5=1,6=6,7=1,11=2,25=1,30=1,71=1,74=-58/1,2,3;
 4//1;
 5/5=2,38=5/2;
 6/7=2,8=2,9=2,10=2,28=1/1;
 7//1,2,3,16;
 1/18=20,19=15,26=3/3(2);
 2/9=110/2;
 99//99;
 2/9=110/2;
 3/5=1,6=6,7=1,11=2,25=1,30=1,71=1,74=-58/1,2,3;
 4/5=5,16=3,69=1/1;
 5/5=2,38=5/2;
 7//1,2,3,16;
 1/18=20,19=15,26=3/3(-5);
 2/9=110/2;
 6/7=2,8=2,9=2,10=2,19=2,28=1/1;
 99/9=1/99;
 Leave Link    1 at Wed Aug  6 21:39:32 2025, MaxMem=           0 cpu:               0.0 elap:               0.0
 (Enter /Applications/g16/l101.exe)
 ------------------------------
 Gaussian input prepared by ASE
 ------------------------------
 Symbolic Z-matrix:
 Charge =  1 Multiplicity = 1
 N                    -2.97379   0.25761   0.00021 
 C                    -1.89139  -0.14844  -0.00009 
 C                    -0.50785  -0.62346   0.00011 
 C                     0.45778   0.58437  -0.00015 
 C                     1.85756   0.16132   0. 
 N                     2.96164  -0.1774    0.00014 
 H                     0.29189   1.21036  -0.88303 
 H                     0.29185   1.21078   0.88242 
 H                    -0.34454  -1.24682  -0.88417 
 H                    -0.34462  -1.24638   0.88472 
 Li                    5.87247  -0.90339   0.00096 
 
 Add virtual bond connecting atoms Li11       and N6         Dist= 5.67D+00.
 The following ModRedundant input section has been read:
 B       6      11 F                                                           
 
 ITRead=  0  0  0  0  0  0  0  0  0  0  0
 MicOpt= -1 -1 -1 -1 -1 -1 -1 -1 -1 -1 -1
 NAtoms=     11 NQM=       11 NQMF=       0 NMMI=      0 NMMIF=      0
                NMic=       0 NMicF=      0.
                    Isotopes and Nuclear Properties:
 (Nuclear quadrupole moments (NQMom) in fm**2, nuclear magnetic moments (NMagM)
  in nuclear magnetons)

  Atom         1           2           3           4           5           6           7           8           9          10
 IAtWgt=          14          12          12          12          12          14           1           1           1           1
 AtmWgt=  14.0030740  12.0000000  12.0000000  12.0000000  12.0000000  14.0030740   1.0078250   1.0078250   1.0078250   1.0078250
 NucSpn=           2           0           0           0           0           2           1           1           1           1
 AtZEff=  -0.0000000  -0.0000000  -0.0000000  -0.0000000  -0.0000000  -0.0000000  -0.0000000  -0.0000000  -0.0000000  -0.0000000
 NQMom=    2.0440000   0.0000000   0.0000000   0.0000000   0.0000000   2.0440000   0.0000000   0.0000000   0.0000000   0.0000000
 NMagM=    0.4037610   0.0000000   0.0000000   0.0000000   0.0000000   0.4037610   2.7928460   2.7928460   2.7928460   2.7928460
 AtZNuc=   7.0000000   6.0000000   6.0000000   6.0000000   6.0000000   7.0000000   1.0000000   1.0000000   1.0000000   1.0000000

  Atom        11
 IAtWgt=           7
 AtmWgt=   7.0160045
 NucSpn=           3
 AtZEff=  -0.0000000
 NQMom=   -4.0100000
 NMagM=    3.2564240
 AtZNuc=   3.0000000
 Leave Link  101 at Wed Aug  6 21:39:32 2025, MaxMem=   104857600 cpu:               0.0 elap:               0.0
 (Enter /Applications/g16/l103.exe)

 GradGradGradGradGradGradGradGradGradGradGradGradGradGradGradGradGradGrad
 Berny optimization.
 Initialization pass.
                           ----------------------------
                           !    Initial Parameters    !
                           ! (Angstroms and Degrees)  !
 --------------------------                            --------------------------
 ! Name  Definition              Value          Derivative Info.                !
 --------------------------------------------------------------------------------
 ! R1    R(1,2)                  1.1561         estimate D2E/DX2                !
 ! R2    R(2,3)                  1.4628         estimate D2E/DX2                !
 ! R3    R(3,4)                  1.5464         estimate D2E/DX2                !
 ! R4    R(3,9)                  1.0942         estimate D2E/DX2                !
 ! R5    R(3,10)                 1.0942         estimate D2E/DX2                !
 ! R6    R(4,5)                  1.4623         estimate D2E/DX2                !
 ! R7    R(4,7)                  1.0949         estimate D2E/DX2                !
 ! R8    R(4,8)                  1.0949         estimate D2E/DX2                !
 ! R9    R(5,6)                  1.1549         estimate D2E/DX2                !
 ! R10   R(6,11)                 3.0            Frozen                          !
 ! A1    A(2,3,4)              109.6923         estimate D2E/DX2                !
 ! A2    A(2,3,9)              109.03           estimate D2E/DX2                !
 ! A3    A(2,3,10)             109.0312         estimate D2E/DX2                !
 ! A4    A(4,3,9)              110.5882         estimate D2E/DX2                !
 ! A5    A(4,3,10)             110.5881         estimate D2E/DX2                !
 ! A6    A(9,3,10)             107.865          estimate D2E/DX2                !
 ! A7    A(3,4,5)              111.8254         estimate D2E/DX2                !
 ! A8    A(3,4,7)              110.6146         estimate D2E/DX2                !
 ! A9    A(3,4,8)              110.6149         estimate D2E/DX2                !
 ! A10   A(5,4,7)              108.0897         estimate D2E/DX2                !
 ! A11   A(5,4,8)              108.089          estimate D2E/DX2                !
 ! A12   A(7,4,8)              107.4526         estimate D2E/DX2                !
 ! A13   L(1,2,3,7,-1)         178.5306         estimate D2E/DX2                !
 ! A14   L(4,5,6,9,-1)         179.7815         estimate D2E/DX2                !
 ! A15   L(5,6,11,10,-1)       182.766          estimate D2E/DX2                !
 ! A16   L(1,2,3,7,-2)         179.1745         estimate D2E/DX2                !
 ! A17   L(4,5,6,9,-2)         180.1249         estimate D2E/DX2                !
 ! A18   L(5,6,11,10,-2)       182.1914         estimate D2E/DX2                !
 ! D1    D(2,3,4,5)           -179.9984         estimate D2E/DX2                !
 ! D2    D(2,3,4,7)            -59.4669         estimate D2E/DX2                !
 ! D3    D(2,3,4,8)             59.4708         estimate D2E/DX2                !
 ! D4    D(9,3,4,5)            -59.7078         estimate D2E/DX2                !
 ! D5    D(9,3,4,7)             60.8237         estimate D2E/DX2                !
 ! D6    D(9,3,4,8)            179.7615         estimate D2E/DX2                !
 ! D7    D(10,3,4,5)            59.7096         estimate D2E/DX2                !
 ! D8    D(10,3,4,7)          -179.7589         estimate D2E/DX2                !
 ! D9    D(10,3,4,8)           -60.8211         estimate D2E/DX2                !
 --------------------------------------------------------------------------------
 Trust Radius=3.00D-01 FncErr=1.00D-07 GrdErr=1.00D-06 EigMax=2.50D+02 EigMin=1.00D-04
 Number of steps in this run=     47 maximum allowed number of steps=    100.
 GradGradGradGradGradGradGradGradGradGradGradGradGradGradGradGradGradGrad

 Leave Link  103 at Wed Aug  6 21:39:32 2025, MaxMem=   104857600 cpu:               0.0 elap:               0.0
 (Enter /Applications/g16/l202.exe)
                          Input orientation:                          
 ---------------------------------------------------------------------
 Center     Atomic      Atomic             Coordinates (Angstroms)
 Number     Number       Type             X           Y           Z
 ---------------------------------------------------------------------
      1          7           0       -2.973790    0.257615    0.000214
      2          6           0       -1.891386   -0.148441   -0.000091
      3          6           0       -0.507852   -0.623457    0.000110
      4          6           0        0.457776    0.584371   -0.000150
      5          6           0        1.857559    0.161323    0.000000
      6          7           0        2.961636   -0.177403    0.000144
      7          1           0        0.291892    1.210356   -0.883031
      8          1           0        0.291845    1.210781    0.882420
      9          1           0       -0.344538   -1.246824   -0.884167
     10          1           0       -0.344618   -1.246376    0.884719
     11          3           0        5.872468   -0.903389    0.000964
 ---------------------------------------------------------------------
                    Distance matrix (angstroms):
                    1          2          3          4          5
     1  N    0.000000
     2  C    1.156062   0.000000
     3  C    2.618614   1.462808   0.000000
     4  C    3.447088   2.460808   1.546378   0.000000
     5  C    4.832308   3.761721   2.492198   1.462314   0.000000
     6  N    5.951346   4.853108   3.498044   2.617177   1.154869
     7  H    3.514615   2.718936   2.186870   1.094922   2.081232
     8  H    3.514425   2.718972   2.186873   1.094921   2.081223
     9  H    3.155698   2.093030   1.094168   2.185971   2.759322
    10  H    3.155453   2.093046   1.094169   2.185970   2.759335
    11  Li   8.922119   7.800473   6.386458   5.615365   4.153686
                    6          7          8          9         10
     6  N    0.000000
     7  H    3.135826   0.000000
     8  H    3.135801   1.765451   0.000000
     9  H    3.585590   2.538263   3.092836   0.000000
    10  H    3.585595   3.092833   2.538250   1.768886   0.000000
    11  Li   3.000000   6.032594   6.032415   6.289083   6.288945
                   11
    11  Li   0.000000
 Stoichiometry    C4H4LiN2(1+)
 Framework group  C1[X(C4H4LiN2)]
 Deg. of freedom    27
 Full point group                 C1      NOp   1
 Largest Abelian subgroup         C1      NOp   1
 Largest concise Abelian subgroup C1      NOp   1
                         Standard orientation:                         
 ---------------------------------------------------------------------
 Center     Atomic      Atomic             Coordinates (Angstroms)
 Number     Number       Type             X           Y           Z
 ---------------------------------------------------------------------
      1          7           0        3.362586    0.104930   -0.000320
      2          6           0        2.257367   -0.234143    0.000143
      3          6           0        0.847363   -0.623624    0.000130
      4          6           0       -0.042560    0.641019    0.000065
      5          6           0       -1.465603    0.304404    0.000088
      6          7           0       -2.588336    0.033860    0.000083
      7          1           0        0.161358    1.255943    0.882754
      8          1           0        0.161338    1.255844   -0.882697
      9          1           0        0.646263   -1.235571    0.884598
     10          1           0        0.646278   -1.235649   -0.884288
     11          3           0       -5.538131   -0.512679   -0.000422
 ---------------------------------------------------------------------
 Rotational constants (GHZ):          22.2120919           0.8923173           0.8671201
 Leave Link  202 at Wed Aug  6 21:39:32 2025, MaxMem=   104857600 cpu:               0.0 elap:               0.0
 (Enter /Applications/g16/l301.exe)
 Standard basis: 6-31G(d) (6D, 7F)
 Ernie: Thresh=  0.10000D-02 Tol=  0.10000D-05 Strict=F.
 There are   113 symmetry adapted cartesian basis functions of A   symmetry.
 There are   113 symmetry adapted basis functions of A   symmetry.
   113 basis functions,   212 primitive gaussians,   113 cartesian basis functions
    22 alpha electrons       22 beta electrons
       nuclear repulsion energy       191.6661064264 Hartrees.
 IExCor= 4639 DFT=T Ex+Corr=wB97XD ExCW=0 ScaHFX=  1.000000
 ScaDFX=  1.000000  1.000000  1.000000  1.000000 ScalE2=  1.000000  1.000000
 IRadAn=      5 IRanWt=     -1 IRanGd=            0 ICorTp=0 IEmpDi=121
 HFx  wShort=  0.000000 wLong=  0.200000 cFull=  0.222036 cShort=  0.000000 cLong=  0.777964
 DFx  wShort=  0.000000 wLong=  0.200000 cFull=  0.000000 cShort=  0.000000 cLong=  1.000000
 NAtoms=   11 NActive=   11 NUniq=   11 SFac= 1.00D+00 NAtFMM=   60 NAOKFM=F Big=F
 Integral buffers will be    131072 words long.
 Raffenetti 2 integral format.
 Two-electron integral symmetry is turned on.
 R6Disp:  Grimme-D2 Dispersion energy=       -0.0043948384 Hartrees.
 Nuclear repulsion after empirical dispersion term =      191.6617115880 Hartrees.
 Leave Link  301 at Wed Aug  6 21:39:32 2025, MaxMem=   104857600 cpu:               0.0 elap:               0.0
 (Enter /Applications/g16/l302.exe)
 NPDir=0 NMtPBC=     1 NCelOv=     1 NCel=       1 NClECP=     1 NCelD=      1
         NCelK=      1 NCelE2=     1 NClLst=     1 CellRange=     0.0.
 One-electron integrals computed using PRISM.
 One-electron integral symmetry used in STVInt
 NBasis=   113 RedAO= T EigKep=  9.44D-04  NBF=   113
 NBsUse=   113 1.00D-06 EigRej= -1.00D+00 NBFU=   113
 Precomputing XC quadrature grid using
 IXCGrd= 4 IRadAn=           5 IRanWt=          -1 IRanGd=           0 AccXCQ= 0.00D+00.
 Generated NRdTot=       0 NPtTot=           0 NUsed=           0 NTot=          32
 NSgBfM=   113   113   113   113   113 MxSgAt=    11 MxSgA2=    11.
 Leave Link  302 at Wed Aug  6 21:39:32 2025, MaxMem=   104857600 cpu:               0.1 elap:               0.1
 (Enter /Applications/g16/l303.exe)
 DipDrv:  MaxL=1.
 Leave Link  303 at Wed Aug  6 21:39:32 2025, MaxMem=   104857600 cpu:               0.0 elap:               0.0
 (Enter /Applications/g16/l401.exe)
 ExpMin= 3.60D-02 ExpMax= 4.17D+03 ExpMxC= 6.27D+02 IAcc=3 IRadAn=         5 AccDes= 0.00D+00
 Harris functional with IExCor= 4639 and IRadAn=       5 diagonalized for initial guess.
 HarFok:  IExCor= 4639 AccDes= 0.00D+00 IRadAn=         5 IDoV= 1 UseB2=F ITyADJ=14
 ICtDFT=  3500011 ScaDFX=  1.000000  1.000000  1.000000  1.000000
 FoFCou: FMM=F IPFlag=           0 FMFlag=      100000 FMFlg1=           0
         NFxFlg=           0 DoJE=T BraDBF=F KetDBF=T FulRan=T
         wScrn=  0.000000 ICntrl=       500 IOpCl=  0 I1Cent=   200000004 NGrid=           0
         NMat0=    1 NMatS0=      1 NMatT0=    0 NMatD0=    1 NMtDS0=    0 NMtDT0=    0
 Petite list used in FoFCou.
 Harris En= -259.793591003196    
 JPrj=0 DoOrth=F DoCkMO=F.
 Leave Link  401 at Wed Aug  6 21:39:33 2025, MaxMem=   104857600 cpu:               0.6 elap:               0.6
 (Enter /Applications/g16/l502.exe)
 Keep R1 ints in memory in canonical form, NReq=43174005.
 FoFCou: FMM=F IPFlag=           0 FMFlag=           0 FMFlg1=           0
         NFxFlg=           0 DoJE=F BraDBF=F KetDBF=F FulRan=T
         wScrn=  0.000000 ICntrl=       600 IOpCl=  0 I1Cent=           0 NGrid=           0
         NMat0=    1 NMatS0=   6441 NMatT0=    0 NMatD0=    1 NMtDS0=    0 NMtDT0=    0
 Symmetry not used in FoFCou.
 Two-electron integral symmetry not used.
 Closed shell SCF:
 Using DIIS extrapolation, IDIIS=  1040.
 NGot=   104857600 LenX=    63336875 LenY=    63323665
 Requested convergence on RMS density matrix=1.00D-08 within 128 cycles.
 Requested convergence on MAX density matrix=1.00D-06.
 Requested convergence on             energy=1.00D-06.
 No special actions if energy rises.

 Cycle   1  Pass 1  IDiag  1:
 E= -271.475596285282    
 DIIS: error= 5.66D-02 at cycle   1 NSaved=   1.
 NSaved= 1 IEnMin= 1 EnMin= -271.475596285282     IErMin= 1 ErrMin= 5.66D-02
 ErrMax= 5.66D-02  0.00D+00 EMaxC= 1.00D-01 BMatC= 2.35D-01 BMatP= 2.35D-01
 IDIUse=3 WtCom= 4.34D-01 WtEn= 5.66D-01
 Coeff-Com:  0.100D+01
 Coeff-En:   0.100D+01
 Coeff:      0.100D+01
 Gap=     0.383 Goal=   None    Shift=    0.000
 GapD=    0.383 DampG=1.000 DampE=0.500 DampFc=0.5000 IDamp=-1.
 Damping current iteration by 5.00D-01
 RMSDP=5.23D-03 MaxDP=1.87D-01              OVMax= 5.63D-02

 Cycle   2  Pass 1  IDiag  1:
 E= -271.503855187591     Delta-E=       -0.028258902309 Rises=F Damp=T
 DIIS: error= 2.77D-02 at cycle   2 NSaved=   2.
 NSaved= 2 IEnMin= 2 EnMin= -271.503855187591     IErMin= 2 ErrMin= 2.77D-02
 ErrMax= 2.77D-02  0.00D+00 EMaxC= 1.00D-01 BMatC= 5.46D-02 BMatP= 2.35D-01
 IDIUse=3 WtCom= 7.23D-01 WtEn= 2.77D-01
 Coeff-Com: -0.852D+00 0.185D+01
 Coeff-En:   0.000D+00 0.100D+01
 Coeff:     -0.617D+00 0.162D+01
 Gap=     0.348 Goal=   None    Shift=    0.000
 RMSDP=2.91D-03 MaxDP=9.97D-02 DE=-2.83D-02 OVMax= 3.99D-02

 Cycle   3  Pass 1  IDiag  1:
 E= -271.527229415776     Delta-E=       -0.023374228185 Rises=F Damp=F
 DIIS: error= 7.09D-03 at cycle   3 NSaved=   3.
 NSaved= 3 IEnMin= 3 EnMin= -271.527229415776     IErMin= 3 ErrMin= 7.09D-03
 ErrMax= 7.09D-03  0.00D+00 EMaxC= 1.00D-01 BMatC= 6.38D-03 BMatP= 5.46D-02
 IDIUse=3 WtCom= 9.29D-01 WtEn= 7.09D-02
 Coeff-Com: -0.460D+00 0.961D+00 0.499D+00
 Coeff-En:   0.000D+00 0.000D+00 0.100D+01
 Coeff:     -0.427D+00 0.893D+00 0.535D+00
 Gap=     0.342 Goal=   None    Shift=    0.000
 RMSDP=6.32D-04 MaxDP=1.76D-02 DE=-2.34D-02 OVMax= 2.81D-02

 Cycle   4  Pass 1  IDiag  1:
 E= -271.532134448137     Delta-E=       -0.004905032361 Rises=F Damp=F
 DIIS: error= 1.82D-03 at cycle   4 NSaved=   4.
 NSaved= 4 IEnMin= 4 EnMin= -271.532134448137     IErMin= 4 ErrMin= 1.82D-03
 ErrMax= 1.82D-03  0.00D+00 EMaxC= 1.00D-01 BMatC= 4.68D-04 BMatP= 6.38D-03
 IDIUse=3 WtCom= 9.82D-01 WtEn= 1.82D-02
 Coeff-Com: -0.118D+00 0.239D+00 0.261D+00 0.619D+00
 Coeff-En:   0.000D+00 0.000D+00 0.125D-01 0.988D+00
 Coeff:     -0.116D+00 0.234D+00 0.256D+00 0.626D+00
 Gap=     0.346 Goal=   None    Shift=    0.000
 RMSDP=2.21D-04 MaxDP=7.69D-03 DE=-4.91D-03 OVMax= 5.88D-03

 Cycle   5  Pass 1  IDiag  1:
 E= -271.532525904322     Delta-E=       -0.000391456185 Rises=F Damp=F
 DIIS: error= 1.90D-04 at cycle   5 NSaved=   5.
 NSaved= 5 IEnMin= 5 EnMin= -271.532525904322     IErMin= 5 ErrMin= 1.90D-04
 ErrMax= 1.90D-04  0.00D+00 EMaxC= 1.00D-01 BMatC= 5.48D-06 BMatP= 4.68D-04
 IDIUse=3 WtCom= 9.98D-01 WtEn= 1.90D-03
 Coeff-Com:  0.419D-02-0.998D-02 0.200D-01 0.127D+00 0.859D+00
 Coeff-En:   0.000D+00 0.000D+00 0.000D+00 0.000D+00 0.100D+01
 Coeff:      0.418D-02-0.997D-02 0.199D-01 0.127D+00 0.859D+00
 Gap=     0.346 Goal=   None    Shift=    0.000
 RMSDP=5.44D-05 MaxDP=2.06D-03 DE=-3.91D-04 OVMax= 8.91D-04

 Cycle   6  Pass 1  IDiag  1:
 E= -271.532530424860     Delta-E=       -0.000004520538 Rises=F Damp=F
 DIIS: error= 1.56D-04 at cycle   6 NSaved=   6.
 NSaved= 6 IEnMin= 6 EnMin= -271.532530424860     IErMin= 6 ErrMin= 1.56D-04
 ErrMax= 1.56D-04  0.00D+00 EMaxC= 1.00D-01 BMatC= 2.74D-06 BMatP= 5.48D-06
 IDIUse=3 WtCom= 9.98D-01 WtEn= 1.56D-03
 Coeff-Com:  0.137D-01-0.284D-01-0.135D-01 0.925D-02 0.478D+00 0.541D+00
 Coeff-En:   0.000D+00 0.000D+00 0.000D+00 0.000D+00 0.102D+00 0.898D+00
 Coeff:      0.137D-01-0.284D-01-0.135D-01 0.923D-02 0.478D+00 0.541D+00
 Gap=     0.346 Goal=   None    Shift=    0.000
 RMSDP=2.02D-05 MaxDP=7.09D-04 DE=-4.52D-06 OVMax= 5.24D-04

 Cycle   7  Pass 1  IDiag  1:
 E= -271.532532766264     Delta-E=       -0.000002341404 Rises=F Damp=F
 DIIS: error= 4.60D-05 at cycle   7 NSaved=   7.
 NSaved= 7 IEnMin= 7 EnMin= -271.532532766264     IErMin= 7 ErrMin= 4.60D-05
 ErrMax= 4.60D-05  0.00D+00 EMaxC= 1.00D-01 BMatC= 2.52D-07 BMatP= 2.74D-06
 IDIUse=1 WtCom= 1.00D+00 WtEn= 0.00D+00
 Coeff-Com:  0.653D-02-0.132D-01-0.104D-01-0.181D-01 0.914D-01 0.263D+00
 Coeff-Com:  0.681D+00
 Coeff:      0.653D-02-0.132D-01-0.104D-01-0.181D-01 0.914D-01 0.263D+00
 Coeff:      0.681D+00
 Gap=     0.346 Goal=   None    Shift=    0.000
 RMSDP=6.80D-06 MaxDP=2.38D-04 DE=-2.34D-06 OVMax= 1.60D-04

 Cycle   8  Pass 1  IDiag  1:
 E= -271.532533001932     Delta-E=       -0.000000235669 Rises=F Damp=F
 DIIS: error= 8.29D-06 at cycle   8 NSaved=   8.
 NSaved= 8 IEnMin= 8 EnMin= -271.532533001932     IErMin= 8 ErrMin= 8.29D-06
 ErrMax= 8.29D-06  0.00D+00 EMaxC= 1.00D-01 BMatC= 9.39D-09 BMatP= 2.52D-07
 IDIUse=1 WtCom= 1.00D+00 WtEn= 0.00D+00
 Coeff-Com:  0.740D-03-0.147D-02-0.196D-02-0.647D-02-0.165D-01 0.319D-01
 Coeff-Com:  0.205D+00 0.788D+00
 Coeff:      0.740D-03-0.147D-02-0.196D-02-0.647D-02-0.165D-01 0.319D-01
 Coeff:      0.205D+00 0.788D+00
 Gap=     0.346 Goal=   None    Shift=    0.000
 RMSDP=1.87D-06 MaxDP=6.94D-05 DE=-2.36D-07 OVMax= 3.03D-05

 Cycle   9  Pass 1  IDiag  1:
 E= -271.532533013421     Delta-E=       -0.000000011489 Rises=F Damp=F
 DIIS: error= 1.37D-06 at cycle   9 NSaved=   9.
 NSaved= 9 IEnMin= 9 EnMin= -271.532533013421     IErMin= 9 ErrMin= 1.37D-06
 ErrMax= 1.37D-06  0.00D+00 EMaxC= 1.00D-01 BMatC= 2.50D-10 BMatP= 9.39D-09
 IDIUse=1 WtCom= 1.00D+00 WtEn= 0.00D+00
 Coeff-Com: -0.346D-03 0.706D-03 0.424D-03 0.460D-03-0.687D-02-0.127D-01
 Coeff-Com: -0.181D-01 0.527D-01 0.984D+00
 Coeff:     -0.346D-03 0.706D-03 0.424D-03 0.460D-03-0.687D-02-0.127D-01
 Coeff:     -0.181D-01 0.527D-01 0.984D+00
 Gap=     0.346 Goal=   None    Shift=    0.000
 RMSDP=3.64D-07 MaxDP=5.12D-06 DE=-1.15D-08 OVMax= 9.03D-06

 Cycle  10  Pass 1  IDiag  1:
 E= -271.532533014000     Delta-E=       -0.000000000579 Rises=F Damp=F
 DIIS: error= 5.10D-07 at cycle  10 NSaved=  10.
 NSaved=10 IEnMin=10 EnMin= -271.532533014000     IErMin=10 ErrMin= 5.10D-07
 ErrMax= 5.10D-07  0.00D+00 EMaxC= 1.00D-01 BMatC= 3.06D-11 BMatP= 2.50D-10
 IDIUse=1 WtCom= 1.00D+00 WtEn= 0.00D+00
 Coeff-Com: -0.134D-03 0.271D-03 0.230D-03 0.556D-03-0.611D-03-0.497D-02
 Coeff-Com: -0.170D-01-0.386D-01 0.225D+00 0.835D+00
 Coeff:     -0.134D-03 0.271D-03 0.230D-03 0.556D-03-0.611D-03-0.497D-02
 Coeff:     -0.170D-01-0.386D-01 0.225D+00 0.835D+00
 Gap=     0.346 Goal=   None    Shift=    0.000
 RMSDP=1.10D-07 MaxDP=2.95D-06 DE=-5.79D-10 OVMax= 3.61D-06

 Cycle  11  Pass 1  IDiag  1:
 E= -271.532533014067     Delta-E=       -0.000000000067 Rises=F Damp=F
 DIIS: error= 1.58D-07 at cycle  11 NSaved=  11.
 NSaved=11 IEnMin=11 EnMin= -271.532533014067     IErMin=11 ErrMin= 1.58D-07
 ErrMax= 1.58D-07  0.00D+00 EMaxC= 1.00D-01 BMatC= 2.15D-12 BMatP= 3.06D-11
 IDIUse=1 WtCom= 1.00D+00 WtEn= 0.00D+00
 Coeff-Com:  0.466D-04-0.950D-04-0.621D-04-0.782D-04 0.644D-03 0.161D-02
 Coeff-Com:  0.323D-02-0.356D-03-0.116D+00-0.717D-01 0.118D+01
 Coeff:      0.466D-04-0.950D-04-0.621D-04-0.782D-04 0.644D-03 0.161D-02
 Coeff:      0.323D-02-0.356D-03-0.116D+00-0.717D-01 0.118D+01
 Gap=     0.346 Goal=   None    Shift=    0.000
 RMSDP=4.25D-08 MaxDP=1.09D-06 DE=-6.67D-11 OVMax= 1.99D-06

 Cycle  12  Pass 1  IDiag  1:
 E= -271.532533014077     Delta-E=       -0.000000000010 Rises=F Damp=F
 DIIS: error= 3.40D-08 at cycle  12 NSaved=  12.
 NSaved=12 IEnMin=12 EnMin= -271.532533014077     IErMin=12 ErrMin= 3.40D-08
 ErrMax= 3.40D-08  0.00D+00 EMaxC= 1.00D-01 BMatC= 1.03D-13 BMatP= 2.15D-12
 IDIUse=1 WtCom= 1.00D+00 WtEn= 0.00D+00
 Coeff-Com:  0.240D-05-0.480D-05-0.493D-05-0.211D-04-0.235D-04 0.772D-04
 Coeff-Com:  0.509D-03 0.220D-02-0.196D-03-0.417D-01-0.143D+00 0.118D+01
 Coeff:      0.240D-05-0.480D-05-0.493D-05-0.211D-04-0.235D-04 0.772D-04
 Coeff:      0.509D-03 0.220D-02-0.196D-03-0.417D-01-0.143D+00 0.118D+01
 Gap=     0.346 Goal=   None    Shift=    0.000
 RMSDP=9.05D-09 MaxDP=2.57D-07 DE=-1.01D-11 OVMax= 5.51D-07

 SCF Done:  E(RwB97XD) =  -271.532533014     A.U. after   12 cycles
            NFock= 12  Conv=0.90D-08     -V/T= 2.0095
 KE= 2.689692011211D+02 PE=-1.008162609911D+03 EE= 2.759991641882D+02
 Leave Link  502 at Wed Aug  6 21:39:40 2025, MaxMem=   104857600 cpu:               7.4 elap:               7.4
 (Enter /Applications/g16/l601.exe)
 Copying SCF densities to generalized density rwf, IOpCl= 0 IROHF=0.

 **********************************************************************

            Population analysis using the SCF Density.

 **********************************************************************

 Orbital symmetries:
       Occupied  (A) (A) (A) (A) (A) (A) (A) (A) (A) (A) (A) (A)
                 (A) (A) (A) (A) (A) (A) (A) (A) (A) (A)
       Virtual   (A) (A) (A) (A) (A) (A) (A) (A) (A) (A) (A) (A)
                 (A) (A) (A) (A) (A) (A) (A) (A) (A) (A) (A) (A)
                 (A) (A) (A) (A) (A) (A) (A) (A) (A) (A) (A) (A)
                 (A) (A) (A) (A) (A) (A) (A) (A) (A) (A) (A) (A)
                 (A) (A) (A) (A) (A) (A) (A) (A) (A) (A) (A) (A)
                 (A) (A) (A) (A) (A) (A) (A) (A) (A) (A) (A) (A)
                 (A) (A) (A) (A) (A) (A) (A) (A) (A) (A) (A) (A)
                 (A) (A) (A) (A) (A) (A) (A)
 The electronic state is 1-A.
 Alpha  occ. eigenvalues --  -14.61901 -14.55350 -10.50915 -10.49090 -10.47890
 Alpha  occ. eigenvalues --  -10.44009  -2.40112  -1.16899  -1.10751  -1.05436
 Alpha  occ. eigenvalues --   -0.93780  -0.76104  -0.72027  -0.70504  -0.65409
 Alpha  occ. eigenvalues --   -0.63231  -0.62887  -0.57445  -0.56588  -0.54106
 Alpha  occ. eigenvalues --   -0.51183  -0.50926
 Alpha virt. eigenvalues --   -0.16308  -0.09993  -0.09956  -0.07140  -0.04670
 Alpha virt. eigenvalues --   -0.03846   0.00227   0.02048   0.03091   0.03198
 Alpha virt. eigenvalues --    0.03233   0.04437   0.07836   0.09409   0.09815
 Alpha virt. eigenvalues --    0.14220   0.16138   0.17208   0.17629   0.30009
 Alpha virt. eigenvalues --    0.33795   0.34673   0.34957   0.34957   0.35059
 Alpha virt. eigenvalues --    0.38424   0.48092   0.49422   0.51993   0.52014
 Alpha virt. eigenvalues --    0.55544   0.58416   0.62004   0.63520   0.66799
 Alpha virt. eigenvalues --    0.68047   0.73708   0.75440   0.78923   0.80176
 Alpha virt. eigenvalues --    0.80510   0.82047   0.84658   0.85816   0.87689
 Alpha virt. eigenvalues --    0.89165   0.95590   0.96961   1.01266   1.03690
 Alpha virt. eigenvalues --    1.12263   1.29069   1.31673   1.33941   1.42657
 Alpha virt. eigenvalues --    1.43817   1.45094   1.49530   1.50224   1.53552
 Alpha virt. eigenvalues --    1.66283   1.66793   1.72942   1.81228   1.82289
 Alpha virt. eigenvalues --    1.87387   1.88156   1.92430   1.93368   1.94039
 Alpha virt. eigenvalues --    1.97246   2.00041   2.17415   2.17513   2.20560
 Alpha virt. eigenvalues --    2.29552   2.40508   2.67450   2.72354   2.75674
 Alpha virt. eigenvalues --    2.78516   2.81084   2.87661   3.15599   3.26611
 Alpha virt. eigenvalues --    3.99367   4.05222   4.10174   4.20907   4.50940
 Alpha virt. eigenvalues --    4.72199
          Condensed to atoms (all electrons):
               1          2          3          4          5          6
     1  N    6.628917   0.868235  -0.081872  -0.000831  -0.000076  -0.000000
     2  C    0.868235   4.603685   0.276361  -0.039565   0.003399  -0.000072
     3  C   -0.081872   0.276361   5.216589   0.317037  -0.035520  -0.001033
     4  C   -0.000831  -0.039565   0.317037   5.229584   0.279651  -0.072858
     5  C   -0.000076   0.003399  -0.035520   0.279651   4.519430   0.844254
     6  N   -0.000000  -0.000072  -0.001033  -0.072858   0.844254   6.729532
     7  H    0.000294  -0.002052  -0.027866   0.377838  -0.031967  -0.000943
     8  H    0.000295  -0.002052  -0.027865   0.377838  -0.031969  -0.000943
     9  H   -0.000540  -0.028295   0.378540  -0.031643  -0.003174   0.000163
    10  H   -0.000545  -0.028303   0.378561  -0.031645  -0.003172   0.000163
    11  Li  -0.000000   0.000014  -0.000012   0.000807  -0.000435   0.065464
               7          8          9         10         11
     1  N    0.000294   0.000295  -0.000540  -0.000545  -0.000000
     2  C   -0.002052  -0.002052  -0.028295  -0.028303   0.000014
     3  C   -0.027866  -0.027865   0.378540   0.378561  -0.000012
     4  C    0.377838   0.377838  -0.031643  -0.031645   0.000807
     5  C   -0.031967  -0.031969  -0.003174  -0.003172  -0.000435
     6  N   -0.000943  -0.000943   0.000163   0.000163   0.065464
     7  H    0.429082  -0.018594  -0.002373   0.002910  -0.000043
     8  H   -0.018594   0.429081   0.002910  -0.002373  -0.000043
     9  H   -0.002373   0.002910   0.452628  -0.021338   0.000045
    10  H    0.002910  -0.002373  -0.021338   0.452603   0.000045
    11  Li  -0.000043  -0.000043   0.000045   0.000045   2.019247
 Mulliken charges:
               1
     1  N   -0.413876
     2  C    0.348644
     3  C   -0.392921
     4  C   -0.406211
     5  C    0.459579
     6  N   -0.563726
     7  H    0.273714
     8  H    0.273716
     9  H    0.253077
    10  H    0.253093
    11  Li   0.914911
 Sum of Mulliken charges =   1.00000
 Mulliken charges with hydrogens summed into heavy atoms:
               1
     1  N   -0.413876
     2  C    0.348644
     3  C    0.113249
     4  C    0.141219
     5  C    0.459579
     6  N   -0.563726
    11  Li   0.914911
 Electronic spatial extent (au):  <R**2>=            995.7222
 Charge=              1.0000 electrons
 Dipole moment (field-independent basis, Debye):
    X=            -24.0794    Y=             -2.2651    Z=             -0.0013  Tot=             24.1857
 Quadrupole moment (field-independent basis, Debye-Ang):
   XX=             81.0875   YY=            -30.2618   ZZ=            -32.6491
   XY=             10.9402   XZ=              0.0132   YZ=              0.0011
 Traceless Quadrupole moment (field-independent basis, Debye-Ang):
   XX=             75.0287   YY=            -36.3207   ZZ=            -38.7080
   XY=             10.9402   XZ=              0.0132   YZ=              0.0011
 Octapole moment (field-independent basis, Debye-Ang**2):
  XXX=           -840.2888  YYY=             -2.9073  ZZZ=             -0.0022  XYY=            -15.5481
  XXY=            -78.9247  XXZ=             -0.0564  XZZ=             -8.9154  YZZ=             -0.6807
  YYZ=             -0.0012  XYZ=             -0.0055
 Hexadecapole moment (field-independent basis, Debye-Ang**3):
 XXXX=           3123.9300 YYYY=            -81.7559 ZZZZ=            -41.8964 XXXY=            413.8860
 XXXZ=              0.3811 YYYX=             18.5546 YYYZ=              0.0022 ZZZX=              0.0134
 ZZZY=              0.0009 XXYY=           -141.5283 XXZZ=           -173.3746 YYZZ=            -17.3565
 XXYZ=              0.0336 YYXZ=              0.0076 ZZXY=              4.8308
 N-N= 1.916617115880D+02 E-N=-1.008162609611D+03  KE= 2.689692011211D+02
 No NMR shielding tensors so no spin-rotation constants.
 Leave Link  601 at Wed Aug  6 21:39:40 2025, MaxMem=   104857600 cpu:               0.0 elap:               0.0
 (Enter /Applications/g16/l701.exe)
 ... and contract with generalized density number  0.
 Compute integral first derivatives.
 R6Disp: Adding Grimme-D2 dispersion energy 1st derivatives to the gradient.
 Leave Link  701 at Wed Aug  6 21:39:40 2025, MaxMem=   104857600 cpu:               0.0 elap:               0.0
 (Enter /Applications/g16/l702.exe)
 L702 exits ... SP integral derivatives will be done elsewhere.
 Leave Link  702 at Wed Aug  6 21:39:40 2025, MaxMem=   104857600 cpu:               0.0 elap:               0.0
 (Enter /Applications/g16/l703.exe)
 Integral derivatives from FoFJK, PRISM(SPDF).
 Compute integral first derivatives, UseDBF=F ICtDFT=           0.
 Calling FoFJK, ICntrl=      2127 FMM=F ISym2X=0 I1Cent= 0 IOpClX= 0 NMat=1 NMatS=1 NMatT=0.
 FoFJK:  IHMeth= 1 ICntrl=    2127 DoSepK=T KAlg= 0 I1Cent=           0 FoldK=F
 IRaf=         1 NMat=       1 IRICut=       1 DoRegI=T DoRafI=F ISym2E= 0 IDoP0=0 IntGTp=1.
 FoFCou: FMM=F IPFlag=           0 FMFlag=      100000 FMFlg1=         800
         NFxFlg=           0 DoJE=F BraDBF=F KetDBF=F FulRan=T
         wScrn=  0.000000 ICntrl=      2527 IOpCl=  0 I1Cent=           0 NGrid=           0
         NMat0=    1 NMatS0=      1 NMatT0=    0 NMatD0=    1 NMtDS0=    0 NMtDT0=    0
 Symmetry not used in FoFCou.
 Leave Link  703 at Wed Aug  6 21:39:42 2025, MaxMem=   104857600 cpu:               2.3 elap:               2.3
 (Enter /Applications/g16/l716.exe)
 Dipole        =-9.47355323D+00-8.91168066D-01-5.10742672D-04
 ***** Axes restored to original set *****
 -------------------------------------------------------------------
 Center     Atomic                   Forces (Hartrees/Bohr)
 Number     Number              X              Y              Z
 -------------------------------------------------------------------
      1        7          -0.000208740    0.000057871   -0.000015736
      2        6          -0.000115592   -0.000237149    0.000033885
      3        6           0.000170807    0.000854995   -0.000017484
      4        6          -0.000030244    0.000096454   -0.000002015
      5        6          -0.000747771   -0.000044986    0.000000979
      6        7           0.014435696   -0.003780478    0.000004177
      7        1          -0.000391571   -0.000113513    0.000174288
      8        1          -0.000393289   -0.000113694   -0.000173938
      9        1           0.000091034    0.000012448    0.000047902
     10        1           0.000082525    0.000014182   -0.000047952
     11        3          -0.012892854    0.003253871   -0.000004106
 -------------------------------------------------------------------
 Cartesian Forces:  Max     0.014435696 RMS     0.003487463
 Leave Link  716 at Wed Aug  6 21:39:42 2025, MaxMem=   104857600 cpu:               0.0 elap:               0.0
 (Enter /Applications/g16/l103.exe)

 GradGradGradGradGradGradGradGradGradGradGradGradGradGradGradGradGradGrad
 Berny optimization.
 FormGI is forming the generalized inverse of G from B-inverse, IUseBI=4.
 Internal  Forces:  Max     0.013297061 RMS     0.002219080
 Search for a local minimum.
 Step number   1 out of a maximum of   47
 All quantities printed in internal units (Hartrees-Bohrs-Radians)
 RMS Force = .38686D-03 SwitMx=.10000D-02 MixMth= 2
 Mixed Optimization -- En-DIIS/RFO-DIIS
 Second derivative matrix not updated -- first step.
 ITU=  0
     Eigenvalues ---    0.00230   0.00230   0.00230   0.01258   0.01258
     Eigenvalues ---    0.04934   0.04934   0.05342   0.05585   0.05779
     Eigenvalues ---    0.05808   0.16000   0.16000   0.16000   0.16000
     Eigenvalues ---    0.22277   0.22327   0.27961   0.34250   0.34250
     Eigenvalues ---    0.34335   0.34335   0.36615   0.36676   1.30406
     Eigenvalues ---    1.312111000.000001000.000001000.000001000.00000
     Eigenvalues --- 1000.000001000.000001000.000001000.000001000.00000
     Eigenvalues --- 1000.000001000.00000
 RFO step:  Lambda=-3.22724025D-05 EMin= 2.30000000D-03
 Linear search not attempted -- first point.
 Iteration  1 RMS(Cart)=  0.05000752 RMS(Int)=  0.00179296
 Iteration  2 RMS(Cart)=  0.00239383 RMS(Int)=  0.00000357
 Iteration  3 RMS(Cart)=  0.00000453 RMS(Int)=  0.00000218
 Iteration  4 RMS(Cart)=  0.00000000 RMS(Int)=  0.00000218
 Iteration  1 RMS(Cart)=  0.00000000 RMS(Int)=  0.00000000
 ITry= 1 IFail=0 DXMaxC= 1.91D-01 DCOld= 1.00D+10 DXMaxT= 3.00D-01 DXLimC= 3.00D+00 Rises=F
 Variable       Old X    -DE/DX   Delta X   Delta X   Delta X     New X
                                 (Linear)    (Quad)   (Total)
    R1        2.18464   0.00022   0.00000   0.00017   0.00017   2.18481
    R2        2.76431   0.00025   0.00000   0.00068   0.00068   2.76499
    R3        2.92223  -0.00056   0.00000  -0.00201  -0.00201   2.92023
    R4        2.06768  -0.00003   0.00000  -0.00009  -0.00009   2.06758
    R5        2.06768  -0.00003   0.00000  -0.00010  -0.00010   2.06758
    R6        2.76337   0.00093   0.00000   0.00253   0.00253   2.76590
    R7        2.06910  -0.00015   0.00000  -0.00043  -0.00043   2.06868
    R8        2.06910  -0.00015   0.00000  -0.00043  -0.00043   2.06868
    R9        2.18239   0.00163   0.00000   0.00124   0.00124   2.18363
   R10        5.66918  -0.01330   0.00000   0.00000  -0.00000   5.66918
    A1        1.91449   0.00064   0.00000   0.00325   0.00325   1.91774
    A2        1.90293  -0.00015   0.00000   0.00012   0.00012   1.90305
    A3        1.90295  -0.00016   0.00000   0.00001   0.00001   1.90296
    A4        1.93013  -0.00019   0.00000  -0.00122  -0.00122   1.92891
    A5        1.93013  -0.00018   0.00000  -0.00121  -0.00121   1.92892
    A6        1.88260   0.00003   0.00000  -0.00100  -0.00100   1.88160
    A7        1.95172  -0.00032   0.00000  -0.00078  -0.00078   1.95095
    A8        1.93059  -0.00032   0.00000  -0.00249  -0.00249   1.92810
    A9        1.93060  -0.00032   0.00000  -0.00250  -0.00251   1.92809
   A10        1.88652   0.00043   0.00000   0.00345   0.00345   1.88997
   A11        1.88651   0.00043   0.00000   0.00345   0.00345   1.88996
   A12        1.87540   0.00014   0.00000  -0.00089  -0.00090   1.87450
   A13        3.11595   0.00002   0.00000   0.00195   0.00195   3.11790
   A14        3.13778   0.00009   0.00000   0.00178   0.00178   3.13956
   A15        3.18987   0.00019   0.00000   0.08170   0.08170   3.27157
   A16        3.12719   0.00004   0.00000   0.00313   0.00313   3.13031
   A17        3.14377  -0.00003   0.00000  -0.00066  -0.00066   3.14311
   A18        3.17984   0.00005   0.00000   0.02167   0.02167   3.20151
    D1       -3.14156  -0.00000   0.00000  -0.00015  -0.00015   3.14147
    D2       -1.03789   0.00011   0.00000   0.00200   0.00200  -1.03590
    D3        1.03796  -0.00012   0.00000  -0.00229  -0.00229   1.03567
    D4       -1.04210   0.00010   0.00000   0.00132   0.00132  -1.04078
    D5        1.06157   0.00021   0.00000   0.00346   0.00346   1.06503
    D6        3.13743  -0.00001   0.00000  -0.00083  -0.00082   3.13660
    D7        1.04213  -0.00010   0.00000  -0.00149  -0.00149   1.04064
    D8       -3.13738   0.00002   0.00000   0.00066   0.00066  -3.13673
    D9       -1.06153  -0.00021   0.00000  -0.00363  -0.00363  -1.06516
         Item               Value     Threshold  Converged?
 Maximum Force            0.001629     0.000450     NO 
 RMS     Force            0.000387     0.000300     NO 
 Maximum Displacement     0.191009     0.001800     NO 
 RMS     Displacement     0.051009     0.001200     NO 
 Predicted change in Energy=-1.624814D-05
 Lowest energy point so far.  Saving SCF results.
 GradGradGradGradGradGradGradGradGradGradGradGradGradGradGradGradGradGrad

 Leave Link  103 at Wed Aug  6 21:39:42 2025, MaxMem=   104857600 cpu:               0.0 elap:               0.0
 (Enter /Applications/g16/l202.exe)
                          Input orientation:                          
 ---------------------------------------------------------------------
 Center     Atomic      Atomic             Coordinates (Angstroms)
 Number     Number       Type             X           Y           Z
 ---------------------------------------------------------------------
      1          7           0       -2.974494    0.300007   -0.018344
      2          6           0       -1.898115   -0.121883   -0.008372
      3          6           0       -0.522787   -0.621096    0.002468
      4          6           0        0.466970    0.565656    0.004126
      5          6           0        1.858573    0.112230    0.015050
      6          7           0        2.956374   -0.248315    0.023989
      7          1           0        0.316407    1.191010   -0.881664
      8          1           0        0.304887    1.198143    0.882789
      9          1           0       -0.364816   -1.250980   -0.878092
     10          1           0       -0.376277   -1.243903    0.890014
     11          3           0        5.904268   -0.802311   -0.030833
 ---------------------------------------------------------------------
                    Distance matrix (angstroms):
                    1          2          3          4          5
     1  N    0.000000
     2  C    1.156150   0.000000
     3  C    2.619109   1.463167   0.000000
     4  C    3.451775   2.463026   1.545317   0.000000
     5  C    4.836828   3.764048   2.491746   1.463650   0.000000
     6  N    5.956311   4.856243   3.499141   2.619174   1.155526
     7  H    3.516993   2.718535   2.183956   1.094696   2.084739
     8  H    3.517532   2.718429   2.183951   1.094696   2.084734
     9  H    3.155178   2.093389   1.094118   2.184112   2.756720
    10  H    3.155868   2.093326   1.094117   2.184117   2.756667
    11  Li   8.946937   7.832029   6.429696   5.606850   4.148029
                    6          7          8          9         10
     6  N    0.000000
     7  H    3.140269   0.000000
     8  H    3.140089   1.764505   0.000000
     9  H    3.584605   2.535230   3.089888   0.000000
    10  H    3.584376   3.089895   2.535276   1.768157   0.000000
    11  Li   3.000000   5.993450   6.015779   6.341969   6.363035
                   11
    11  Li   0.000000
 Stoichiometry    C4H4LiN2(1+)
 Framework group  C1[X(C4H4LiN2)]
 Deg. of freedom    27
 Full point group                 C1      NOp   1
 RotChk:  IX=1 Diff= 1.13D-02
 Largest Abelian subgroup         C1      NOp   1
 Largest concise Abelian subgroup C1      NOp   1
                         Standard orientation:                         
 ---------------------------------------------------------------------
 Center     Atomic      Atomic             Coordinates (Angstroms)
 Number     Number       Type             X           Y           Z
 ---------------------------------------------------------------------
      1          7           0        3.366139    0.135377    0.012945
      2          6           0        2.264331   -0.214776    0.003220
      3          6           0        0.859136   -0.622426   -0.007075
      4          6           0       -0.050451    0.626812    0.000570
      5          6           0       -1.468875    0.265919   -0.009505
      6          7           0       -2.588023   -0.021621   -0.017791
      7          1           0        0.142767    1.235665    0.889572
      8          1           0        0.151019    1.252461   -0.874834
      9          1           0        0.661945   -1.245760    0.870231
     10          1           0        0.670127   -1.228994   -0.897828
     11          3           0       -5.565842   -0.380947    0.041172
 ---------------------------------------------------------------------
 Rotational constants (GHZ):          23.6211410           0.8872111           0.8643505
 Leave Link  202 at Wed Aug  6 21:39:42 2025, MaxMem=   104857600 cpu:               0.0 elap:               0.0
 (Enter /Applications/g16/l301.exe)
 Standard basis: 6-31G(d) (6D, 7F)
 Ernie: Thresh=  0.10000D-02 Tol=  0.10000D-05 Strict=F.
 There are   113 symmetry adapted cartesian basis functions of A   symmetry.
 There are   113 symmetry adapted basis functions of A   symmetry.
   113 basis functions,   212 primitive gaussians,   113 cartesian basis functions
    22 alpha electrons       22 beta electrons
       nuclear repulsion energy       191.5950219134 Hartrees.
 IExCor= 4639 DFT=T Ex+Corr=wB97XD ExCW=0 ScaHFX=  1.000000
 ScaDFX=  1.000000  1.000000  1.000000  1.000000 ScalE2=  1.000000  1.000000
 IRadAn=      5 IRanWt=     -1 IRanGd=            0 ICorTp=0 IEmpDi=121
 HFx  wShort=  0.000000 wLong=  0.200000 cFull=  0.222036 cShort=  0.000000 cLong=  0.777964
 DFx  wShort=  0.000000 wLong=  0.200000 cFull=  0.000000 cShort=  0.000000 cLong=  1.000000
 NAtoms=   11 NActive=   11 NUniq=   11 SFac= 1.00D+00 NAtFMM=   60 NAOKFM=F Big=F
 Integral buffers will be    131072 words long.
 Raffenetti 2 integral format.
 Two-electron integral symmetry is turned on.
 R6Disp:  Grimme-D2 Dispersion energy=       -0.0043933466 Hartrees.
 Nuclear repulsion after empirical dispersion term =      191.5906285668 Hartrees.
 Leave Link  301 at Wed Aug  6 21:39:42 2025, MaxMem=   104857600 cpu:               0.0 elap:               0.0
 (Enter /Applications/g16/l302.exe)
 NPDir=0 NMtPBC=     1 NCelOv=     1 NCel=       1 NClECP=     1 NCelD=      1
         NCelK=      1 NCelE2=     1 NClLst=     1 CellRange=     0.0.
 One-electron integrals computed using PRISM.
 One-electron integral symmetry used in STVInt
 NBasis=   113 RedAO= T EigKep=  9.48D-04  NBF=   113
 NBsUse=   113 1.00D-06 EigRej= -1.00D+00 NBFU=   113
 Precomputing XC quadrature grid using
 IXCGrd= 4 IRadAn=           5 IRanWt=          -1 IRanGd=           0 AccXCQ= 0.00D+00.
 Generated NRdTot=       0 NPtTot=           0 NUsed=           0 NTot=          32
 NSgBfM=   113   113   113   113   113 MxSgAt=    11 MxSgA2=    11.
 Leave Link  302 at Wed Aug  6 21:39:42 2025, MaxMem=   104857600 cpu:               0.1 elap:               0.1
 (Enter /Applications/g16/l303.exe)
 DipDrv:  MaxL=1.
 Leave Link  303 at Wed Aug  6 21:39:42 2025, MaxMem=   104857600 cpu:               0.0 elap:               0.0
 (Enter /Applications/g16/l401.exe)
 Initial guess from the checkpoint file:  "/Users/srak/g16_scratch/Gau-95635.chk"
 B after Tr=    -0.000000   -0.000000   -0.000000
         Rot=    0.999999   -0.001019    0.000061   -0.000478 Ang=  -0.13 deg.
 Guess basis will be translated and rotated to current coordinates.
 JPrj=2 DoOrth=T DoCkMO=T.
 Generating alternative initial guess.
 ExpMin= 3.60D-02 ExpMax= 4.17D+03 ExpMxC= 6.27D+02 IAcc=3 IRadAn=         5 AccDes= 0.00D+00
 Harris functional with IExCor= 4639 and IRadAn=       5 diagonalized for initial guess.
 HarFok:  IExCor= 4639 AccDes= 0.00D+00 IRadAn=         5 IDoV= 1 UseB2=F ITyADJ=14
 ICtDFT=  3500011 ScaDFX=  1.000000  1.000000  1.000000  1.000000
 FoFCou: FMM=F IPFlag=           0 FMFlag=      100000 FMFlg1=           0
         NFxFlg=           0 DoJE=T BraDBF=F KetDBF=T FulRan=T
         wScrn=  0.000000 ICntrl=       500 IOpCl=  0 I1Cent=   200000004 NGrid=           0
         NMat0=    1 NMatS0=      1 NMatT0=    0 NMatD0=    1 NMtDS0=    0 NMtDT0=    0
 Petite list used in FoFCou.
 Harris En= -259.793818037697    
 Leave Link  401 at Wed Aug  6 21:39:43 2025, MaxMem=   104857600 cpu:               0.6 elap:               0.6
 (Enter /Applications/g16/l502.exe)
 Keep R1 ints in memory in canonical form, NReq=43174005.
 FoFCou: FMM=F IPFlag=           0 FMFlag=           0 FMFlg1=           0
         NFxFlg=           0 DoJE=F BraDBF=F KetDBF=F FulRan=T
         wScrn=  0.000000 ICntrl=       600 IOpCl=  0 I1Cent=           0 NGrid=           0
         NMat0=    1 NMatS0=   6441 NMatT0=    0 NMatD0=    1 NMtDS0=    0 NMtDT0=    0
 Symmetry not used in FoFCou.
 Two-electron integral symmetry not used.
 Closed shell SCF:
 Using DIIS extrapolation, IDIIS=  1040.
 NGot=   104857600 LenX=    63336875 LenY=    63323665
 Requested convergence on RMS density matrix=1.00D-08 within 128 cycles.
 Requested convergence on MAX density matrix=1.00D-06.
 Requested convergence on             energy=1.00D-06.
 No special actions if energy rises.

 Cycle   1  Pass 1  IDiag  1:
 E= -271.532001186111    
 DIIS: error= 1.36D-03 at cycle   1 NSaved=   1.
 NSaved= 1 IEnMin= 1 EnMin= -271.532001186111     IErMin= 1 ErrMin= 1.36D-03
 ErrMax= 1.36D-03  0.00D+00 EMaxC= 1.00D-01 BMatC= 2.87D-04 BMatP= 2.87D-04
 IDIUse=3 WtCom= 9.86D-01 WtEn= 1.36D-02
 Coeff-Com:  0.100D+01
 Coeff-En:   0.100D+01
 Coeff:      0.100D+01
 Gap=     2.172 Goal=   None    Shift=    0.000
 GapD=    2.172 DampG=2.000 DampE=1.000 DampFc=2.0000 IDamp=-1.
 RMSDP=1.80D-04 MaxDP=3.28D-03              OVMax= 5.81D-03

 Cycle   2  Pass 1  IDiag  1:
 E= -271.532469476454     Delta-E=       -0.000468290344 Rises=F Damp=F
 DIIS: error= 2.44D-04 at cycle   2 NSaved=   2.
 NSaved= 2 IEnMin= 2 EnMin= -271.532469476454     IErMin= 2 ErrMin= 2.44D-04
 ErrMax= 2.44D-04  0.00D+00 EMaxC= 1.00D-01 BMatC= 1.12D-05 BMatP= 2.87D-04
 IDIUse=3 WtCom= 9.98D-01 WtEn= 2.44D-03
 Coeff-Com: -0.186D+00 0.119D+01
 Coeff-En:   0.000D+00 0.100D+01
 Coeff:     -0.185D+00 0.119D+01
 Gap=     0.346 Goal=   None    Shift=    0.000
 RMSDP=5.77D-05 MaxDP=8.90D-04 DE=-4.68D-04 OVMax= 2.37D-03

 Cycle   3  Pass 1  IDiag  1:
 E= -271.532496466916     Delta-E=       -0.000026990462 Rises=F Damp=F
 DIIS: error= 7.77D-05 at cycle   3 NSaved=   3.
 NSaved= 3 IEnMin= 3 EnMin= -271.532496466916     IErMin= 3 ErrMin= 7.77D-05
 ErrMax= 7.77D-05  0.00D+00 EMaxC= 1.00D-01 BMatC= 1.09D-06 BMatP= 1.12D-05
 IDIUse=1 WtCom= 1.00D+00 WtEn= 0.00D+00
 Coeff-Com: -0.563D-01 0.277D+00 0.779D+00
 Coeff:     -0.563D-01 0.277D+00 0.779D+00
 Gap=     0.346 Goal=   None    Shift=    0.000
 RMSDP=1.40D-05 MaxDP=2.51D-04 DE=-2.70D-05 OVMax= 3.58D-04

 Cycle   4  Pass 1  IDiag  1:
 E= -271.532497388201     Delta-E=       -0.000000921285 Rises=F Damp=F
 DIIS: error= 7.09D-05 at cycle   4 NSaved=   4.
 NSaved= 4 IEnMin= 4 EnMin= -271.532497388201     IErMin= 4 ErrMin= 7.09D-05
 ErrMax= 7.09D-05  0.00D+00 EMaxC= 1.00D-01 BMatC= 6.53D-07 BMatP= 1.09D-06
 IDIUse=1 WtCom= 1.00D+00 WtEn= 0.00D+00
 Coeff-Com: -0.151D-02-0.394D-01 0.438D+00 0.603D+00
 Coeff:     -0.151D-02-0.394D-01 0.438D+00 0.603D+00
 Gap=     0.346 Goal=   None    Shift=    0.000
 RMSDP=7.38D-06 MaxDP=1.40D-04 DE=-9.21D-07 OVMax= 2.22D-04

 Cycle   5  Pass 1  IDiag  1:
 E= -271.532497980878     Delta-E=       -0.000000592678 Rises=F Damp=F
 DIIS: error= 2.15D-05 at cycle   5 NSaved=   5.
 NSaved= 5 IEnMin= 5 EnMin= -271.532497980878     IErMin= 5 ErrMin= 2.15D-05
 ErrMax= 2.15D-05  0.00D+00 EMaxC= 1.00D-01 BMatC= 6.20D-08 BMatP= 6.53D-07
 IDIUse=1 WtCom= 1.00D+00 WtEn= 0.00D+00
 Coeff-Com:  0.972D-02-0.696D-01 0.507D-01 0.269D+00 0.740D+00
 Coeff:      0.972D-02-0.696D-01 0.507D-01 0.269D+00 0.740D+00
 Gap=     0.346 Goal=   None    Shift=    0.000
 RMSDP=2.48D-06 MaxDP=4.18D-05 DE=-5.93D-07 OVMax= 8.59D-05

 Cycle   6  Pass 1  IDiag  1:
 E= -271.532498049318     Delta-E=       -0.000000068439 Rises=F Damp=F
 DIIS: error= 3.38D-06 at cycle   6 NSaved=   6.
 NSaved= 6 IEnMin= 6 EnMin= -271.532498049318     IErMin= 6 ErrMin= 3.38D-06
 ErrMax= 3.38D-06  0.00D+00 EMaxC= 1.00D-01 BMatC= 2.32D-09 BMatP= 6.20D-08
 IDIUse=1 WtCom= 1.00D+00 WtEn= 0.00D+00
 Coeff-Com:  0.250D-02-0.143D-01-0.195D-01 0.231D-01 0.189D+00 0.819D+00
 Coeff:      0.250D-02-0.143D-01-0.195D-01 0.231D-01 0.189D+00 0.819D+00
 Gap=     0.346 Goal=   None    Shift=    0.000
 RMSDP=5.46D-07 MaxDP=1.01D-05 DE=-6.84D-08 OVMax= 2.21D-05

 Cycle   7  Pass 1  IDiag  1:
 E= -271.532498052431     Delta-E=       -0.000000003113 Rises=F Damp=F
 DIIS: error= 1.14D-06 at cycle   7 NSaved=   7.
 NSaved= 7 IEnMin= 7 EnMin= -271.532498052431     IErMin= 7 ErrMin= 1.14D-06
 ErrMax= 1.14D-06  0.00D+00 EMaxC= 1.00D-01 BMatC= 2.50D-10 BMatP= 2.32D-09
 IDIUse=1 WtCom= 1.00D+00 WtEn= 0.00D+00
 Coeff-Com: -0.337D-03 0.336D-02-0.105D-01-0.216D-01-0.248D-01 0.217D+00
 Coeff-Com:  0.837D+00
 Coeff:     -0.337D-03 0.336D-02-0.105D-01-0.216D-01-0.248D-01 0.217D+00
 Coeff:      0.837D+00
 Gap=     0.346 Goal=   None    Shift=    0.000
 RMSDP=2.32D-07 MaxDP=4.08D-06 DE=-3.11D-09 OVMax= 8.05D-06

 Cycle   8  Pass 1  IDiag  1:
 E= -271.532498052661     Delta-E=       -0.000000000230 Rises=F Damp=F
 DIIS: error= 1.14D-06 at cycle   8 NSaved=   8.
 NSaved= 8 IEnMin= 8 EnMin= -271.532498052661     IErMin= 8 ErrMin= 1.14D-06
 ErrMax= 1.14D-06  0.00D+00 EMaxC= 1.00D-01 BMatC= 1.29D-10 BMatP= 2.50D-10
 IDIUse=1 WtCom= 1.00D+00 WtEn= 0.00D+00
 Coeff-Com: -0.439D-03 0.337D-02-0.468D-02-0.152D-01-0.327D-01 0.529D-01
 Coeff-Com:  0.506D+00 0.491D+00
 Coeff:     -0.439D-03 0.337D-02-0.468D-02-0.152D-01-0.327D-01 0.529D-01
 Coeff:      0.506D+00 0.491D+00
 Gap=     0.346 Goal=   None    Shift=    0.000
 RMSDP=8.99D-08 MaxDP=1.90D-06 DE=-2.30D-10 OVMax= 2.96D-06

 Cycle   9  Pass 1  IDiag  1:
 E= -271.532498052779     Delta-E=       -0.000000000118 Rises=F Damp=F
 DIIS: error= 1.50D-07 at cycle   9 NSaved=   9.
 NSaved= 9 IEnMin= 9 EnMin= -271.532498052779     IErMin= 9 ErrMin= 1.50D-07
 ErrMax= 1.50D-07  0.00D+00 EMaxC= 1.00D-01 BMatC= 4.01D-12 BMatP= 1.29D-10
 IDIUse=1 WtCom= 1.00D+00 WtEn= 0.00D+00
 Coeff-Com: -0.850D-04 0.549D-03 0.771D-04-0.147D-02-0.641D-02-0.152D-01
 Coeff-Com:  0.300D-01 0.150D+00 0.843D+00
 Coeff:     -0.850D-04 0.549D-03 0.771D-04-0.147D-02-0.641D-02-0.152D-01
 Coeff:      0.300D-01 0.150D+00 0.843D+00
 Gap=     0.346 Goal=   None    Shift=    0.000
 RMSDP=2.81D-08 MaxDP=4.92D-07 DE=-1.18D-10 OVMax= 8.05D-07

 Cycle  10  Pass 1  IDiag  1:
 E= -271.532498052783     Delta-E=       -0.000000000004 Rises=F Damp=F
 DIIS: error= 3.30D-08 at cycle  10 NSaved=  10.
 NSaved=10 IEnMin=10 EnMin= -271.532498052783     IErMin=10 ErrMin= 3.30D-08
 ErrMax= 3.30D-08  0.00D+00 EMaxC= 1.00D-01 BMatC= 2.36D-13 BMatP= 4.01D-12
 IDIUse=1 WtCom= 1.00D+00 WtEn= 0.00D+00
 Coeff-Com:  0.221D-04-0.198D-03 0.496D-03 0.115D-02 0.169D-02-0.904D-02
 Coeff-Com: -0.430D-01-0.104D-01 0.207D+00 0.852D+00
 Coeff:      0.221D-04-0.198D-03 0.496D-03 0.115D-02 0.169D-02-0.904D-02
 Coeff:     -0.430D-01-0.104D-01 0.207D+00 0.852D+00
 Gap=     0.346 Goal=   None    Shift=    0.000
 RMSDP=8.67D-09 MaxDP=1.14D-07 DE=-4.43D-12 OVMax= 2.25D-07

 SCF Done:  E(RwB97XD) =  -271.532498053     A.U. after   10 cycles
            NFock= 10  Conv=0.87D-08     -V/T= 2.0095
 KE= 2.689645804245D+02 PE=-1.008019230252D+03 EE= 2.759315232075D+02
 Leave Link  502 at Wed Aug  6 21:39:49 2025, MaxMem=   104857600 cpu:               6.1 elap:               6.2
 (Enter /Applications/g16/l701.exe)
 ... and contract with generalized density number  0.
 Compute integral first derivatives.
 R6Disp: Adding Grimme-D2 dispersion energy 1st derivatives to the gradient.
 Leave Link  701 at Wed Aug  6 21:39:49 2025, MaxMem=   104857600 cpu:               0.0 elap:               0.0
 (Enter /Applications/g16/l702.exe)
 L702 exits ... SP integral derivatives will be done elsewhere.
 Leave Link  702 at Wed Aug  6 21:39:49 2025, MaxMem=   104857600 cpu:               0.0 elap:               0.0
 (Enter /Applications/g16/l703.exe)
 Integral derivatives from FoFJK, PRISM(SPDF).
 Compute integral first derivatives, UseDBF=F ICtDFT=           0.
 Calling FoFJK, ICntrl=      2127 FMM=F ISym2X=0 I1Cent= 0 IOpClX= 0 NMat=1 NMatS=1 NMatT=0.
 FoFJK:  IHMeth= 1 ICntrl=    2127 DoSepK=T KAlg= 0 I1Cent=           0 FoldK=F
 IRaf=         1 NMat=       1 IRICut=       1 DoRegI=T DoRafI=F ISym2E= 0 IDoP0=0 IntGTp=1.
 FoFCou: FMM=F IPFlag=           0 FMFlag=      100000 FMFlg1=         800
         NFxFlg=           0 DoJE=F BraDBF=F KetDBF=F FulRan=T
         wScrn=  0.000000 ICntrl=      2527 IOpCl=  0 I1Cent=           0 NGrid=           0
         NMat0=    1 NMatS0=      1 NMatT0=    0 NMatD0=    1 NMtDS0=    0 NMtDT0=    0
 Symmetry not used in FoFCou.
 Leave Link  703 at Wed Aug  6 21:39:51 2025, MaxMem=   104857600 cpu:               2.3 elap:               2.3
 (Enter /Applications/g16/l716.exe)
 Dipole        =-9.52487562D+00-6.50331026D-01 7.34627421D-02
 ***** Axes restored to original set *****
 -------------------------------------------------------------------
 Center     Atomic                   Forces (Hartrees/Bohr)
 Number     Number              X              Y              Z
 -------------------------------------------------------------------
      1        7           0.000025369    0.000069543    0.000040643
      2        6           0.000028708   -0.000220960   -0.000100051
      3        6          -0.000000969    0.000132370    0.000058959
      4        6          -0.000082994   -0.000139261    0.000057883
      5        6          -0.000132820    0.000188586    0.000044749
      6        7           0.013144490   -0.002123127   -0.000426276
      7        1           0.000089567   -0.000012392   -0.000011032
      8        1           0.000092547   -0.000013709    0.000016501
      9        1          -0.000068425   -0.000068283    0.000005789
     10        1          -0.000032947   -0.000067805   -0.000002637
     11        3          -0.013062527    0.002255038    0.000315470
 -------------------------------------------------------------------
 Cartesian Forces:  Max     0.013144490 RMS     0.003272874
 Leave Link  716 at Wed Aug  6 21:39:51 2025, MaxMem=   104857600 cpu:               0.0 elap:               0.0
 (Enter /Applications/g16/l103.exe)

 GradGradGradGradGradGradGradGradGradGradGradGradGradGradGradGradGradGrad
 Berny optimization.
 Using GEDIIS/GDIIS optimizer.
 FormGI is forming the generalized inverse of G from B-inverse, IUseBI=4.
 Internal  Forces:  Max     0.013257816 RMS     0.002192754
 Search for a local minimum.
 Step number   2 out of a maximum of   47
 All quantities printed in internal units (Hartrees-Bohrs-Radians)
 RMS Force = .24339D-03 SwitMx=.10000D-02 MixMth= 2
 Mixed Optimization -- En-DIIS/RFO-DIIS
 Swapping is turned off.
 Update second derivatives using D2CorX and points    1    2
 DE=  3.50D-05 DEPred=-1.62D-05 R=-2.15D+00
 Trust test=-2.15D+00 RLast= 8.52D-02 DXMaxT set to 1.50D-01
 ITU= -1  0
     Eigenvalues ---    0.00224   0.00230   0.01134   0.01258   0.01452
     Eigenvalues ---    0.04927   0.05001   0.05350   0.05564   0.05754
     Eigenvalues ---    0.05864   0.14568   0.16000   0.16000   0.16032
     Eigenvalues ---    0.20444   0.22298   0.27466   0.34046   0.34250
     Eigenvalues ---    0.34335   0.34335   0.35243   0.36623   1.25067
     Eigenvalues ---    1.304211000.000001000.000001000.000001000.00000
     Eigenvalues --- 1000.000001000.000001000.000001000.000001000.00000
     Eigenvalues --- 1000.000001000.00000
 En-DIIS/RFO-DIIS/Sim-DIIS IScMMF=       -3 using points:     2    1
 RFO step:  Lambda=-9.40556171D-05.
 NNeg= 0 NGDIIS= 2 SimSw=  2.50D-03 Rises=T DC=  3.50D-05 SmlDif=  1.00D-05
 NRisDI= 1 DoIntr=F SqrtH=F CThrHd= 10.0 CDAdj=  3.0
 RMS Error=  0.1293379416D-01 NUsed= 2 OKEnD=T EnDIS=T
 InvSVX:  RCond= 7.96D-03 Info=           0 Equed=N FErr=  1.14D-15 BErr=  9.56D-17
 IWarn =    0
 DidBck=T Rises=T En-DIIS coefs:    0.36959    0.63041
 Iteration  1 RMS(Cart)=  0.05057101 RMS(Int)=  0.00166628
 Iteration  2 RMS(Cart)=  0.00202609 RMS(Int)=  0.00000110
 Iteration  3 RMS(Cart)=  0.00000131 RMS(Int)=  0.00000090
 Iteration  4 RMS(Cart)=  0.00000000 RMS(Int)=  0.00000090
 Iteration  1 RMS(Cart)=  0.00000000 RMS(Int)=  0.00000000
 ITry= 1 IFail=0 DXMaxC= 1.84D-01 DCOld= 1.00D+10 DXMaxT= 1.50D-01 DXLimC= 3.00D+00 Rises=F
 Variable       Old X    -DE/DX   Delta X   Delta X   Delta X     New X
                                 (Linear)    (Quad)   (Total)
    R1        2.18481   0.00000  -0.00010   0.00019   0.00009   2.18490
    R2        2.76499  -0.00010  -0.00043   0.00072   0.00030   2.76528
    R3        2.92023   0.00015   0.00126  -0.00221  -0.00094   2.91928
    R4        2.06758   0.00002   0.00006  -0.00009  -0.00003   2.06755
    R5        2.06758   0.00003   0.00006  -0.00010  -0.00003   2.06755
    R6        2.76590  -0.00015  -0.00159   0.00285   0.00125   2.76715
    R7        2.06868  -0.00001   0.00027  -0.00050  -0.00024   2.06844
    R8        2.06868  -0.00001   0.00027  -0.00050  -0.00023   2.06844
    R9        2.18363   0.00004  -0.00078   0.00145   0.00067   2.18430
   R10        5.66918  -0.01326  -0.00000   0.00000  -0.00000   5.66918
    A1        1.91774   0.00009  -0.00205   0.00388   0.00183   1.91957
    A2        1.90305  -0.00010  -0.00007  -0.00004  -0.00011   1.90294
    A3        1.90296  -0.00006  -0.00001  -0.00004  -0.00005   1.90291
    A4        1.92891   0.00009   0.00077  -0.00129  -0.00052   1.92839
    A5        1.92892   0.00007   0.00076  -0.00129  -0.00052   1.92839
    A6        1.88160  -0.00009   0.00063  -0.00131  -0.00067   1.88092
    A7        1.95095  -0.00004   0.00049  -0.00101  -0.00052   1.95043
    A8        1.92810   0.00008   0.00157  -0.00276  -0.00118   1.92691
    A9        1.92809   0.00008   0.00158  -0.00277  -0.00119   1.92690
   A10        1.88997  -0.00005  -0.00217   0.00384   0.00167   1.89164
   A11        1.88996  -0.00005  -0.00218   0.00386   0.00169   1.89165
   A12        1.87450  -0.00002   0.00057  -0.00093  -0.00036   1.87414
   A13        3.11790  -0.00011  -0.00123   0.00010  -0.00113   3.11677
   A14        3.13956  -0.00066  -0.00112  -0.00118  -0.00230   3.13726
   A15        3.27157  -0.00118  -0.05151  -0.02715  -0.07865   3.19292
   A16        3.13031  -0.00012  -0.00197   0.00134  -0.00063   3.12968
   A17        3.14311   0.00036   0.00042   0.00100   0.00142   3.14453
   A18        3.20151  -0.00007  -0.01366   0.01762   0.00395   3.20547
    D1        3.14147   0.00001   0.00009   0.00016   0.00025  -3.14146
    D2       -1.03590  -0.00003  -0.00126   0.00247   0.00121  -1.03469
    D3        1.03567   0.00005   0.00144  -0.00217  -0.00073   1.03495
    D4       -1.04078   0.00000  -0.00083   0.00179   0.00096  -1.03982
    D5        1.06503  -0.00004  -0.00218   0.00411   0.00193   1.06696
    D6        3.13660   0.00004   0.00052  -0.00053  -0.00001   3.13659
    D7        1.04064  -0.00001   0.00094  -0.00147  -0.00053   1.04011
    D8       -3.13673  -0.00005  -0.00041   0.00084   0.00043  -3.13630
    D9       -1.06516   0.00003   0.00229  -0.00380  -0.00151  -1.06667
         Item               Value     Threshold  Converged?
 Maximum Force            0.001182     0.000450     NO 
 RMS     Force            0.000243     0.000300     YES
 Maximum Displacement     0.183591     0.001800     NO 
 RMS     Displacement     0.051473     0.001200     NO 
 Predicted change in Energy=-4.723264D-05
 GradGradGradGradGradGradGradGradGradGradGradGradGradGradGradGradGradGrad

 Leave Link  103 at Wed Aug  6 21:39:51 2025, MaxMem=   104857600 cpu:               0.0 elap:               0.0
 (Enter /Applications/g16/l202.exe)
                          Input orientation:                          
 ---------------------------------------------------------------------
 Center     Atomic      Atomic             Coordinates (Angstroms)
 Number     Number       Type             X           Y           Z
 ---------------------------------------------------------------------
      1          7           0       -2.977843    0.253891    0.007059
      2          6           0       -1.893596   -0.147599    0.004475
      3          6           0       -0.508312   -0.619062   -0.000502
      4          6           0        0.459228    0.585234   -0.002083
      5          6           0        1.859344    0.156441   -0.007234
      6          7           0        2.962879   -0.187444   -0.010888
      7          1           0        0.286926    1.212016   -0.882732
      8          1           0        0.292694    1.209687    0.881327
      9          1           0       -0.346479   -1.241488   -0.885631
     10          1           0       -0.340893   -1.243656    0.882054
     11          3           0        5.877042   -0.899463    0.015286
 ---------------------------------------------------------------------
                    Distance matrix (angstroms):
                    1          2          3          4          5
     1  N    0.000000
     2  C    1.156197   0.000000
     3  C    2.619291   1.463324   0.000000
     4  C    3.453017   2.464320   1.544818   0.000000
     5  C    4.838190   3.765255   2.491434   1.464314   0.000000
     6  N    5.957120   4.856664   3.497938   2.620186   1.155881
     7  H    3.516880   2.718524   2.182563   1.094571   2.086441
     8  H    3.517712   2.718632   2.182557   1.094573   2.086446
     9  H    3.155492   2.093431   1.094101   2.183285   2.755258
    10  H    3.156227   2.093412   1.094099   2.183284   2.755386
    11  Li   8.929685   7.806935   6.391527   5.617591   4.154195
                    6          7          8          9         10
     6  N    0.000000
     7  H    3.143140   0.000000
     8  H    3.142914   1.764070   0.000000
     9  H    3.581625   2.533949   3.088518   0.000000
    10  H    3.581597   3.088520   2.533836   1.767695   0.000000
    11  Li   3.000000   6.042696   6.031872   6.297686   6.287485
                   11
    11  Li   0.000000
 Stoichiometry    C4H4LiN2(1+)
 Framework group  C1[X(C4H4LiN2)]
 Deg. of freedom    27
 Full point group                 C1      NOp   1
 RotChk:  IX=0 Diff= 1.69D-02
 Largest Abelian subgroup         C1      NOp   1
 Largest concise Abelian subgroup C1      NOp   1
                         Standard orientation:                         
 ---------------------------------------------------------------------
 Center     Atomic      Atomic             Coordinates (Angstroms)
 Number     Number       Type             X           Y           Z
 ---------------------------------------------------------------------
      1          7           0        3.366433    0.101194   -0.005157
      2          6           0        2.259525   -0.232778   -0.001870
      3          6           0        0.847841   -0.618046    0.003806
      4          6           0       -0.043729    0.643516   -0.001477
      5          6           0       -1.467589    0.301750    0.004151
      6          7           0       -2.590204    0.026466    0.008210
      7          1           0        0.166100    1.262772    0.876351
      8          1           0        0.161663    1.252238   -0.887682
      9          1           0        0.647265   -1.225027    0.891726
     10          1           0        0.643023   -1.235428   -0.875933
     11          3           0       -5.542648   -0.504941   -0.017834
 ---------------------------------------------------------------------
 Rotational constants (GHZ):          22.3714175           0.8906772           0.8658098
 Leave Link  202 at Wed Aug  6 21:39:51 2025, MaxMem=   104857600 cpu:               0.0 elap:               0.0
 (Enter /Applications/g16/l301.exe)
 Standard basis: 6-31G(d) (6D, 7F)
 Ernie: Thresh=  0.10000D-02 Tol=  0.10000D-05 Strict=F.
 There are   113 symmetry adapted cartesian basis functions of A   symmetry.
 There are   113 symmetry adapted basis functions of A   symmetry.
   113 basis functions,   212 primitive gaussians,   113 cartesian basis functions
    22 alpha electrons       22 beta electrons
       nuclear repulsion energy       191.5863785963 Hartrees.
 IExCor= 4639 DFT=T Ex+Corr=wB97XD ExCW=0 ScaHFX=  1.000000
 ScaDFX=  1.000000  1.000000  1.000000  1.000000 ScalE2=  1.000000  1.000000
 IRadAn=      5 IRanWt=     -1 IRanGd=            0 ICorTp=0 IEmpDi=121
 HFx  wShort=  0.000000 wLong=  0.200000 cFull=  0.222036 cShort=  0.000000 cLong=  0.777964
 DFx  wShort=  0.000000 wLong=  0.200000 cFull=  0.000000 cShort=  0.000000 cLong=  1.000000
 NAtoms=   11 NActive=   11 NUniq=   11 SFac= 1.00D+00 NAtFMM=   60 NAOKFM=F Big=F
 Integral buffers will be    131072 words long.
 Raffenetti 2 integral format.
 Two-electron integral symmetry is turned on.
 R6Disp:  Grimme-D2 Dispersion energy=       -0.0043923391 Hartrees.
 Nuclear repulsion after empirical dispersion term =      191.5819862572 Hartrees.
 Leave Link  301 at Wed Aug  6 21:39:51 2025, MaxMem=   104857600 cpu:               0.0 elap:               0.0
 (Enter /Applications/g16/l302.exe)
 NPDir=0 NMtPBC=     1 NCelOv=     1 NCel=       1 NClECP=     1 NCelD=      1
         NCelK=      1 NCelE2=     1 NClLst=     1 CellRange=     0.0.
 One-electron integrals computed using PRISM.
 One-electron integral symmetry used in STVInt
 NBasis=   113 RedAO= T EigKep=  9.49D-04  NBF=   113
 NBsUse=   113 1.00D-06 EigRej= -1.00D+00 NBFU=   113
 Precomputing XC quadrature grid using
 IXCGrd= 4 IRadAn=           5 IRanWt=          -1 IRanGd=           0 AccXCQ= 0.00D+00.
 Generated NRdTot=       0 NPtTot=           0 NUsed=           0 NTot=          32
 NSgBfM=   113   113   113   113   113 MxSgAt=    11 MxSgA2=    11.
 Leave Link  302 at Wed Aug  6 21:39:52 2025, MaxMem=   104857600 cpu:               0.1 elap:               0.1
 (Enter /Applications/g16/l303.exe)
 DipDrv:  MaxL=1.
 Leave Link  303 at Wed Aug  6 21:39:52 2025, MaxMem=   104857600 cpu:               0.0 elap:               0.0
 (Enter /Applications/g16/l401.exe)
 Initial guess from the checkpoint file:  "/Users/srak/g16_scratch/Gau-95635.chk"
 B after Tr=    -0.000000    0.000000   -0.000000
         Rot=    0.999996    0.002617   -0.000086    0.000499 Ang=   0.31 deg.
 Guess basis will be translated and rotated to current coordinates.
 JPrj=2 DoOrth=T DoCkMO=T.
 Generating alternative initial guess.
 ExpMin= 3.60D-02 ExpMax= 4.17D+03 ExpMxC= 6.27D+02 IAcc=3 IRadAn=         5 AccDes= 0.00D+00
 Harris functional with IExCor= 4639 and IRadAn=       5 diagonalized for initial guess.
 HarFok:  IExCor= 4639 AccDes= 0.00D+00 IRadAn=         5 IDoV= 1 UseB2=F ITyADJ=14
 ICtDFT=  3500011 ScaDFX=  1.000000  1.000000  1.000000  1.000000
 FoFCou: FMM=F IPFlag=           0 FMFlag=      100000 FMFlg1=           0
         NFxFlg=           0 DoJE=T BraDBF=F KetDBF=T FulRan=T
         wScrn=  0.000000 ICntrl=       500 IOpCl=  0 I1Cent=   200000004 NGrid=           0
         NMat0=    1 NMatS0=      1 NMatT0=    0 NMatD0=    1 NMtDS0=    0 NMtDT0=    0
 Petite list used in FoFCou.
 Harris En= -259.793989562100    
 Leave Link  401 at Wed Aug  6 21:39:52 2025, MaxMem=   104857600 cpu:               0.5 elap:               0.5
 (Enter /Applications/g16/l502.exe)
 Keep R1 ints in memory in canonical form, NReq=43174005.
 FoFCou: FMM=F IPFlag=           0 FMFlag=           0 FMFlg1=           0
         NFxFlg=           0 DoJE=F BraDBF=F KetDBF=F FulRan=T
         wScrn=  0.000000 ICntrl=       600 IOpCl=  0 I1Cent=           0 NGrid=           0
         NMat0=    1 NMatS0=   6441 NMatT0=    0 NMatD0=    1 NMtDS0=    0 NMtDT0=    0
 Symmetry not used in FoFCou.
 Two-electron integral symmetry not used.
 Closed shell SCF:
 Using DIIS extrapolation, IDIIS=  1040.
 NGot=   104857600 LenX=    63336875 LenY=    63323665
 Requested convergence on RMS density matrix=1.00D-08 within 128 cycles.
 Requested convergence on MAX density matrix=1.00D-06.
 Requested convergence on             energy=1.00D-06.
 No special actions if energy rises.

 Cycle   1  Pass 1  IDiag  1:
 E= -271.531945041378    
 DIIS: error= 1.35D-03 at cycle   1 NSaved=   1.
 NSaved= 1 IEnMin= 1 EnMin= -271.531945041378     IErMin= 1 ErrMin= 1.35D-03
 ErrMax= 1.35D-03  0.00D+00 EMaxC= 1.00D-01 BMatC= 3.39D-04 BMatP= 3.39D-04
 IDIUse=3 WtCom= 9.86D-01 WtEn= 1.35D-02
 Coeff-Com:  0.100D+01
 Coeff-En:   0.100D+01
 Coeff:      0.100D+01
 Gap=     2.167 Goal=   None    Shift=    0.000
 GapD=    2.167 DampG=2.000 DampE=1.000 DampFc=2.0000 IDamp=-1.
 RMSDP=1.96D-04 MaxDP=3.62D-03              OVMax= 6.02D-03

 Cycle   2  Pass 1  IDiag  1:
 E= -271.532502814722     Delta-E=       -0.000557773344 Rises=F Damp=F
 DIIS: error= 2.42D-04 at cycle   2 NSaved=   2.
 NSaved= 2 IEnMin= 2 EnMin= -271.532502814722     IErMin= 2 ErrMin= 2.42D-04
 ErrMax= 2.42D-04  0.00D+00 EMaxC= 1.00D-01 BMatC= 1.38D-05 BMatP= 3.39D-04
 IDIUse=3 WtCom= 9.98D-01 WtEn= 2.42D-03
 Coeff-Com: -0.183D+00 0.118D+01
 Coeff-En:   0.000D+00 0.100D+01
 Coeff:     -0.183D+00 0.118D+01
 Gap=     0.346 Goal=   None    Shift=    0.000
 RMSDP=6.17D-05 MaxDP=9.35D-04 DE=-5.58D-04 OVMax= 2.22D-03

 Cycle   3  Pass 1  IDiag  1:
 E= -271.532535226604     Delta-E=       -0.000032411882 Rises=F Damp=F
 DIIS: error= 9.47D-05 at cycle   3 NSaved=   3.
 NSaved= 3 IEnMin= 3 EnMin= -271.532535226604     IErMin= 3 ErrMin= 9.47D-05
 ErrMax= 9.47D-05  0.00D+00 EMaxC= 1.00D-01 BMatC= 1.19D-06 BMatP= 1.38D-05
 IDIUse=1 WtCom= 1.00D+00 WtEn= 0.00D+00
 Coeff-Com: -0.510D-01 0.239D+00 0.812D+00
 Coeff:     -0.510D-01 0.239D+00 0.812D+00
 Gap=     0.346 Goal=   None    Shift=    0.000
 RMSDP=1.52D-05 MaxDP=2.97D-04 DE=-3.24D-05 OVMax= 4.93D-04

 Cycle   4  Pass 1  IDiag  1:
 E= -271.532536359843     Delta-E=       -0.000001133239 Rises=F Damp=F
 DIIS: error= 7.21D-05 at cycle   4 NSaved=   4.
 NSaved= 4 IEnMin= 4 EnMin= -271.532536359843     IErMin= 4 ErrMin= 7.21D-05
 ErrMax= 7.21D-05  0.00D+00 EMaxC= 1.00D-01 BMatC= 7.06D-07 BMatP= 1.19D-06
 IDIUse=1 WtCom= 1.00D+00 WtEn= 0.00D+00
 Coeff-Com: -0.311D-02-0.302D-01 0.436D+00 0.598D+00
 Coeff:     -0.311D-02-0.302D-01 0.436D+00 0.598D+00
 Gap=     0.346 Goal=   None    Shift=    0.000
 RMSDP=7.97D-06 MaxDP=1.72D-04 DE=-1.13D-06 OVMax= 2.76D-04

 Cycle   5  Pass 1  IDiag  1:
 E= -271.532536994457     Delta-E=       -0.000000634614 Rises=F Damp=F
 DIIS: error= 2.35D-05 at cycle   5 NSaved=   5.
 NSaved= 5 IEnMin= 5 EnMin= -271.532536994457     IErMin= 5 ErrMin= 2.35D-05
 ErrMax= 2.35D-05  0.00D+00 EMaxC= 1.00D-01 BMatC= 8.98D-08 BMatP= 7.06D-07
 IDIUse=1 WtCom= 1.00D+00 WtEn= 0.00D+00
 Coeff-Com:  0.908D-02-0.661D-01 0.493D-01 0.291D+00 0.716D+00
 Coeff:      0.908D-02-0.661D-01 0.493D-01 0.291D+00 0.716D+00
 Gap=     0.346 Goal=   None    Shift=    0.000
 RMSDP=2.94D-06 MaxDP=6.69D-05 DE=-6.35D-07 OVMax= 1.11D-04

 Cycle   6  Pass 1  IDiag  1:
 E= -271.532537089232     Delta-E=       -0.000000094775 Rises=F Damp=F
 DIIS: error= 4.76D-06 at cycle   6 NSaved=   6.
 NSaved= 6 IEnMin= 6 EnMin= -271.532537089232     IErMin= 6 ErrMin= 4.76D-06
 ErrMax= 4.76D-06  0.00D+00 EMaxC= 1.00D-01 BMatC= 4.33D-09 BMatP= 8.98D-08
 IDIUse=1 WtCom= 1.00D+00 WtEn= 0.00D+00
 Coeff-Com:  0.325D-02-0.190D-01-0.230D-01 0.400D-01 0.227D+00 0.771D+00
 Coeff:      0.325D-02-0.190D-01-0.230D-01 0.400D-01 0.227D+00 0.771D+00
 Gap=     0.346 Goal=   None    Shift=    0.000
 RMSDP=7.13D-07 MaxDP=1.25D-05 DE=-9.48D-08 OVMax= 3.26D-05

 Cycle   7  Pass 1  IDiag  1:
 E= -271.532537094556     Delta-E=       -0.000000005323 Rises=F Damp=F
 DIIS: error= 1.52D-06 at cycle   7 NSaved=   7.
 NSaved= 7 IEnMin= 7 EnMin= -271.532537094556     IErMin= 7 ErrMin= 1.52D-06
 ErrMax= 1.52D-06  0.00D+00 EMaxC= 1.00D-01 BMatC= 4.00D-10 BMatP= 4.33D-09
 IDIUse=1 WtCom= 1.00D+00 WtEn= 0.00D+00
 Coeff-Com:  0.694D-06 0.123D-02-0.107D-01-0.173D-01-0.800D-02 0.207D+00
 Coeff-Com:  0.828D+00
 Coeff:      0.694D-06 0.123D-02-0.107D-01-0.173D-01-0.800D-02 0.207D+00
 Coeff:      0.828D+00
 Gap=     0.346 Goal=   None    Shift=    0.000
 RMSDP=2.99D-07 MaxDP=6.01D-06 DE=-5.32D-09 OVMax= 1.12D-05

 Cycle   8  Pass 1  IDiag  1:
 E= -271.532537094857     Delta-E=       -0.000000000301 Rises=F Damp=F
 DIIS: error= 1.57D-06 at cycle   8 NSaved=   8.
 NSaved= 8 IEnMin= 8 EnMin= -271.532537094857     IErMin= 7 ErrMin= 1.52D-06
 ErrMax= 1.57D-06  0.00D+00 EMaxC= 1.00D-01 BMatC= 2.67D-10 BMatP= 4.00D-10
 IDIUse=1 WtCom= 1.00D+00 WtEn= 0.00D+00
 Coeff-Com: -0.426D-03 0.327D-02-0.357D-02-0.160D-01-0.352D-01 0.248D-01
 Coeff-Com:  0.525D+00 0.502D+00
 Coeff:     -0.426D-03 0.327D-02-0.357D-02-0.160D-01-0.352D-01 0.248D-01
 Coeff:      0.525D+00 0.502D+00
 Gap=     0.346 Goal=   None    Shift=    0.000
 RMSDP=1.23D-07 MaxDP=2.95D-06 DE=-3.01D-10 OVMax= 4.48D-06

 Cycle   9  Pass 1  IDiag  1:
 E= -271.532537095094     Delta-E=       -0.000000000237 Rises=F Damp=F
 DIIS: error= 1.35D-07 at cycle   9 NSaved=   9.
 NSaved= 9 IEnMin= 9 EnMin= -271.532537095094     IErMin= 9 ErrMin= 1.35D-07
 ErrMax= 1.35D-07  0.00D+00 EMaxC= 1.00D-01 BMatC= 3.14D-12 BMatP= 2.67D-10
 IDIUse=1 WtCom= 1.00D+00 WtEn= 0.00D+00
 Coeff-Com: -0.646D-04 0.378D-03 0.604D-03-0.505D-03-0.455D-02-0.182D-01
 Coeff-Com: -0.876D-02 0.794D-01 0.952D+00
 Coeff:     -0.646D-04 0.378D-03 0.604D-03-0.505D-03-0.455D-02-0.182D-01
 Coeff:     -0.876D-02 0.794D-01 0.952D+00
 Gap=     0.346 Goal=   None    Shift=    0.000
 RMSDP=3.26D-08 MaxDP=3.84D-07 DE=-2.37D-10 OVMax= 9.95D-07

 Cycle  10  Pass 1  IDiag  1:
 E= -271.532537095097     Delta-E=       -0.000000000003 Rises=F Damp=F
 DIIS: error= 2.36D-08 at cycle  10 NSaved=  10.
 NSaved=10 IEnMin=10 EnMin= -271.532537095097     IErMin=10 ErrMin= 2.36D-08
 ErrMax= 2.36D-08  0.00D+00 EMaxC= 1.00D-01 BMatC= 1.03D-13 BMatP= 3.14D-12
 IDIUse=1 WtCom= 1.00D+00 WtEn= 0.00D+00
 Coeff-Com:  0.150D-04-0.132D-03 0.278D-03 0.795D-03 0.128D-02-0.372D-02
 Coeff-Com: -0.290D-01-0.173D-01 0.113D+00 0.935D+00
 Coeff:      0.150D-04-0.132D-03 0.278D-03 0.795D-03 0.128D-02-0.372D-02
 Coeff:     -0.290D-01-0.173D-01 0.113D+00 0.935D+00
 Gap=     0.346 Goal=   None    Shift=    0.000
 RMSDP=7.30D-09 MaxDP=8.02D-08 DE=-3.18D-12 OVMax= 1.94D-07

 SCF Done:  E(RwB97XD) =  -271.532537095     A.U. after   10 cycles
            NFock= 10  Conv=0.73D-08     -V/T= 2.0096
 KE= 2.689612281783D+02 PE=-1.007995362623D+03 EE= 2.759196110928D+02
 Leave Link  502 at Wed Aug  6 21:39:58 2025, MaxMem=   104857600 cpu:               6.2 elap:               6.2
 (Enter /Applications/g16/l701.exe)
 ... and contract with generalized density number  0.
 Compute integral first derivatives.
 R6Disp: Adding Grimme-D2 dispersion energy 1st derivatives to the gradient.
 Leave Link  701 at Wed Aug  6 21:39:58 2025, MaxMem=   104857600 cpu:               0.0 elap:               0.0
 (Enter /Applications/g16/l702.exe)
 L702 exits ... SP integral derivatives will be done elsewhere.
 Leave Link  702 at Wed Aug  6 21:39:58 2025, MaxMem=   104857600 cpu:               0.0 elap:               0.0
 (Enter /Applications/g16/l703.exe)
 Integral derivatives from FoFJK, PRISM(SPDF).
 Compute integral first derivatives, UseDBF=F ICtDFT=           0.
 Calling FoFJK, ICntrl=      2127 FMM=F ISym2X=0 I1Cent= 0 IOpClX= 0 NMat=1 NMatS=1 NMatT=0.
 FoFJK:  IHMeth= 1 ICntrl=    2127 DoSepK=T KAlg= 0 I1Cent=           0 FoldK=F
 IRaf=         1 NMat=       1 IRICut=       1 DoRegI=T DoRafI=F ISym2E= 0 IDoP0=0 IntGTp=1.
 FoFCou: FMM=F IPFlag=           0 FMFlag=      100000 FMFlg1=         800
         NFxFlg=           0 DoJE=F BraDBF=F KetDBF=F FulRan=T
         wScrn=  0.000000 ICntrl=      2527 IOpCl=  0 I1Cent=           0 NGrid=           0
         NMat0=    1 NMatS0=      1 NMatT0=    0 NMatD0=    1 NMtDS0=    0 NMtDT0=    0
 Symmetry not used in FoFCou.
 Leave Link  703 at Wed Aug  6 21:40:01 2025, MaxMem=   104857600 cpu:               2.3 elap:               2.3
 (Enter /Applications/g16/l716.exe)
 Dipole        =-9.48402357D+00-8.66912203D-01-3.27324884D-02
 ***** Axes restored to original set *****
 -------------------------------------------------------------------
 Center     Atomic                   Forces (Hartrees/Bohr)
 Number     Number              X              Y              Z
 -------------------------------------------------------------------
      1        7           0.000111393   -0.000042159    0.000047235
      2        6           0.000167865    0.000000252   -0.000093722
      3        6          -0.000031072   -0.000331359    0.000043139
      4        6           0.000000949    0.000102000   -0.000045321
      5        6           0.000331092    0.000033625    0.000022240
      6        7           0.011933532   -0.002902642    0.000184035
      7        1           0.000303400    0.000078673   -0.000085970
      8        1           0.000314884    0.000080384    0.000081573
      9        1          -0.000129704   -0.000086101   -0.000045772
     10        1          -0.000111096   -0.000093328    0.000042995
     11        3          -0.012891243    0.003160656   -0.000150431
 -------------------------------------------------------------------
 Cartesian Forces:  Max     0.012891243 RMS     0.003150862
 Leave Link  716 at Wed Aug  6 21:40:01 2025, MaxMem=   104857600 cpu:               0.0 elap:               0.0
 (Enter /Applications/g16/l103.exe)

 GradGradGradGradGradGradGradGradGradGradGradGradGradGradGradGradGradGrad
 Berny optimization.
 Using GEDIIS/GDIIS optimizer.
 FormGI is forming the generalized inverse of G from B-inverse, IUseBI=4.
 Internal  Forces:  Max     0.013273820 RMS     0.002196547
 Search for a local minimum.
 Step number   3 out of a maximum of   47
 All quantities printed in internal units (Hartrees-Bohrs-Radians)
 RMS Force = .25408D-03 SwitMx=.10000D-02 MixMth= 2
 Mixed Optimization -- En-DIIS/RFO-DIIS
 Swapping is turned off.
 Update second derivatives using D2CorX and points    1    2    3
 DE= -3.90D-05 DEPred=-4.72D-05 R= 8.27D-01
 TightC=F SS=  1.41D+00  RLast= 7.90D-02 DXNew= 2.5227D-01 2.3692D-01
 Trust test= 8.27D-01 RLast= 7.90D-02 DXMaxT set to 2.37D-01
 ITU=  1 -1  0
     Eigenvalues ---    0.00230   0.00251   0.01194   0.01268   0.01561
     Eigenvalues ---    0.04908   0.05355   0.05480   0.05556   0.05797
     Eigenvalues ---    0.06220   0.15582   0.16000   0.16001   0.17302
     Eigenvalues ---    0.19867   0.22339   0.28462   0.34176   0.34250
     Eigenvalues ---    0.34335   0.34363   0.36533   0.38432   1.30225
     Eigenvalues ---    1.305971000.000001000.000001000.000001000.00000
     Eigenvalues --- 1000.000001000.000001000.000001000.000001000.00000
     Eigenvalues --- 1000.000001000.00000
 En-DIIS/RFO-DIIS/Sim-DIIS IScMMF=       -3 using points:     3    2    1
 RFO step:  Lambda=-9.36439926D-06.
 NNeg= 0 NGDIIS= 3 SimSw=  2.50D-03 Rises=F DC= -3.90D-05 SmlDif=  1.00D-05
 NRisDI= 0 DoIntr=F SqrtH=F CThrHd= 10.0 CDAdj=  3.0
 RMS Error=  0.4021672300D-02 NUsed= 3 OKEnD=T EnDIS=F
 InvSVX:  RCond= 2.77D-04 Info=           0 Equed=N FErr=  1.71D-15 BErr=  4.64D-17
 DidBck=T Rises=F RFO-DIIS coefs:    0.14221    0.14158    0.71620
 Iteration  1 RMS(Cart)=  0.00950385 RMS(Int)=  0.00007244
 Iteration  2 RMS(Cart)=  0.00014135 RMS(Int)=  0.00000256
 Iteration  3 RMS(Cart)=  0.00000002 RMS(Int)=  0.00000256
 Iteration  1 RMS(Cart)=  0.00000000 RMS(Int)=  0.00000000
 ITry= 1 IFail=0 DXMaxC= 3.63D-02 DCOld= 1.00D+10 DXMaxT= 2.37D-01 DXLimC= 3.00D+00 Rises=F
 Variable       Old X    -DE/DX   Delta X   Delta X   Delta X     New X
                                 (Linear)    (Quad)   (Total)
    R1        2.18490  -0.00012  -0.00019   0.00012  -0.00007   2.18482
    R2        2.76528  -0.00028  -0.00074   0.00023  -0.00051   2.76477
    R3        2.91928   0.00042   0.00224  -0.00113   0.00112   2.92040
    R4        2.06755   0.00007   0.00010   0.00002   0.00012   2.06767
    R5        2.06755   0.00007   0.00010   0.00003   0.00013   2.06767
    R6        2.76715  -0.00068  -0.00288   0.00151  -0.00138   2.76577
    R7        2.06844   0.00007   0.00051  -0.00034   0.00017   2.06861
    R8        2.06844   0.00006   0.00050  -0.00034   0.00016   2.06861
    R9        2.18430  -0.00099  -0.00146   0.00088  -0.00059   2.18371
   R10        5.66918  -0.01327   0.00000   0.00000   0.00000   5.66918
    A1        1.91957  -0.00018  -0.00390   0.00285  -0.00105   1.91852
    A2        1.90294  -0.00005   0.00001  -0.00050  -0.00049   1.90245
    A3        1.90291  -0.00004   0.00004  -0.00040  -0.00037   1.90255
    A4        1.92839   0.00019   0.00132  -0.00044   0.00088   1.92927
    A5        1.92839   0.00018   0.00131  -0.00045   0.00086   1.92926
    A6        1.88092  -0.00011   0.00130  -0.00114   0.00016   1.88108
    A7        1.95043  -0.00002   0.00100  -0.00123  -0.00023   1.95019
    A8        1.92691   0.00031   0.00280  -0.00122   0.00159   1.92850
    A9        1.92690   0.00032   0.00281  -0.00120   0.00162   1.92852
   A10        1.89164  -0.00024  -0.00390   0.00214  -0.00176   1.88988
   A11        1.89165  -0.00025  -0.00392   0.00209  -0.00182   1.88982
   A12        1.87414  -0.00014   0.00096  -0.00045   0.00052   1.87466
   A13        3.11677   0.00004  -0.00043   0.00174   0.00131   3.11808
   A14        3.13726  -0.00007   0.00070  -0.00194  -0.00124   3.13602
   A15        3.19292   0.00014   0.00895   0.00025   0.00921   3.20212
   A16        3.12968  -0.00008  -0.00170  -0.00220  -0.00389   3.12579
   A17        3.14453  -0.00008  -0.00074   0.00011  -0.00063   3.14390
   A18        3.20547  -0.00008  -0.01891  -0.00394  -0.02285   3.18262
    D1       -3.14146   0.00000  -0.00011  -0.00004  -0.00015   3.14158
    D2       -1.03469  -0.00010  -0.00247   0.00102  -0.00144  -1.03613
    D3        1.03495   0.00011   0.00226  -0.00104   0.00121   1.03616
    D4       -1.03982  -0.00006  -0.00177   0.00090  -0.00087  -1.04069
    D5        1.06696  -0.00016  -0.00413   0.00196  -0.00217   1.06479
    D6        3.13659   0.00005   0.00060  -0.00011   0.00049   3.13708
    D7        1.04011   0.00005   0.00152  -0.00109   0.00044   1.04054
    D8       -3.13630  -0.00006  -0.00084  -0.00003  -0.00086  -3.13716
    D9       -1.06667   0.00016   0.00390  -0.00209   0.00180  -1.06487
         Item               Value     Threshold  Converged?
 Maximum Force            0.000990     0.000450     NO 
 RMS     Force            0.000254     0.000300     YES
 Maximum Displacement     0.036265     0.001800     NO 
 RMS     Displacement     0.009548     0.001200     NO 
 Predicted change in Energy=-4.590996D-06
 Lowest energy point so far.  Saving SCF results.
 GradGradGradGradGradGradGradGradGradGradGradGradGradGradGradGradGradGrad

 Leave Link  103 at Wed Aug  6 21:40:01 2025, MaxMem=   104857600 cpu:               0.0 elap:               0.0
 (Enter /Applications/g16/l202.exe)
                          Input orientation:                          
 ---------------------------------------------------------------------
 Center     Atomic      Atomic             Coordinates (Angstroms)
 Number     Number       Type             X           Y           Z
 ---------------------------------------------------------------------
      1          7           0       -2.976980    0.255336   -0.001429
      2          6           0       -1.893172   -0.147232   -0.002081
      3          6           0       -0.508583   -0.619918    0.000391
      4          6           0        0.459201    0.584941    0.000252
      5          6           0        1.858573    0.156182    0.002711
      6          7           0        2.961450   -0.188783    0.003963
      7          1           0        0.293080    1.209871   -0.883006
      8          1           0        0.290701    1.212015    0.881537
      9          1           0       -0.343857   -1.244726   -0.882601
     10          1           0       -0.346187   -1.242626    0.885298
     11          3           0        5.876766   -0.896505   -0.003904
 ---------------------------------------------------------------------
                    Distance matrix (angstroms):
                    1          2          3          4          5
     1  N    0.000000
     2  C    1.156158   0.000000
     3  C    2.618980   1.463054   0.000000
     4  C    3.451954   2.463686   1.545410   0.000000
     5  C    4.836571   3.763997   2.491137   1.463585   0.000000
     6  N    5.955017   4.854805   3.496716   2.619143   1.155570
     7  H    3.518751   2.719827   2.184304   1.094659   2.084592
     8  H    3.517471   2.719860   2.184319   1.094659   2.084548
     9  H    3.155945   2.092889   1.094164   2.184493   2.756268
    10  H    3.154560   2.092963   1.094166   2.184482   2.756192
    11  Li   8.928358   7.805983   6.391338   5.616468   4.153803
                    6          7          8          9         10
     6  N    0.000000
     7  H    3.140565   0.000000
     8  H    3.140904   1.764546   0.000000
     9  H    3.581350   2.535889   3.090375   0.000000
    10  H    3.581592   3.090358   2.535923   1.767902   0.000000
    11  Li   3.000000   6.032180   6.036058   6.292020   6.295684
                   11
    11  Li   0.000000
 Stoichiometry    C4H4LiN2(1+)
 Framework group  C1[X(C4H4LiN2)]
 Deg. of freedom    27
 Full point group                 C1      NOp   1
 RotChk:  IX=2 Diff= 8.67D-03
 Largest Abelian subgroup         C1      NOp   1
 Largest concise Abelian subgroup C1      NOp   1
                         Standard orientation:                         
 ---------------------------------------------------------------------
 Center     Atomic      Atomic             Coordinates (Angstroms)
 Number     Number       Type             X           Y           Z
 ---------------------------------------------------------------------
      1          7           0        3.365498    0.102609    0.000798
      2          6           0        2.258955   -0.232452    0.001414
      3          6           0        0.847883   -0.618969   -0.001057
      4          6           0       -0.043864    0.643202    0.000846
      5          6           0       -1.466984    0.301439   -0.001556
      6          7           0       -2.589013    0.025049   -0.002771
      7          1           0        0.160712    1.255682    0.884755
      8          1           0        0.162652    1.259739   -0.879785
      9          1           0        0.645275   -1.233479    0.881282
     10          1           0        0.647162   -1.229459   -0.886614
     11          3           0       -5.542378   -0.501803    0.005429
 ---------------------------------------------------------------------
 Rotational constants (GHZ):          22.3808454           0.8910658           0.8661840
 Leave Link  202 at Wed Aug  6 21:40:01 2025, MaxMem=   104857600 cpu:               0.0 elap:               0.0
 (Enter /Applications/g16/l301.exe)
 Standard basis: 6-31G(d) (6D, 7F)
 Ernie: Thresh=  0.10000D-02 Tol=  0.10000D-05 Strict=F.
 There are   113 symmetry adapted cartesian basis functions of A   symmetry.
 There are   113 symmetry adapted basis functions of A   symmetry.
   113 basis functions,   212 primitive gaussians,   113 cartesian basis functions
    22 alpha electrons       22 beta electrons
       nuclear repulsion energy       191.6134492414 Hartrees.
 IExCor= 4639 DFT=T Ex+Corr=wB97XD ExCW=0 ScaHFX=  1.000000
 ScaDFX=  1.000000  1.000000  1.000000  1.000000 ScalE2=  1.000000  1.000000
 IRadAn=      5 IRanWt=     -1 IRanGd=            0 ICorTp=0 IEmpDi=121
 HFx  wShort=  0.000000 wLong=  0.200000 cFull=  0.222036 cShort=  0.000000 cLong=  0.777964
 DFx  wShort=  0.000000 wLong=  0.200000 cFull=  0.000000 cShort=  0.000000 cLong=  1.000000
 NAtoms=   11 NActive=   11 NUniq=   11 SFac= 1.00D+00 NAtFMM=   60 NAOKFM=F Big=F
 Integral buffers will be    131072 words long.
 Raffenetti 2 integral format.
 Two-electron integral symmetry is turned on.
 R6Disp:  Grimme-D2 Dispersion energy=       -0.0043932189 Hartrees.
 Nuclear repulsion after empirical dispersion term =      191.6090560224 Hartrees.
 Leave Link  301 at Wed Aug  6 21:40:01 2025, MaxMem=   104857600 cpu:               0.0 elap:               0.0
 (Enter /Applications/g16/l302.exe)
 NPDir=0 NMtPBC=     1 NCelOv=     1 NCel=       1 NClECP=     1 NCelD=      1
         NCelK=      1 NCelE2=     1 NClLst=     1 CellRange=     0.0.
 One-electron integrals computed using PRISM.
 One-electron integral symmetry used in STVInt
 NBasis=   113 RedAO= T EigKep=  9.48D-04  NBF=   113
 NBsUse=   113 1.00D-06 EigRej= -1.00D+00 NBFU=   113
 Precomputing XC quadrature grid using
 IXCGrd= 4 IRadAn=           5 IRanWt=          -1 IRanGd=           0 AccXCQ= 0.00D+00.
 Generated NRdTot=       0 NPtTot=           0 NUsed=           0 NTot=          32
 NSgBfM=   113   113   113   113   113 MxSgAt=    11 MxSgA2=    11.
 Leave Link  302 at Wed Aug  6 21:40:01 2025, MaxMem=   104857600 cpu:               0.1 elap:               0.1
 (Enter /Applications/g16/l303.exe)
 DipDrv:  MaxL=1.
 Leave Link  303 at Wed Aug  6 21:40:01 2025, MaxMem=   104857600 cpu:               0.0 elap:               0.0
 (Enter /Applications/g16/l401.exe)
 Initial guess from the checkpoint file:  "/Users/srak/g16_scratch/Gau-95635.chk"
 B after Tr=    -0.000000    0.000000    0.000000
         Rot=    0.999999   -0.001629    0.000041   -0.000028 Ang=  -0.19 deg.
 Guess basis will be translated and rotated to current coordinates.
 JPrj=2 DoOrth=T DoCkMO=T.
 Generating alternative initial guess.
 ExpMin= 3.60D-02 ExpMax= 4.17D+03 ExpMxC= 6.27D+02 IAcc=3 IRadAn=         5 AccDes= 0.00D+00
 Harris functional with IExCor= 4639 and IRadAn=       5 diagonalized for initial guess.
 HarFok:  IExCor= 4639 AccDes= 0.00D+00 IRadAn=         5 IDoV= 1 UseB2=F ITyADJ=14
 ICtDFT=  3500011 ScaDFX=  1.000000  1.000000  1.000000  1.000000
 FoFCou: FMM=F IPFlag=           0 FMFlag=      100000 FMFlg1=           0
         NFxFlg=           0 DoJE=T BraDBF=F KetDBF=T FulRan=T
         wScrn=  0.000000 ICntrl=       500 IOpCl=  0 I1Cent=   200000004 NGrid=           0
         NMat0=    1 NMatS0=      1 NMatT0=    0 NMatD0=    1 NMtDS0=    0 NMtDT0=    0
 Petite list used in FoFCou.
 Harris En= -259.793861174895    
 Leave Link  401 at Wed Aug  6 21:40:01 2025, MaxMem=   104857600 cpu:               0.6 elap:               0.6
 (Enter /Applications/g16/l502.exe)
 Keep R1 ints in memory in canonical form, NReq=43174005.
 FoFCou: FMM=F IPFlag=           0 FMFlag=           0 FMFlg1=           0
         NFxFlg=           0 DoJE=F BraDBF=F KetDBF=F FulRan=T
         wScrn=  0.000000 ICntrl=       600 IOpCl=  0 I1Cent=           0 NGrid=           0
         NMat0=    1 NMatS0=   6441 NMatT0=    0 NMatD0=    1 NMtDS0=    0 NMtDT0=    0
 Symmetry not used in FoFCou.
 Two-electron integral symmetry not used.
 Closed shell SCF:
 Using DIIS extrapolation, IDIIS=  1040.
 NGot=   104857600 LenX=    63336875 LenY=    63323665
 Requested convergence on RMS density matrix=1.00D-08 within 128 cycles.
 Requested convergence on MAX density matrix=1.00D-06.
 Requested convergence on             energy=1.00D-06.
 No special actions if energy rises.

 Cycle   1  Pass 1  IDiag  1:
 E= -271.532504261145    
 DIIS: error= 4.70D-04 at cycle   1 NSaved=   1.
 NSaved= 1 IEnMin= 1 EnMin= -271.532504261145     IErMin= 1 ErrMin= 4.70D-04
 ErrMax= 4.70D-04  0.00D+00 EMaxC= 1.00D-01 BMatC= 2.08D-05 BMatP= 2.08D-05
 IDIUse=3 WtCom= 9.95D-01 WtEn= 4.70D-03
 Coeff-Com:  0.100D+01
 Coeff-En:   0.100D+01
 Coeff:      0.100D+01
 Gap=     2.170 Goal=   None    Shift=    0.000
 RMSDP=4.74D-05 MaxDP=9.81D-04              OVMax= 1.41D-03

 Cycle   2  Pass 1  IDiag  1:
 E= -271.532539098217     Delta-E=       -0.000034837072 Rises=F Damp=F
 DIIS: error= 7.87D-05 at cycle   2 NSaved=   2.
 NSaved= 2 IEnMin= 2 EnMin= -271.532539098217     IErMin= 2 ErrMin= 7.87D-05
 ErrMax= 7.87D-05  0.00D+00 EMaxC= 1.00D-01 BMatC= 8.42D-07 BMatP= 2.08D-05
 IDIUse=1 WtCom= 1.00D+00 WtEn= 0.00D+00
 Coeff-Com: -0.181D+00 0.118D+01
 Coeff:     -0.181D+00 0.118D+01
 Gap=     0.346 Goal=   None    Shift=    0.000
 RMSDP=1.54D-05 MaxDP=2.59D-04 DE=-3.48D-05 OVMax= 5.48D-04

 Cycle   3  Pass 1  IDiag  1:
 E= -271.532541052722     Delta-E=       -0.000001954506 Rises=F Damp=F
 DIIS: error= 2.00D-05 at cycle   3 NSaved=   3.
 NSaved= 3 IEnMin= 3 EnMin= -271.532541052722     IErMin= 3 ErrMin= 2.00D-05
 ErrMax= 2.00D-05  0.00D+00 EMaxC= 1.00D-01 BMatC= 7.32D-08 BMatP= 8.42D-07
 IDIUse=1 WtCom= 1.00D+00 WtEn= 0.00D+00
 Coeff-Com: -0.536D-01 0.250D+00 0.804D+00
 Coeff:     -0.536D-01 0.250D+00 0.804D+00
 Gap=     0.346 Goal=   None    Shift=    0.000
 RMSDP=3.56D-06 MaxDP=7.74D-05 DE=-1.95D-06 OVMax= 1.05D-04

 Cycle   4  Pass 1  IDiag  1:
 E= -271.532541115918     Delta-E=       -0.000000063196 Rises=F Damp=F
 DIIS: error= 1.95D-05 at cycle   4 NSaved=   4.
 NSaved= 4 IEnMin= 4 EnMin= -271.532541115918     IErMin= 4 ErrMin= 1.95D-05
 ErrMax= 1.95D-05  0.00D+00 EMaxC= 1.00D-01 BMatC= 4.09D-08 BMatP= 7.32D-08
 IDIUse=1 WtCom= 1.00D+00 WtEn= 0.00D+00
 Coeff-Com: -0.694D-02-0.840D-02 0.429D+00 0.586D+00
 Coeff:     -0.694D-02-0.840D-02 0.429D+00 0.586D+00
 Gap=     0.346 Goal=   None    Shift=    0.000
 RMSDP=1.79D-06 MaxDP=4.76D-05 DE=-6.32D-08 OVMax= 7.16D-05

 Cycle   5  Pass 1  IDiag  1:
 E= -271.532541150367     Delta-E=       -0.000000034449 Rises=F Damp=F
 DIIS: error= 5.29D-06 at cycle   5 NSaved=   5.
 NSaved= 5 IEnMin= 5 EnMin= -271.532541150367     IErMin= 5 ErrMin= 5.29D-06
 ErrMax= 5.29D-06  0.00D+00 EMaxC= 1.00D-01 BMatC= 5.07D-09 BMatP= 4.09D-08
 IDIUse=1 WtCom= 1.00D+00 WtEn= 0.00D+00
 Coeff-Com:  0.689D-02-0.529D-01 0.526D-01 0.288D+00 0.705D+00
 Coeff:      0.689D-02-0.529D-01 0.526D-01 0.288D+00 0.705D+00
 Gap=     0.346 Goal=   None    Shift=    0.000
 RMSDP=7.04D-07 MaxDP=1.43D-05 DE=-3.44D-08 OVMax= 2.33D-05

 Cycle   6  Pass 1  IDiag  1:
 E= -271.532541155531     Delta-E=       -0.000000005164 Rises=F Damp=F
 DIIS: error= 1.17D-06 at cycle   6 NSaved=   6.
 NSaved= 6 IEnMin= 6 EnMin= -271.532541155531     IErMin= 6 ErrMin= 1.17D-06
 ErrMax= 1.17D-06  0.00D+00 EMaxC= 1.00D-01 BMatC= 2.08D-10 BMatP= 5.07D-09
 IDIUse=1 WtCom= 1.00D+00 WtEn= 0.00D+00
 Coeff-Com:  0.257D-02-0.148D-01-0.216D-01 0.347D-01 0.212D+00 0.787D+00
 Coeff:      0.257D-02-0.148D-01-0.216D-01 0.347D-01 0.212D+00 0.787D+00
 Gap=     0.346 Goal=   None    Shift=    0.000
 RMSDP=1.75D-07 MaxDP=2.89D-06 DE=-5.16D-09 OVMax= 6.42D-06

 Cycle   7  Pass 1  IDiag  1:
 E= -271.532541155794     Delta-E=       -0.000000000263 Rises=F Damp=F
 DIIS: error= 3.54D-07 at cycle   7 NSaved=   7.
 NSaved= 7 IEnMin= 7 EnMin= -271.532541155794     IErMin= 7 ErrMin= 3.54D-07
 ErrMax= 3.54D-07  0.00D+00 EMaxC= 1.00D-01 BMatC= 3.02D-11 BMatP= 2.08D-10
 IDIUse=1 WtCom= 1.00D+00 WtEn= 0.00D+00
 Coeff-Com:  0.398D-03-0.121D-02-0.135D-01-0.104D-01 0.227D-01 0.301D+00
 Coeff-Com:  0.702D+00
 Coeff:      0.398D-03-0.121D-02-0.135D-01-0.104D-01 0.227D-01 0.301D+00
 Coeff:      0.702D+00
 Gap=     0.346 Goal=   None    Shift=    0.000
 RMSDP=6.69D-08 MaxDP=1.48D-06 DE=-2.63D-10 OVMax= 2.47D-06

 Cycle   8  Pass 1  IDiag  1:
 E= -271.532541155816     Delta-E=       -0.000000000022 Rises=F Damp=F
 DIIS: error= 2.81D-07 at cycle   8 NSaved=   8.
 NSaved= 8 IEnMin= 8 EnMin= -271.532541155816     IErMin= 8 ErrMin= 2.81D-07
 ErrMax= 2.81D-07  0.00D+00 EMaxC= 1.00D-01 BMatC= 1.22D-11 BMatP= 3.02D-11
 IDIUse=1 WtCom= 1.00D+00 WtEn= 0.00D+00
 Coeff-Com: -0.259D-03 0.221D-02-0.445D-02-0.135D-01-0.274D-01 0.363D-01
 Coeff-Com:  0.428D+00 0.579D+00
 Coeff:     -0.259D-03 0.221D-02-0.445D-02-0.135D-01-0.274D-01 0.363D-01
 Coeff:      0.428D+00 0.579D+00
 Gap=     0.346 Goal=   None    Shift=    0.000
 RMSDP=3.07D-08 MaxDP=7.52D-07 DE=-2.22D-11 OVMax= 1.13D-06

 Cycle   9  Pass 1  IDiag  1:
 E= -271.532541155827     Delta-E=       -0.000000000011 Rises=F Damp=F
 DIIS: error= 4.06D-08 at cycle   9 NSaved=   9.
 NSaved= 9 IEnMin= 9 EnMin= -271.532541155827     IErMin= 9 ErrMin= 4.06D-08
 ErrMax= 4.06D-08  0.00D+00 EMaxC= 1.00D-01 BMatC= 3.12D-13 BMatP= 1.22D-11
 IDIUse=1 WtCom= 1.00D+00 WtEn= 0.00D+00
 Coeff-Com: -0.118D-03 0.748D-03 0.439D-03-0.219D-02-0.921D-02-0.271D-01
 Coeff-Com:  0.240D-01 0.144D+00 0.870D+00
 Coeff:     -0.118D-03 0.748D-03 0.439D-03-0.219D-02-0.921D-02-0.271D-01
 Coeff:      0.240D-01 0.144D+00 0.870D+00
 Gap=     0.346 Goal=   None    Shift=    0.000
 RMSDP=8.40D-09 MaxDP=1.34D-07 DE=-1.09D-11 OVMax= 2.53D-07

 SCF Done:  E(RwB97XD) =  -271.532541156     A.U. after    9 cycles
            NFock=  9  Conv=0.84D-08     -V/T= 2.0096
 KE= 2.689638620571D+02 PE=-1.008052391088D+03 EE= 2.759469318530D+02
 Leave Link  502 at Wed Aug  6 21:40:07 2025, MaxMem=   104857600 cpu:               5.6 elap:               5.6
 (Enter /Applications/g16/l701.exe)
 ... and contract with generalized density number  0.
 Compute integral first derivatives.
 R6Disp: Adding Grimme-D2 dispersion energy 1st derivatives to the gradient.
 Leave Link  701 at Wed Aug  6 21:40:07 2025, MaxMem=   104857600 cpu:               0.0 elap:               0.0
 (Enter /Applications/g16/l702.exe)
 L702 exits ... SP integral derivatives will be done elsewhere.
 Leave Link  702 at Wed Aug  6 21:40:07 2025, MaxMem=   104857600 cpu:               0.0 elap:               0.0
 (Enter /Applications/g16/l703.exe)
 Integral derivatives from FoFJK, PRISM(SPDF).
 Compute integral first derivatives, UseDBF=F ICtDFT=           0.
 Calling FoFJK, ICntrl=      2127 FMM=F ISym2X=0 I1Cent= 0 IOpClX= 0 NMat=1 NMatS=1 NMatT=0.
 FoFJK:  IHMeth= 1 ICntrl=    2127 DoSepK=T KAlg= 0 I1Cent=           0 FoldK=F
 IRaf=         1 NMat=       1 IRICut=       1 DoRegI=T DoRafI=F ISym2E= 0 IDoP0=0 IntGTp=1.
 FoFCou: FMM=F IPFlag=           0 FMFlag=      100000 FMFlg1=         800
         NFxFlg=           0 DoJE=F BraDBF=F KetDBF=F FulRan=T
         wScrn=  0.000000 ICntrl=      2527 IOpCl=  0 I1Cent=           0 NGrid=           0
         NMat0=    1 NMatS0=      1 NMatT0=    0 NMatD0=    1 NMtDS0=    0 NMtDT0=    0
 Symmetry not used in FoFCou.
 Leave Link  703 at Wed Aug  6 21:40:09 2025, MaxMem=   104857600 cpu:               2.3 elap:               2.3
 (Enter /Applications/g16/l716.exe)
 Dipole        =-9.48369984D+00-8.61799724D-01 1.07993382D-02
 ***** Axes restored to original set *****
 -------------------------------------------------------------------
 Center     Atomic                   Forces (Hartrees/Bohr)
 Number     Number              X              Y              Z
 -------------------------------------------------------------------
      1        7           0.000018743   -0.000006353   -0.000088945
      2        6           0.000010025   -0.000000628    0.000186779
      3        6           0.000012741   -0.000013391   -0.000094643
      4        6          -0.000002139    0.000032748    0.000036740
      5        6           0.000070188   -0.000088021   -0.000055316
      6        7           0.012739345   -0.003062709   -0.000034535
      7        1           0.000042338    0.000012151   -0.000011444
      8        1           0.000020943    0.000011276    0.000011571
      9        1           0.000019222   -0.000015466   -0.000009578
     10        1          -0.000026725   -0.000006803    0.000013055
     11        3          -0.012904683    0.003137195    0.000046315
 -------------------------------------------------------------------
 Cartesian Forces:  Max     0.012904683 RMS     0.003247948
 Leave Link  716 at Wed Aug  6 21:40:09 2025, MaxMem=   104857600 cpu:               0.0 elap:               0.0
 (Enter /Applications/g16/l103.exe)

 GradGradGradGradGradGradGradGradGradGradGradGradGradGradGradGradGradGrad
 Berny optimization.
 Using GEDIIS/GDIIS optimizer.
 FormGI is forming the generalized inverse of G from B-inverse, IUseBI=4.
 Internal  Forces:  Max     0.013280588 RMS     0.002183894
 Search for a local minimum.
 Step number   4 out of a maximum of   47
 All quantities printed in internal units (Hartrees-Bohrs-Radians)
 RMS Force = .50952D-04 SwitMx=.10000D-02 MixMth= 2
 Mixed Optimization -- En-DIIS/RFO-DIIS
 Swapping is turned off.
 Update second derivatives using D2CorX and points    1    2    3    4
 DE= -4.06D-06 DEPred=-4.59D-06 R= 8.84D-01
 TightC=F SS=  1.41D+00  RLast= 2.57D-02 DXNew= 3.9846D-01 7.6952D-02
 Trust test= 8.84D-01 RLast= 2.57D-02 DXMaxT set to 2.37D-01
 ITU=  1  1 -1  0
     Eigenvalues ---    0.00230   0.00281   0.01182   0.01499   0.01919
     Eigenvalues ---    0.05142   0.05356   0.05471   0.05551   0.05777
     Eigenvalues ---    0.06297   0.15630   0.15895   0.16000   0.16464
     Eigenvalues ---    0.19839   0.22272   0.28265   0.34182   0.34250
     Eigenvalues ---    0.34309   0.34338   0.36496   0.36743   1.28791
     Eigenvalues ---    1.304281000.000001000.000001000.000001000.00000
     Eigenvalues --- 1000.000001000.000001000.000001000.000001000.00000
     Eigenvalues --- 1000.000001000.00000
 En-DIIS/RFO-DIIS/Sim-DIIS IScMMF=       -3 using points:     4    3    2    1
 RFO step:  Lambda=-2.05940504D-06.
 NNeg= 0 NGDIIS= 4 SimSw=  2.50D-03 Rises=F DC= -4.06D-06 SmlDif=  1.00D-05
 NRisDI= 0 DoIntr=F SqrtH=F CThrHd= 10.0 CDAdj=  3.0
 RMS Error=  0.1593405902D-02 NUsed= 4 OKEnD=F EnDIS=F
 InvSVX:  RCond= 3.95D-04 Info=           0 Equed=N FErr=  4.79D-15 BErr=  8.16D-17
 DidBck=T Rises=F RFO-DIIS coefs:    0.35477    0.19741    0.08469    0.36313
 Iteration  1 RMS(Cart)=  0.00177941 RMS(Int)=  0.00000246
 Iteration  2 RMS(Cart)=  0.00000383 RMS(Int)=  0.00000073
 Iteration  3 RMS(Cart)=  0.00000000 RMS(Int)=  0.00000073
 Iteration  1 RMS(Cart)=  0.00000000 RMS(Int)=  0.00000000
 ITry= 1 IFail=0 DXMaxC= 5.01D-03 DCOld= 1.00D+10 DXMaxT= 2.37D-01 DXLimC= 3.00D+00 Rises=F
 Variable       Old X    -DE/DX   Delta X   Delta X   Delta X     New X
                                 (Linear)    (Quad)   (Total)
    R1        2.18482  -0.00002  -0.00005   0.00004  -0.00001   2.18481
    R2        2.76477  -0.00003  -0.00005   0.00001  -0.00004   2.76473
    R3        2.92040   0.00001   0.00043  -0.00035   0.00008   2.92048
    R4        2.06767   0.00002  -0.00003   0.00005   0.00002   2.06769
    R5        2.06767   0.00001  -0.00003   0.00004   0.00001   2.06768
    R6        2.76577  -0.00009  -0.00059   0.00044  -0.00015   2.76562
    R7        2.06861   0.00001   0.00015  -0.00013   0.00002   2.06863
    R8        2.06861   0.00001   0.00015  -0.00013   0.00003   2.06863
    R9        2.18371  -0.00018  -0.00037   0.00029  -0.00008   2.18363
   R10        5.66918  -0.01328   0.00000   0.00000   0.00000   5.66918
    A1        1.91852  -0.00001  -0.00132   0.00118  -0.00014   1.91838
    A2        1.90245   0.00002   0.00032  -0.00025   0.00008   1.90252
    A3        1.90255  -0.00002   0.00026  -0.00033  -0.00008   1.90247
    A4        1.92927  -0.00001   0.00011  -0.00006   0.00004   1.92932
    A5        1.92926   0.00003   0.00012  -0.00005   0.00006   1.92932
    A6        1.88108  -0.00001   0.00056  -0.00052   0.00004   1.88113
    A7        1.95019  -0.00005   0.00066  -0.00071  -0.00005   1.95015
    A8        1.92850   0.00005   0.00041  -0.00024   0.00017   1.92867
    A9        1.92852   0.00003   0.00040  -0.00025   0.00015   1.92867
   A10        1.88988  -0.00002  -0.00087   0.00067  -0.00020   1.88968
   A11        1.88982   0.00000  -0.00083   0.00069  -0.00014   1.88968
   A12        1.87466  -0.00002   0.00015  -0.00010   0.00006   1.87471
   A13        3.11808  -0.00008  -0.00105  -0.00075  -0.00180   3.11628
   A14        3.13602   0.00010   0.00118  -0.00057   0.00061   3.13663
   A15        3.20212  -0.00001  -0.00039  -0.00004  -0.00042   3.20170
   A16        3.12579   0.00014   0.00166   0.00161   0.00327   3.12905
   A17        3.14390   0.00004   0.00001   0.00021   0.00022   3.14412
   A18        3.18262   0.00004   0.00510  -0.00068   0.00442   3.18704
    D1        3.14158  -0.00001   0.00004  -0.00009  -0.00006   3.14152
    D2       -1.03613  -0.00003  -0.00034   0.00011  -0.00022  -1.03635
    D3        1.03616   0.00000   0.00037  -0.00032   0.00005   1.03621
    D4       -1.04069   0.00001  -0.00035   0.00032  -0.00003  -1.04071
    D5        1.06479  -0.00002  -0.00072   0.00052  -0.00019   1.06460
    D6        3.13708   0.00002  -0.00001   0.00009   0.00008   3.13716
    D7        1.04054   0.00001   0.00050  -0.00040   0.00009   1.04064
    D8       -3.13716  -0.00001   0.00013  -0.00020  -0.00007  -3.13724
    D9       -1.06487   0.00002   0.00083  -0.00063   0.00020  -1.06467
         Item               Value     Threshold  Converged?
 Maximum Force            0.000180     0.000450     YES
 RMS     Force            0.000051     0.000300     YES
 Maximum Displacement     0.005011     0.001800     NO 
 RMS     Displacement     0.001780     0.001200     NO 
 Predicted change in Energy=-6.721355D-07
 Lowest energy point so far.  Saving SCF results.
 GradGradGradGradGradGradGradGradGradGradGradGradGradGradGradGradGradGrad

 Leave Link  103 at Wed Aug  6 21:40:09 2025, MaxMem=   104857600 cpu:               0.0 elap:               0.0
 (Enter /Applications/g16/l202.exe)
                          Input orientation:                          
 ---------------------------------------------------------------------
 Center     Atomic      Atomic             Coordinates (Angstroms)
 Number     Number       Type             X           Y           Z
 ---------------------------------------------------------------------
      1          7           0       -2.976648    0.256753   -0.001892
      2          6           0       -1.893252   -0.146905   -0.000210
      3          6           0       -0.508877   -0.620155    0.000603
      4          6           0        0.459255    0.584476    0.000097
      5          6           0        1.858417    0.155300    0.000979
      6          7           0        2.961312   -0.189463    0.001457
      7          1           0        0.292686    1.209908   -0.882738
      8          1           0        0.291974    1.211221    0.881866
      9          1           0       -0.345231   -1.244600   -0.882859
     10          1           0       -0.345895   -1.243327    0.885083
     11          3           0        5.877251   -0.894651   -0.001253
 ---------------------------------------------------------------------
                    Distance matrix (angstroms):
                    1          2          3          4          5
     1  N    0.000000
     2  C    1.156153   0.000000
     3  C    2.618944   1.463032   0.000000
     4  C    3.451498   2.463576   1.545450   0.000000
     5  C    4.836129   3.763821   2.491066   1.463504   0.000000
     6  N    5.954703   4.854751   3.496813   2.619021   1.155526
     7  H    3.517519   2.719949   2.184474   1.094673   2.084386
     8  H    3.517943   2.719885   2.184473   1.094673   2.084388
     9  H    3.155077   2.092934   1.094173   2.184566   2.756257
    10  H    3.155602   2.092892   1.094171   2.184567   2.756227
    11  Li   8.928452   7.806398   6.392025   5.616271   4.153725
                    6          7          8          9         10
     6  N    0.000000
     7  H    3.140319   0.000000
     8  H    3.140446   1.764605   0.000000
     9  H    3.581697   2.536049   3.090524   0.000000
    10  H    3.581765   3.090524   2.536078   1.767942   0.000000
    11  Li   3.000000   6.032707   6.034063   6.294361   6.295611
                   11
    11  Li   0.000000
 Stoichiometry    C4H4LiN2(1+)
 Framework group  C1[X(C4H4LiN2)]
 Deg. of freedom    27
 Full point group                 C1      NOp   1
 RotChk:  IX=2 Diff= 1.77D-03
 Largest Abelian subgroup         C1      NOp   1
 Largest concise Abelian subgroup C1      NOp   1
                         Standard orientation:                         
 ---------------------------------------------------------------------
 Center     Atomic      Atomic             Coordinates (Angstroms)
 Number     Number       Type             X           Y           Z
 ---------------------------------------------------------------------
      1          7           0        3.365254    0.103711    0.001247
      2          6           0        2.259026   -0.232365   -0.000178
      3          6           0        0.848100   -0.619339   -0.000663
      4          6           0       -0.043898    0.642705   -0.000059
      5          6           0       -1.466864    0.300633   -0.000615
      6          7           0       -2.588922    0.024543   -0.000836
      7          1           0        0.161111    1.256738    0.882688
      8          1           0        0.161530    1.257877   -0.881916
      9          1           0        0.646443   -1.232439    0.882885
     10          1           0        0.646810   -1.231337   -0.885056
     11          3           0       -5.542800   -0.499474    0.002537
 ---------------------------------------------------------------------
 Rotational constants (GHZ):          22.4025960           0.8910536           0.8662047
 Leave Link  202 at Wed Aug  6 21:40:09 2025, MaxMem=   104857600 cpu:               0.0 elap:               0.0
 (Enter /Applications/g16/l301.exe)
 Standard basis: 6-31G(d) (6D, 7F)
 Ernie: Thresh=  0.10000D-02 Tol=  0.10000D-05 Strict=F.
 There are   113 symmetry adapted cartesian basis functions of A   symmetry.
 There are   113 symmetry adapted basis functions of A   symmetry.
   113 basis functions,   212 primitive gaussians,   113 cartesian basis functions
    22 alpha electrons       22 beta electrons
       nuclear repulsion energy       191.6173897660 Hartrees.
 IExCor= 4639 DFT=T Ex+Corr=wB97XD ExCW=0 ScaHFX=  1.000000
 ScaDFX=  1.000000  1.000000  1.000000  1.000000 ScalE2=  1.000000  1.000000
 IRadAn=      5 IRanWt=     -1 IRanGd=            0 ICorTp=0 IEmpDi=121
 HFx  wShort=  0.000000 wLong=  0.200000 cFull=  0.222036 cShort=  0.000000 cLong=  0.777964
 DFx  wShort=  0.000000 wLong=  0.200000 cFull=  0.000000 cShort=  0.000000 cLong=  1.000000
 NAtoms=   11 NActive=   11 NUniq=   11 SFac= 1.00D+00 NAtFMM=   60 NAOKFM=F Big=F
 Integral buffers will be    131072 words long.
 Raffenetti 2 integral format.
 Two-electron integral symmetry is turned on.
 R6Disp:  Grimme-D2 Dispersion energy=       -0.0043933504 Hartrees.
 Nuclear repulsion after empirical dispersion term =      191.6129964156 Hartrees.
 Leave Link  301 at Wed Aug  6 21:40:09 2025, MaxMem=   104857600 cpu:               0.0 elap:               0.0
 (Enter /Applications/g16/l302.exe)
 NPDir=0 NMtPBC=     1 NCelOv=     1 NCel=       1 NClECP=     1 NCelD=      1
         NCelK=      1 NCelE2=     1 NClLst=     1 CellRange=     0.0.
 One-electron integrals computed using PRISM.
 One-electron integral symmetry used in STVInt
 NBasis=   113 RedAO= T EigKep=  9.48D-04  NBF=   113
 NBsUse=   113 1.00D-06 EigRej= -1.00D+00 NBFU=   113
 Precomputing XC quadrature grid using
 IXCGrd= 4 IRadAn=           5 IRanWt=          -1 IRanGd=           0 AccXCQ= 0.00D+00.
 Generated NRdTot=       0 NPtTot=           0 NUsed=           0 NTot=          32
 NSgBfM=   113   113   113   113   113 MxSgAt=    11 MxSgA2=    11.
 Leave Link  302 at Wed Aug  6 21:40:09 2025, MaxMem=   104857600 cpu:               0.1 elap:               0.1
 (Enter /Applications/g16/l303.exe)
 DipDrv:  MaxL=1.
 Leave Link  303 at Wed Aug  6 21:40:09 2025, MaxMem=   104857600 cpu:               0.0 elap:               0.0
 (Enter /Applications/g16/l401.exe)
 Initial guess from the checkpoint file:  "/Users/srak/g16_scratch/Gau-95635.chk"
 B after Tr=     0.000000   -0.000000    0.000000
         Rot=    1.000000    0.000329   -0.000010   -0.000008 Ang=   0.04 deg.
 Guess basis will be translated and rotated to current coordinates.
 JPrj=2 DoOrth=T DoCkMO=T.
 Leave Link  401 at Wed Aug  6 21:40:09 2025, MaxMem=   104857600 cpu:               0.0 elap:               0.0
 (Enter /Applications/g16/l502.exe)
 Keep R1 ints in memory in canonical form, NReq=43174005.
 FoFCou: FMM=F IPFlag=           0 FMFlag=           0 FMFlg1=           0
         NFxFlg=           0 DoJE=F BraDBF=F KetDBF=F FulRan=T
         wScrn=  0.000000 ICntrl=       600 IOpCl=  0 I1Cent=           0 NGrid=           0
         NMat0=    1 NMatS0=   6441 NMatT0=    0 NMatD0=    1 NMtDS0=    0 NMtDT0=    0
 Symmetry not used in FoFCou.
 Two-electron integral symmetry not used.
 Closed shell SCF:
 Using DIIS extrapolation, IDIIS=  1040.
 NGot=   104857600 LenX=    63336875 LenY=    63323665
 Requested convergence on RMS density matrix=1.00D-08 within 128 cycles.
 Requested convergence on MAX density matrix=1.00D-06.
 Requested convergence on             energy=1.00D-06.
 No special actions if energy rises.

 Cycle   1  Pass 1  IDiag  1:
 E= -271.532537105277    
 DIIS: error= 1.43D-04 at cycle   1 NSaved=   1.
 NSaved= 1 IEnMin= 1 EnMin= -271.532537105277     IErMin= 1 ErrMin= 1.43D-04
 ErrMax= 1.43D-04  0.00D+00 EMaxC= 1.00D-01 BMatC= 2.54D-06 BMatP= 2.54D-06
 IDIUse=3 WtCom= 9.99D-01 WtEn= 1.43D-03
 Coeff-Com:  0.100D+01
 Coeff-En:   0.100D+01
 Coeff:      0.100D+01
 Gap=     2.169 Goal=   None    Shift=    0.000
 RMSDP=1.83D-05 MaxDP=4.85D-04              OVMax= 6.58D-04

 Cycle   2  Pass 1  IDiag  1:
 E= -271.532541248277     Delta-E=       -0.000004143000 Rises=F Damp=F
 DIIS: error= 2.49D-05 at cycle   2 NSaved=   2.
 NSaved= 2 IEnMin= 2 EnMin= -271.532541248277     IErMin= 2 ErrMin= 2.49D-05
 ErrMax= 2.49D-05  0.00D+00 EMaxC= 1.00D-01 BMatC= 1.06D-07 BMatP= 2.54D-06
 IDIUse=1 WtCom= 1.00D+00 WtEn= 0.00D+00
 Coeff-Com: -0.188D+00 0.119D+01
 Coeff:     -0.188D+00 0.119D+01
 Gap=     0.346 Goal=   None    Shift=    0.000
 RMSDP=6.24D-06 MaxDP=1.34D-04 DE=-4.14D-06 OVMax= 2.66D-04

 Cycle   3  Pass 1  IDiag  1:
 E= -271.532541524681     Delta-E=       -0.000000276405 Rises=F Damp=F
 DIIS: error= 6.66D-06 at cycle   3 NSaved=   3.
 NSaved= 3 IEnMin= 3 EnMin= -271.532541524681     IErMin= 3 ErrMin= 6.66D-06
 ErrMax= 6.66D-06  0.00D+00 EMaxC= 1.00D-01 BMatC= 3.91D-09 BMatP= 1.06D-07
 IDIUse=1 WtCom= 1.00D+00 WtEn= 0.00D+00
 Coeff-Com: -0.131D-01-0.140D-01 0.103D+01
 Coeff:     -0.131D-01-0.140D-01 0.103D+01
 Gap=     0.346 Goal=   None    Shift=    0.000
 RMSDP=1.40D-06 MaxDP=2.96D-05 DE=-2.76D-07 OVMax= 6.93D-05

 Cycle   4  Pass 1  IDiag  1:
 E= -271.532541534645     Delta-E=       -0.000000009964 Rises=F Damp=F
 DIIS: error= 3.47D-06 at cycle   4 NSaved=   4.
 NSaved= 4 IEnMin= 4 EnMin= -271.532541534645     IErMin= 4 ErrMin= 3.47D-06
 ErrMax= 3.47D-06  0.00D+00 EMaxC= 1.00D-01 BMatC= 1.64D-09 BMatP= 3.91D-09
 IDIUse=1 WtCom= 1.00D+00 WtEn= 0.00D+00
 Coeff-Com:  0.904D-02-0.957D-01 0.392D+00 0.695D+00
 Coeff:      0.904D-02-0.957D-01 0.392D+00 0.695D+00
 Gap=     0.346 Goal=   None    Shift=    0.000
 RMSDP=5.09D-07 MaxDP=8.66D-06 DE=-9.96D-09 OVMax= 1.78D-05

 Cycle   5  Pass 1  IDiag  1:
 E= -271.532541536094     Delta-E=       -0.000000001450 Rises=F Damp=F
 DIIS: error= 2.28D-06 at cycle   5 NSaved=   5.
 NSaved= 5 IEnMin= 5 EnMin= -271.532541536094     IErMin= 5 ErrMin= 2.28D-06
 ErrMax= 2.28D-06  0.00D+00 EMaxC= 1.00D-01 BMatC= 6.36D-10 BMatP= 1.64D-09
 IDIUse=1 WtCom= 1.00D+00 WtEn= 0.00D+00
 Coeff-Com:  0.882D-02-0.594D-01 0.267D-01 0.421D+00 0.603D+00
 Coeff:      0.882D-02-0.594D-01 0.267D-01 0.421D+00 0.603D+00
 Gap=     0.346 Goal=   None    Shift=    0.000
 RMSDP=2.28D-07 MaxDP=4.82D-06 DE=-1.45D-09 OVMax= 8.14D-06

 Cycle   6  Pass 1  IDiag  1:
 E= -271.532541536689     Delta-E=       -0.000000000595 Rises=F Damp=F
 DIIS: error= 2.53D-07 at cycle   6 NSaved=   6.
 NSaved= 6 IEnMin= 6 EnMin= -271.532541536689     IErMin= 6 ErrMin= 2.53D-07
 ErrMax= 2.53D-07  0.00D+00 EMaxC= 1.00D-01 BMatC= 1.81D-11 BMatP= 6.36D-10
 IDIUse=1 WtCom= 1.00D+00 WtEn= 0.00D+00
 Coeff-Com:  0.188D-02-0.910D-02-0.260D-01 0.569D-01 0.173D+00 0.803D+00
 Coeff:      0.188D-02-0.910D-02-0.260D-01 0.569D-01 0.173D+00 0.803D+00
 Gap=     0.346 Goal=   None    Shift=    0.000
 RMSDP=4.90D-08 MaxDP=7.23D-07 DE=-5.95D-10 OVMax= 2.29D-06

 Cycle   7  Pass 1  IDiag  1:
 E= -271.532541536716     Delta-E=       -0.000000000027 Rises=F Damp=F
 DIIS: error= 9.17D-08 at cycle   7 NSaved=   7.
 NSaved= 7 IEnMin= 7 EnMin= -271.532541536716     IErMin= 7 ErrMin= 9.17D-08
 ErrMax= 9.17D-08  0.00D+00 EMaxC= 1.00D-01 BMatC= 1.95D-12 BMatP= 1.81D-11
 IDIUse=1 WtCom= 1.00D+00 WtEn= 0.00D+00
 Coeff-Com: -0.402D-03 0.376D-02-0.859D-02-0.302D-01-0.180D-01 0.239D+00
 Coeff-Com:  0.814D+00
 Coeff:     -0.402D-03 0.376D-02-0.859D-02-0.302D-01-0.180D-01 0.239D+00
 Coeff:      0.814D+00
 Gap=     0.346 Goal=   None    Shift=    0.000
 RMSDP=1.77D-08 MaxDP=3.11D-07 DE=-2.73D-11 OVMax= 6.72D-07

 Cycle   8  Pass 1  IDiag  1:
 E= -271.532541536716     Delta-E=        0.000000000001 Rises=F Damp=F
 DIIS: error= 6.12D-08 at cycle   8 NSaved=   8.
 NSaved= 8 IEnMin= 7 EnMin= -271.532541536716     IErMin= 8 ErrMin= 6.12D-08
 ErrMax= 6.12D-08  0.00D+00 EMaxC= 1.00D-01 BMatC= 4.20D-13 BMatP= 1.95D-12
 IDIUse=1 WtCom= 1.00D+00 WtEn= 0.00D+00
 Coeff-Com: -0.301D-03 0.234D-02-0.271D-02-0.186D-01-0.192D-01 0.753D-01
 Coeff-Com:  0.416D+00 0.548D+00
 Coeff:     -0.301D-03 0.234D-02-0.271D-02-0.186D-01-0.192D-01 0.753D-01
 Coeff:      0.416D+00 0.548D+00
 Gap=     0.346 Goal=   None    Shift=    0.000
 RMSDP=6.25D-09 MaxDP=1.44D-07 DE= 6.82D-13 OVMax= 2.08D-07

 SCF Done:  E(RwB97XD) =  -271.532541537     A.U. after    8 cycles
            NFock=  8  Conv=0.63D-08     -V/T= 2.0095
 KE= 2.689642342061D+02 PE=-1.008060714826D+03 EE= 2.759509426678D+02
 Leave Link  502 at Wed Aug  6 21:40:15 2025, MaxMem=   104857600 cpu:               5.0 elap:               5.1
 (Enter /Applications/g16/l701.exe)
 ... and contract with generalized density number  0.
 Compute integral first derivatives.
 R6Disp: Adding Grimme-D2 dispersion energy 1st derivatives to the gradient.
 Leave Link  701 at Wed Aug  6 21:40:15 2025, MaxMem=   104857600 cpu:               0.0 elap:               0.0
 (Enter /Applications/g16/l702.exe)
 L702 exits ... SP integral derivatives will be done elsewhere.
 Leave Link  702 at Wed Aug  6 21:40:15 2025, MaxMem=   104857600 cpu:               0.0 elap:               0.0
 (Enter /Applications/g16/l703.exe)
 Integral derivatives from FoFJK, PRISM(SPDF).
 Compute integral first derivatives, UseDBF=F ICtDFT=           0.
 Calling FoFJK, ICntrl=      2127 FMM=F ISym2X=0 I1Cent= 0 IOpClX= 0 NMat=1 NMatS=1 NMatT=0.
 FoFJK:  IHMeth= 1 ICntrl=    2127 DoSepK=T KAlg= 0 I1Cent=           0 FoldK=F
 IRaf=         1 NMat=       1 IRICut=       1 DoRegI=T DoRafI=F ISym2E= 0 IDoP0=0 IntGTp=1.
 FoFCou: FMM=F IPFlag=           0 FMFlag=      100000 FMFlg1=         800
         NFxFlg=           0 DoJE=F BraDBF=F KetDBF=F FulRan=T
         wScrn=  0.000000 ICntrl=      2527 IOpCl=  0 I1Cent=           0 NGrid=           0
         NMat0=    1 NMatS0=      1 NMatT0=    0 NMatD0=    1 NMtDS0=    0 NMtDT0=    0
 Symmetry not used in FoFCou.
 Leave Link  703 at Wed Aug  6 21:40:17 2025, MaxMem=   104857600 cpu:               2.3 elap:               2.3
 (Enter /Applications/g16/l716.exe)
 Dipole        =-9.48429219D+00-8.58517289D-01 3.91612791D-03
 ***** Axes restored to original set *****
 -------------------------------------------------------------------
 Center     Atomic                   Forces (Hartrees/Bohr)
 Number     Number              X              Y              Z
 -------------------------------------------------------------------
      1        7          -0.000002328   -0.000019092    0.000034189
      2        6           0.000014516    0.000028499   -0.000074441
      3        6           0.000003232    0.000003636    0.000040281
      4        6          -0.000012694    0.000012237    0.000014109
      5        6           0.000034053   -0.000041912   -0.000016289
      6        7           0.012847345   -0.003097887   -0.000012774
      7        1           0.000008513    0.000002189   -0.000002814
      8        1           0.000006709    0.000002774    0.000002343
      9        1          -0.000004883   -0.000005038   -0.000005507
     10        1           0.000014202   -0.000008870    0.000005033
     11        3          -0.012908665    0.003123465    0.000015869
 -------------------------------------------------------------------
 Cartesian Forces:  Max     0.012908665 RMS     0.003261600
 Leave Link  716 at Wed Aug  6 21:40:17 2025, MaxMem=   104857600 cpu:               0.0 elap:               0.0
 (Enter /Applications/g16/l103.exe)

 GradGradGradGradGradGradGradGradGradGradGradGradGradGradGradGradGradGrad
 Berny optimization.
 Using GEDIIS/GDIIS optimizer.
 FormGI is forming the generalized inverse of G from B-inverse, IUseBI=4.
 Internal  Forces:  Max     0.013281157 RMS     0.002183506
 Search for a local minimum.
 Step number   5 out of a maximum of   47
 All quantities printed in internal units (Hartrees-Bohrs-Radians)
 RMS Force = .20873D-04 SwitMx=.10000D-02 MixMth= 2
 Mixed Optimization -- En-DIIS/RFO-DIIS
 Swapping is turned off.
 Update second derivatives using D2CorX and points    1    2    3    4    5
 DE= -3.81D-07 DEPred=-6.72D-07 R= 5.67D-01
 Trust test= 5.67D-01 RLast= 5.87D-03 DXMaxT set to 2.37D-01
 ITU=  0  1  1 -1  0
     Eigenvalues ---    0.00230   0.00265   0.01193   0.01545   0.04051
     Eigenvalues ---    0.05246   0.05358   0.05408   0.05734   0.06146
     Eigenvalues ---    0.06971   0.15105   0.15990   0.16265   0.16669
     Eigenvalues ---    0.18870   0.22163   0.28575   0.34156   0.34250
     Eigenvalues ---    0.34303   0.34345   0.36502   0.37439   1.27887
     Eigenvalues ---    1.304201000.000001000.000001000.000001000.00000
     Eigenvalues --- 1000.000001000.000001000.000001000.000001000.00000
     Eigenvalues --- 1000.000001000.00000
 En-DIIS/RFO-DIIS/Sim-DIIS IScMMF=       -3 using points:     5    4    3    2    1
 RFO step:  Lambda=-5.41165616D-07.
 NNeg= 0 NGDIIS= 5 SimSw=  2.50D-01 Rises=F DC= -3.81D-07 SmlDif=  1.00D-05
 NRisDI= 0 DoIntr=F SqrtH=F CThrHd= 10.0 CDAdj=  3.0
 RMS Error=  0.1243703769D-02 NUsed= 5 OKEnD=F EnDIS=F
 InvSVX:  RCond= 1.55D-05 Info=           0 Equed=N FErr=  4.94D-14 BErr=  1.06D-16
 DidBck=T Rises=F RFO-DIIS coefs:    0.32402    0.21892    0.20921    0.05394    0.19391
 Iteration  1 RMS(Cart)=  0.00103467 RMS(Int)=  0.00000087
 Iteration  2 RMS(Cart)=  0.00000107 RMS(Int)=  0.00000048
 Iteration  3 RMS(Cart)=  0.00000000 RMS(Int)=  0.00000048
 Iteration  1 RMS(Cart)=  0.00000000 RMS(Int)=  0.00000000
 ITry= 1 IFail=0 DXMaxC= 3.62D-03 DCOld= 1.00D+10 DXMaxT= 2.37D-01 DXLimC= 3.00D+00 Rises=F
 Variable       Old X    -DE/DX   Delta X   Delta X   Delta X     New X
                                 (Linear)    (Quad)   (Total)
    R1        2.18481  -0.00000  -0.00001   0.00001  -0.00000   2.18481
    R2        2.76473  -0.00001   0.00006  -0.00008  -0.00003   2.76470
    R3        2.92048  -0.00001   0.00006  -0.00007  -0.00001   2.92047
    R4        2.06769   0.00001  -0.00004   0.00006   0.00002   2.06770
    R5        2.06768   0.00001  -0.00004   0.00006   0.00002   2.06770
    R6        2.76562  -0.00002  -0.00007   0.00002  -0.00005   2.76558
    R7        2.06863   0.00000   0.00005  -0.00005  -0.00000   2.06863
    R8        2.06863   0.00000   0.00005  -0.00005   0.00000   2.06863
    R9        2.18363  -0.00007  -0.00008   0.00006  -0.00002   2.18360
   R10        5.66918  -0.01328  -0.00000   0.00000  -0.00000   5.66918
    A1        1.91838   0.00000  -0.00051   0.00057   0.00006   1.91844
    A2        1.90252  -0.00001   0.00018  -0.00023  -0.00005   1.90247
    A3        1.90247   0.00001   0.00023  -0.00024  -0.00001   1.90246
    A4        1.92932   0.00000  -0.00007   0.00009   0.00002   1.92934
    A5        1.92932  -0.00001  -0.00007   0.00009   0.00002   1.92934
    A6        1.88113  -0.00000   0.00026  -0.00031  -0.00005   1.88108
    A7        1.95015  -0.00004   0.00042  -0.00057  -0.00015   1.94999
    A8        1.92867   0.00002  -0.00007   0.00015   0.00009   1.92876
    A9        1.92867   0.00001  -0.00006   0.00015   0.00009   1.92876
   A10        1.88968   0.00001  -0.00014   0.00010  -0.00004   1.88964
   A11        1.88968   0.00001  -0.00016   0.00015  -0.00001   1.88967
   A12        1.87471  -0.00000  -0.00001   0.00004   0.00003   1.87475
   A13        3.11628   0.00007   0.00052   0.00082   0.00134   3.11762
   A14        3.13663   0.00003   0.00038  -0.00014   0.00024   3.13687
   A15        3.20170  -0.00000  -0.00027  -0.00003  -0.00030   3.20140
   A16        3.12905  -0.00004  -0.00088   0.00053  -0.00035   3.12870
   A17        3.14412   0.00001  -0.00009   0.00024   0.00015   3.14427
   A18        3.18704   0.00001   0.00227  -0.00005   0.00222   3.18926
    D1        3.14152   0.00001   0.00007   0.00002   0.00009  -3.14157
    D2       -1.03635  -0.00000   0.00012  -0.00013  -0.00000  -1.03636
    D3        1.03621   0.00001   0.00004   0.00011   0.00015   1.03636
    D4       -1.04071   0.00000  -0.00008   0.00016   0.00008  -1.04063
    D5        1.06460  -0.00001  -0.00003   0.00001  -0.00002   1.06458
    D6        3.13716   0.00001  -0.00011   0.00025   0.00014   3.13730
    D7        1.04064  -0.00000   0.00016  -0.00011   0.00005   1.04069
    D8       -3.13724  -0.00001   0.00021  -0.00026  -0.00005  -3.13728
    D9       -1.06467   0.00000   0.00012  -0.00002   0.00010  -1.06457
         Item               Value     Threshold  Converged?
 Maximum Force            0.000067     0.000450     YES
 RMS     Force            0.000021     0.000300     YES
 Maximum Displacement     0.003624     0.001800     NO 
 RMS     Displacement     0.001035     0.001200     YES
 Predicted change in Energy=-1.183512D-07
 Lowest energy point so far.  Saving SCF results.
 GradGradGradGradGradGradGradGradGradGradGradGradGradGradGradGradGradGrad

 Leave Link  103 at Wed Aug  6 21:40:17 2025, MaxMem=   104857600 cpu:               0.0 elap:               0.0
 (Enter /Applications/g16/l202.exe)
                          Input orientation:                          
 ---------------------------------------------------------------------
 Center     Atomic      Atomic             Coordinates (Angstroms)
 Number     Number       Type             X           Y           Z
 ---------------------------------------------------------------------
      1          7           0       -2.977063    0.255930   -0.000322
      2          6           0       -1.893243   -0.146589    0.000047
      3          6           0       -0.508912   -0.619922    0.000366
      4          6           0        0.459368    0.584587   -0.000227
      5          6           0        1.858387    0.155030    0.000043
      6          7           0        2.961235   -0.189841    0.000277
      7          1           0        0.292685    1.210244   -0.882880
      8          1           0        0.292596    1.211180    0.881747
      9          1           0       -0.345633   -1.244251   -0.883256
     10          1           0       -0.345730   -1.243308    0.884671
     11          3           0        5.877303   -0.894504    0.000665
 ---------------------------------------------------------------------
                    Distance matrix (angstroms):
                    1          2          3          4          5
     1  N    0.000000
     2  C    1.156152   0.000000
     3  C    2.618948   1.463017   0.000000
     4  C    3.452111   2.463614   1.545447   0.000000
     5  C    4.836503   3.763735   2.490915   1.463480   0.000000
     6  N    5.955007   4.854672   3.496698   2.618985   1.155513
     7  H    3.518647   2.720081   2.184534   1.094672   2.084335
     8  H    3.518696   2.720078   2.184532   1.094673   2.084359
     9  H    3.155082   2.092890   1.094182   2.184586   2.756068
    10  H    3.155129   2.092880   1.094182   2.184588   2.756093
    11  Li   8.928791   7.806457   6.392115   5.616203   4.153698
                    6          7          8          9         10
     6  N    0.000000
     7  H    3.140281   0.000000
     8  H    3.140299   1.764627   0.000000
     9  H    3.581591   2.536138   3.090585   0.000000
    10  H    3.581615   3.090587   2.536135   1.767927   0.000000
    11  Li   3.000000   6.033123   6.033171   6.295123   6.295179
                   11
    11  Li   0.000000
 Stoichiometry    C4H4LiN2(1+)
 Framework group  C1[X(C4H4LiN2)]
 Deg. of freedom    27
 Full point group                 C1      NOp   1
 RotChk:  IX=2 Diff= 6.58D-04
 Largest Abelian subgroup         C1      NOp   1
 Largest concise Abelian subgroup C1      NOp   1
                         Standard orientation:                         
 ---------------------------------------------------------------------
 Center     Atomic      Atomic             Coordinates (Angstroms)
 Number     Number       Type             X           Y           Z
 ---------------------------------------------------------------------
      1          7           0        3.365564    0.103093    0.000082
      2          6           0        2.258995   -0.231857   -0.000029
      3          6           0        0.848121   -0.618965   -0.000038
      4          6           0       -0.044076    0.642934   -0.000027
      5          6           0       -1.466912    0.300425   -0.000010
      6          7           0       -2.588920    0.024186   -0.000015
      7          1           0        0.160922    1.257584    0.882293
      8          1           0        0.160931    1.257602   -0.882334
      9          1           0        0.646739   -1.231588    0.883915
     10          1           0        0.646758   -1.231564   -0.884011
     11          3           0       -5.542876   -0.499402    0.000097
 ---------------------------------------------------------------------
 Rotational constants (GHZ):          22.4116036           0.8909976           0.8661650
 Leave Link  202 at Wed Aug  6 21:40:17 2025, MaxMem=   104857600 cpu:               0.0 elap:               0.0
 (Enter /Applications/g16/l301.exe)
 Standard basis: 6-31G(d) (6D, 7F)
 Ernie: Thresh=  0.10000D-02 Tol=  0.10000D-05 Strict=F.
 There are   113 symmetry adapted cartesian basis functions of A   symmetry.
 There are   113 symmetry adapted basis functions of A   symmetry.
   113 basis functions,   212 primitive gaussians,   113 cartesian basis functions
    22 alpha electrons       22 beta electrons
       nuclear repulsion energy       191.6167455988 Hartrees.
 IExCor= 4639 DFT=T Ex+Corr=wB97XD ExCW=0 ScaHFX=  1.000000
 ScaDFX=  1.000000  1.000000  1.000000  1.000000 ScalE2=  1.000000  1.000000
 IRadAn=      5 IRanWt=     -1 IRanGd=            0 ICorTp=0 IEmpDi=121
 HFx  wShort=  0.000000 wLong=  0.200000 cFull=  0.222036 cShort=  0.000000 cLong=  0.777964
 DFx  wShort=  0.000000 wLong=  0.200000 cFull=  0.000000 cShort=  0.000000 cLong=  1.000000
 NAtoms=   11 NActive=   11 NUniq=   11 SFac= 1.00D+00 NAtFMM=   60 NAOKFM=F Big=F
 Integral buffers will be    131072 words long.
 Raffenetti 2 integral format.
 Two-electron integral symmetry is turned on.
 R6Disp:  Grimme-D2 Dispersion energy=       -0.0043931722 Hartrees.
 Nuclear repulsion after empirical dispersion term =      191.6123524265 Hartrees.
 Leave Link  301 at Wed Aug  6 21:40:17 2025, MaxMem=   104857600 cpu:               0.0 elap:               0.0
 (Enter /Applications/g16/l302.exe)
 NPDir=0 NMtPBC=     1 NCelOv=     1 NCel=       1 NClECP=     1 NCelD=      1
         NCelK=      1 NCelE2=     1 NClLst=     1 CellRange=     0.0.
 One-electron integrals computed using PRISM.
 One-electron integral symmetry used in STVInt
 NBasis=   113 RedAO= T EigKep=  9.47D-04  NBF=   113
 NBsUse=   113 1.00D-06 EigRej= -1.00D+00 NBFU=   113
 Precomputing XC quadrature grid using
 IXCGrd= 4 IRadAn=           5 IRanWt=          -1 IRanGd=           0 AccXCQ= 0.00D+00.
 Generated NRdTot=       0 NPtTot=           0 NUsed=           0 NTot=          32
 NSgBfM=   113   113   113   113   113 MxSgAt=    11 MxSgA2=    11.
 Leave Link  302 at Wed Aug  6 21:40:17 2025, MaxMem=   104857600 cpu:               0.1 elap:               0.1
 (Enter /Applications/g16/l303.exe)
 DipDrv:  MaxL=1.
 Leave Link  303 at Wed Aug  6 21:40:17 2025, MaxMem=   104857600 cpu:               0.0 elap:               0.0
 (Enter /Applications/g16/l401.exe)
 Initial guess from the checkpoint file:  "/Users/srak/g16_scratch/Gau-95635.chk"
 B after Tr=     0.000000    0.000000    0.000000
         Rot=    1.000000    0.000123   -0.000002   -0.000006 Ang=   0.01 deg.
 Guess basis will be translated and rotated to current coordinates.
 JPrj=2 DoOrth=T DoCkMO=T.
 Leave Link  401 at Wed Aug  6 21:40:17 2025, MaxMem=   104857600 cpu:               0.0 elap:               0.0
 (Enter /Applications/g16/l502.exe)
 Keep R1 ints in memory in canonical form, NReq=43174005.
 FoFCou: FMM=F IPFlag=           0 FMFlag=           0 FMFlg1=           0
         NFxFlg=           0 DoJE=F BraDBF=F KetDBF=F FulRan=T
         wScrn=  0.000000 ICntrl=       600 IOpCl=  0 I1Cent=           0 NGrid=           0
         NMat0=    1 NMatS0=   6441 NMatT0=    0 NMatD0=    1 NMtDS0=    0 NMtDT0=    0
 Symmetry not used in FoFCou.
 Two-electron integral symmetry not used.
 Closed shell SCF:
 Using DIIS extrapolation, IDIIS=  1040.
 NGot=   104857600 LenX=    63336875 LenY=    63323665
 Requested convergence on RMS density matrix=1.00D-08 within 128 cycles.
 Requested convergence on MAX density matrix=1.00D-06.
 Requested convergence on             energy=1.00D-06.
 No special actions if energy rises.

 Cycle   1  Pass 1  IDiag  1:
 E= -271.532540065704    
 DIIS: error= 7.12D-05 at cycle   1 NSaved=   1.
 NSaved= 1 IEnMin= 1 EnMin= -271.532540065704     IErMin= 1 ErrMin= 7.12D-05
 ErrMax= 7.12D-05  0.00D+00 EMaxC= 1.00D-01 BMatC= 8.88D-07 BMatP= 8.88D-07
 IDIUse=1 WtCom= 1.00D+00 WtEn= 0.00D+00
 Coeff-Com:  0.100D+01
 Coeff:      0.100D+01
 Gap=     2.169 Goal=   None    Shift=    0.000
 RMSDP=1.14D-05 MaxDP=2.86D-04              OVMax= 4.70D-04

 Cycle   2  Pass 1  IDiag  1:
 E= -271.532541494058     Delta-E=       -0.000001428355 Rises=F Damp=F
 DIIS: error= 1.58D-05 at cycle   2 NSaved=   2.
 NSaved= 2 IEnMin= 2 EnMin= -271.532541494058     IErMin= 2 ErrMin= 1.58D-05
 ErrMax= 1.58D-05  0.00D+00 EMaxC= 1.00D-01 BMatC= 3.78D-08 BMatP= 8.88D-07
 IDIUse=1 WtCom= 1.00D+00 WtEn= 0.00D+00
 Coeff-Com: -0.192D+00 0.119D+01
 Coeff:     -0.192D+00 0.119D+01
 Gap=     0.346 Goal=   None    Shift=    0.000
 RMSDP=3.61D-06 MaxDP=7.73D-05 DE=-1.43D-06 OVMax= 1.86D-04

 Cycle   3  Pass 1  IDiag  1:
 E= -271.532541591237     Delta-E=       -0.000000097178 Rises=F Damp=F
 DIIS: error= 3.58D-06 at cycle   3 NSaved=   3.
 NSaved= 3 IEnMin= 3 EnMin= -271.532541591237     IErMin= 3 ErrMin= 3.58D-06
 ErrMax= 3.58D-06  0.00D+00 EMaxC= 1.00D-01 BMatC= 1.79D-09 BMatP= 3.78D-08
 IDIUse=1 WtCom= 1.00D+00 WtEn= 0.00D+00
 Coeff-Com: -0.159D-01 0.147D-01 0.100D+01
 Coeff:     -0.159D-01 0.147D-01 0.100D+01
 Gap=     0.346 Goal=   None    Shift=    0.000
 RMSDP=8.15D-07 MaxDP=1.18D-05 DE=-9.72D-08 OVMax= 4.69D-05

 Cycle   4  Pass 1  IDiag  1:
 E= -271.532541594503     Delta-E=       -0.000000003266 Rises=F Damp=F
 DIIS: error= 3.99D-06 at cycle   4 NSaved=   4.
 NSaved= 4 IEnMin= 4 EnMin= -271.532541594503     IErMin= 3 ErrMin= 3.58D-06
 ErrMax= 3.99D-06  0.00D+00 EMaxC= 1.00D-01 BMatC= 1.64D-09 BMatP= 1.79D-09
 IDIUse=1 WtCom= 1.00D+00 WtEn= 0.00D+00
 Coeff-Com:  0.118D-01-0.121D+00 0.550D+00 0.559D+00
 Coeff:      0.118D-01-0.121D+00 0.550D+00 0.559D+00
 Gap=     0.346 Goal=   None    Shift=    0.000
 RMSDP=3.65D-07 MaxDP=7.65D-06 DE=-3.27D-09 OVMax= 1.25D-05

 Cycle   5  Pass 1  IDiag  1:
 E= -271.532541595970     Delta-E=       -0.000000001466 Rises=F Damp=F
 DIIS: error= 1.32D-06 at cycle   5 NSaved=   5.
 NSaved= 5 IEnMin= 5 EnMin= -271.532541595970     IErMin= 5 ErrMin= 1.32D-06
 ErrMax= 1.32D-06  0.00D+00 EMaxC= 1.00D-01 BMatC= 2.07D-10 BMatP= 1.64D-09
 IDIUse=1 WtCom= 1.00D+00 WtEn= 0.00D+00
 Coeff-Com:  0.112D-01-0.761D-01 0.653D-01 0.287D+00 0.713D+00
 Coeff:      0.112D-01-0.761D-01 0.653D-01 0.287D+00 0.713D+00
 Gap=     0.346 Goal=   None    Shift=    0.000
 RMSDP=1.44D-07 MaxDP=2.28D-06 DE=-1.47D-09 OVMax= 6.73D-06

 Cycle   6  Pass 1  IDiag  1:
 E= -271.532541596197     Delta-E=       -0.000000000228 Rises=F Damp=F
 DIIS: error= 1.33D-07 at cycle   6 NSaved=   6.
 NSaved= 6 IEnMin= 6 EnMin= -271.532541596197     IErMin= 6 ErrMin= 1.33D-07
 ErrMax= 1.33D-07  0.00D+00 EMaxC= 1.00D-01 BMatC= 4.76D-12 BMatP= 2.07D-10
 IDIUse=1 WtCom= 1.00D+00 WtEn= 0.00D+00
 Coeff-Com:  0.171D-02-0.854D-02-0.214D-01 0.181D-01 0.140D+00 0.870D+00
 Coeff:      0.171D-02-0.854D-02-0.214D-01 0.181D-01 0.140D+00 0.870D+00
 Gap=     0.346 Goal=   None    Shift=    0.000
 RMSDP=3.18D-08 MaxDP=5.46D-07 DE=-2.28D-10 OVMax= 1.55D-06

 Cycle   7  Pass 1  IDiag  1:
 E= -271.532541596202     Delta-E=       -0.000000000005 Rises=F Damp=F
 DIIS: error= 7.81D-08 at cycle   7 NSaved=   7.
 NSaved= 7 IEnMin= 7 EnMin= -271.532541596202     IErMin= 7 ErrMin= 7.81D-08
 ErrMax= 7.81D-08  0.00D+00 EMaxC= 1.00D-01 BMatC= 9.27D-13 BMatP= 4.76D-12
 IDIUse=1 WtCom= 1.00D+00 WtEn= 0.00D+00
 Coeff-Com: -0.382D-03 0.372D-02-0.114D-01-0.192D-01-0.183D-01 0.318D+00
 Coeff-Com:  0.728D+00
 Coeff:     -0.382D-03 0.372D-02-0.114D-01-0.192D-01-0.183D-01 0.318D+00
 Coeff:      0.728D+00
 Gap=     0.346 Goal=   None    Shift=    0.000
 RMSDP=1.19D-08 MaxDP=2.04D-07 DE=-4.66D-12 OVMax= 3.39D-07

 Cycle   8  Pass 1  IDiag  1:
 E= -271.532541596200     Delta-E=        0.000000000002 Rises=F Damp=F
 DIIS: error= 4.84D-08 at cycle   8 NSaved=   8.
 NSaved= 8 IEnMin= 7 EnMin= -271.532541596202     IErMin= 8 ErrMin= 4.84D-08
 ErrMax= 4.84D-08  0.00D+00 EMaxC= 1.00D-01 BMatC= 2.71D-13 BMatP= 9.27D-13
 IDIUse=1 WtCom= 1.00D+00 WtEn= 0.00D+00
 Coeff-Com: -0.344D-03 0.272D-02-0.436D-02-0.123D-01-0.224D-01 0.110D+00
 Coeff-Com:  0.419D+00 0.508D+00
 Coeff:     -0.344D-03 0.272D-02-0.436D-02-0.123D-01-0.224D-01 0.110D+00
 Coeff:      0.419D+00 0.508D+00
 Gap=     0.346 Goal=   None    Shift=    0.000
 RMSDP=4.49D-09 MaxDP=9.07D-08 DE= 1.65D-12 OVMax= 1.56D-07

 SCF Done:  E(RwB97XD) =  -271.532541596     A.U. after    8 cycles
            NFock=  8  Conv=0.45D-08     -V/T= 2.0095
 KE= 2.689643971502D+02 PE=-1.008059596168D+03 EE= 2.759503049952D+02
 Leave Link  502 at Wed Aug  6 21:40:22 2025, MaxMem=   104857600 cpu:               5.2 elap:               5.2
 (Enter /Applications/g16/l701.exe)
 ... and contract with generalized density number  0.
 Compute integral first derivatives.
 R6Disp: Adding Grimme-D2 dispersion energy 1st derivatives to the gradient.
 Leave Link  701 at Wed Aug  6 21:40:22 2025, MaxMem=   104857600 cpu:               0.0 elap:               0.0
 (Enter /Applications/g16/l702.exe)
 L702 exits ... SP integral derivatives will be done elsewhere.
 Leave Link  702 at Wed Aug  6 21:40:22 2025, MaxMem=   104857600 cpu:               0.0 elap:               0.0
 (Enter /Applications/g16/l703.exe)
 Integral derivatives from FoFJK, PRISM(SPDF).
 Compute integral first derivatives, UseDBF=F ICtDFT=           0.
 Calling FoFJK, ICntrl=      2127 FMM=F ISym2X=0 I1Cent= 0 IOpClX= 0 NMat=1 NMatS=1 NMatT=0.
 FoFJK:  IHMeth= 1 ICntrl=    2127 DoSepK=T KAlg= 0 I1Cent=           0 FoldK=F
 IRaf=         1 NMat=       1 IRICut=       1 DoRegI=T DoRafI=F ISym2E= 0 IDoP0=0 IntGTp=1.
 FoFCou: FMM=F IPFlag=           0 FMFlag=      100000 FMFlg1=         800
         NFxFlg=           0 DoJE=F BraDBF=F KetDBF=F FulRan=T
         wScrn=  0.000000 ICntrl=      2527 IOpCl=  0 I1Cent=           0 NGrid=           0
         NMat0=    1 NMatS0=      1 NMatT0=    0 NMatD0=    1 NMtDS0=    0 NMtDT0=    0
 Symmetry not used in FoFCou.
 Leave Link  703 at Wed Aug  6 21:40:25 2025, MaxMem=   104857600 cpu:               2.3 elap:               2.3
 (Enter /Applications/g16/l716.exe)
 Dipole        =-9.48472609D+00-8.57537713D-01 1.01916989D-04
 ***** Axes restored to original set *****
 -------------------------------------------------------------------
 Center     Atomic                   Forces (Hartrees/Bohr)
 Number     Number              X              Y              Z
 -------------------------------------------------------------------
      1        7           0.000012697    0.000016704    0.000003489
      2        6          -0.000024488   -0.000041046   -0.000007809
      3        6           0.000007105    0.000034059    0.000003852
      4        6          -0.000004473   -0.000010574   -0.000001868
      5        6           0.000035373   -0.000012112    0.000003685
      6        7           0.012875678   -0.003110863    0.000000498
      7        1          -0.000000824    0.000000283   -0.000002480
      8        1           0.000002327   -0.000000396    0.000002288
      9        1           0.000001651    0.000002168   -0.000004163
     10        1           0.000004473    0.000001787    0.000004141
     11        3          -0.012909519    0.003119989   -0.000001631
 -------------------------------------------------------------------
 Cartesian Forces:  Max     0.012909519 RMS     0.003265319
 Leave Link  716 at Wed Aug  6 21:40:25 2025, MaxMem=   104857600 cpu:               0.0 elap:               0.0
 (Enter /Applications/g16/l103.exe)

 GradGradGradGradGradGradGradGradGradGradGradGradGradGradGradGradGradGrad
 Berny optimization.
 Using GEDIIS/GDIIS optimizer.
 FormGI is forming the generalized inverse of G from B-inverse, IUseBI=4.
 Internal  Forces:  Max     0.013281159 RMS     0.002183435
 Search for a local minimum.
 Step number   6 out of a maximum of   47
 All quantities printed in internal units (Hartrees-Bohrs-Radians)
 RMS Force = .10865D-04 SwitMx=.10000D-02 MixMth= 2
 Mixed Optimization -- En-DIIS/RFO-DIIS
 Swapping is turned off.
 Update second derivatives using D2CorX and points    1    2    3    4    5
                                                      6
 DE= -5.95D-08 DEPred=-1.18D-07 R= 5.03D-01
 Trust test= 5.03D-01 RLast= 2.68D-03 DXMaxT set to 2.37D-01
 ITU=  0  0  1  1 -1  0
     Eigenvalues ---    0.00230   0.00273   0.01502   0.02351   0.05157
     Eigenvalues ---    0.05249   0.05366   0.05624   0.06025   0.06812
     Eigenvalues ---    0.07556   0.14947   0.16023   0.16166   0.16415
     Eigenvalues ---    0.18489   0.23249   0.28597   0.34168   0.34250
     Eigenvalues ---    0.34279   0.34345   0.36530   0.38195   1.28083
     Eigenvalues ---    1.304401000.000001000.000001000.000001000.00000
     Eigenvalues --- 1000.000001000.000001000.000001000.000001000.00000
     Eigenvalues --- 1000.000001000.00000
 En-DIIS/RFO-DIIS/Sim-DIIS IScMMF=       -3 using points:     6    5    4    3    2    1
 RFO step:  Lambda=-2.55326373D-07.
 NNeg= 0 NGDIIS= 6 SimSw=  2.50D-01 Rises=F DC= -5.95D-08 SmlDif=  1.00D-05
 NRisDI= 0 DoIntr=F SqrtH=F CThrHd= 10.0 CDAdj=  3.0
 RMS Error=  0.5049488772D-03 NUsed= 6 OKEnD=F EnDIS=F
 InvSVX:  RCond= 2.85D-06 Info=           0 Equed=N FErr=  7.37D-14 BErr=  5.32D-17
 DidBck=F Rises=F RFO-DIIS coefs:    0.45221    0.03695    0.13635    0.17383    0.04546
                  RFO-DIIS coefs:    0.15519
 Iteration  1 RMS(Cart)=  0.00046148 RMS(Int)=  0.00000044
 Iteration  2 RMS(Cart)=  0.00000022 RMS(Int)=  0.00000040
 Iteration  1 RMS(Cart)=  0.00000000 RMS(Int)=  0.00000000
 ITry= 1 IFail=0 DXMaxC= 1.31D-03 DCOld= 1.00D+10 DXMaxT= 2.37D-01 DXLimC= 3.00D+00 Rises=F
 Variable       Old X    -DE/DX   Delta X   Delta X   Delta X     New X
                                 (Linear)    (Quad)   (Total)
    R1        2.18481  -0.00001  -0.00001   0.00001  -0.00000   2.18481
    R2        2.76470   0.00000   0.00006  -0.00007  -0.00001   2.76469
    R3        2.92047  -0.00001   0.00005  -0.00007  -0.00002   2.92045
    R4        2.06770   0.00000  -0.00004   0.00005   0.00001   2.06771
    R5        2.06770   0.00000  -0.00004   0.00005   0.00001   2.06772
    R6        2.76558   0.00000  -0.00002   0.00001  -0.00002   2.76556
    R7        2.06863   0.00000   0.00004  -0.00004   0.00000   2.06863
    R8        2.06863   0.00000   0.00004  -0.00004   0.00000   2.06863
    R9        2.18360  -0.00003  -0.00005   0.00003  -0.00002   2.18358
   R10        5.66918  -0.01328   0.00000   0.00000  -0.00000   5.66918
    A1        1.91844   0.00002  -0.00044   0.00051   0.00007   1.91851
    A2        1.90247  -0.00001   0.00018  -0.00021  -0.00003   1.90244
    A3        1.90246  -0.00000   0.00019  -0.00019  -0.00000   1.90246
    A4        1.92934  -0.00001  -0.00007   0.00006  -0.00001   1.92933
    A5        1.92934  -0.00001  -0.00007   0.00006  -0.00001   1.92933
    A6        1.88108   0.00001   0.00024  -0.00025  -0.00001   1.88106
    A7        1.94999  -0.00001   0.00042  -0.00050  -0.00008   1.94991
    A8        1.92876   0.00000  -0.00011   0.00014   0.00004   1.92880
    A9        1.92876   0.00000  -0.00010   0.00014   0.00004   1.92880
   A10        1.88964   0.00000  -0.00009   0.00008  -0.00001   1.88963
   A11        1.88967   0.00000  -0.00011   0.00010  -0.00001   1.88966
   A12        1.87475   0.00000  -0.00003   0.00005   0.00002   1.87477
   A13        3.11762  -0.00004  -0.00038  -0.00033  -0.00071   3.11691
   A14        3.13687  -0.00000   0.00020  -0.00013   0.00007   3.13694
   A15        3.20140   0.00000   0.00003   0.00002   0.00005   3.20145
   A16        3.12870  -0.00002  -0.00038  -0.00031  -0.00069   3.12801
   A17        3.14427  -0.00000  -0.00014   0.00020   0.00006   3.14433
   A18        3.18926   0.00000   0.00092   0.00005   0.00097   3.19023
    D1       -3.14157  -0.00000   0.00001   0.00002   0.00003  -3.14154
    D2       -1.03636  -0.00000   0.00010  -0.00011  -0.00001  -1.03637
    D3        1.03636   0.00000  -0.00006   0.00013   0.00007   1.03643
    D4       -1.04063   0.00000  -0.00010   0.00013   0.00003  -1.04060
    D5        1.06458   0.00000  -0.00000  -0.00000  -0.00001   1.06457
    D6        3.13730   0.00000  -0.00017   0.00024   0.00007   3.13737
    D7        1.04069  -0.00000   0.00010  -0.00010  -0.00000   1.04068
    D8       -3.13728  -0.00000   0.00020  -0.00024  -0.00004  -3.13733
    D9       -1.06457  -0.00000   0.00003   0.00001   0.00004  -1.06453
         Item               Value     Threshold  Converged?
 Maximum Force            0.000038     0.000450     YES
 RMS     Force            0.000011     0.000300     YES
 Maximum Displacement     0.001314     0.001800     YES
 RMS     Displacement     0.000462     0.001200     YES
 Predicted change in Energy=-3.119590D-08
 Optimization completed.
    -- Stationary point found.
                           ----------------------------
                           !   Optimized Parameters   !
                           ! (Angstroms and Degrees)  !
 --------------------------                            --------------------------
 ! Name  Definition              Value          Derivative Info.                !
 --------------------------------------------------------------------------------
 ! R1    R(1,2)                  1.1562         -DE/DX =    0.0                 !
 ! R2    R(2,3)                  1.463          -DE/DX =    0.0                 !
 ! R3    R(3,4)                  1.5454         -DE/DX =    0.0                 !
 ! R4    R(3,9)                  1.0942         -DE/DX =    0.0                 !
 ! R5    R(3,10)                 1.0942         -DE/DX =    0.0                 !
 ! R6    R(4,5)                  1.4635         -DE/DX =    0.0                 !
 ! R7    R(4,7)                  1.0947         -DE/DX =    0.0                 !
 ! R8    R(4,8)                  1.0947         -DE/DX =    0.0                 !
 ! R9    R(5,6)                  1.1555         -DE/DX =    0.0                 !
 ! R10   R(6,11)                 3.0            -DE/DX =   -0.0133              !
 ! A1    A(2,3,4)              109.9184         -DE/DX =    0.0                 !
 ! A2    A(2,3,9)              109.0036         -DE/DX =    0.0                 !
 ! A3    A(2,3,10)             109.0029         -DE/DX =    0.0                 !
 ! A4    A(4,3,9)              110.5429         -DE/DX =    0.0                 !
 ! A5    A(4,3,10)             110.5431         -DE/DX =    0.0                 !
 ! A6    A(9,3,10)             107.7779         -DE/DX =    0.0                 !
 ! A7    A(3,4,5)              111.7264         -DE/DX =    0.0                 !
 ! A8    A(3,4,7)              110.5098         -DE/DX =    0.0                 !
 ! A9    A(3,4,8)              110.5096         -DE/DX =    0.0                 !
 ! A10   A(5,4,7)              108.2684         -DE/DX =    0.0                 !
 ! A11   A(5,4,8)              108.2702         -DE/DX =    0.0                 !
 ! A12   A(7,4,8)              107.4152         -DE/DX =    0.0                 !
 ! A13   L(1,2,3,7,-1)         178.6263         -DE/DX =    0.0                 !
 ! A14   L(4,5,6,9,-1)         179.7296         -DE/DX =    0.0                 !
 ! A15   L(5,6,11,10,-1)       183.4268         -DE/DX =    0.0                 !
 ! A16   L(1,2,3,7,-2)         179.2613         -DE/DX =    0.0                 !
 ! A17   L(4,5,6,9,-2)         180.1535         -DE/DX =    0.0                 !
 ! A18   L(5,6,11,10,-2)       182.7313         -DE/DX =    0.0                 !
 ! D1    D(2,3,4,5)           -179.9989         -DE/DX =    0.0                 !
 ! D2    D(2,3,4,7)            -59.379          -DE/DX =    0.0                 !
 ! D3    D(2,3,4,8)             59.3789         -DE/DX =    0.0                 !
 ! D4    D(9,3,4,5)            -59.624          -DE/DX =    0.0                 !
 ! D5    D(9,3,4,7)             60.9959         -DE/DX =    0.0                 !
 ! D6    D(9,3,4,8)            179.7539         -DE/DX =    0.0                 !
 ! D7    D(10,3,4,5)            59.6269         -DE/DX =    0.0                 !
 ! D8    D(10,3,4,7)          -179.7531         -DE/DX =    0.0                 !
 ! D9    D(10,3,4,8)           -60.9952         -DE/DX =    0.0                 !
 --------------------------------------------------------------------------------
 Lowest energy point so far.  Saving SCF results.
 Largest change from initial coordinates is atom   11       0.014 Angstoms.
 GradGradGradGradGradGradGradGradGradGradGradGradGradGradGradGradGradGrad

 Leave Link  103 at Wed Aug  6 21:40:25 2025, MaxMem=   104857600 cpu:               0.0 elap:               0.0
 (Enter /Applications/g16/l202.exe)
                          Input orientation:                          
 ---------------------------------------------------------------------
 Center     Atomic      Atomic             Coordinates (Angstroms)
 Number     Number       Type             X           Y           Z
 ---------------------------------------------------------------------
      1          7           0       -2.977063    0.255930   -0.000322
      2          6           0       -1.893243   -0.146589    0.000047
      3          6           0       -0.508912   -0.619922    0.000366
      4          6           0        0.459368    0.584587   -0.000227
      5          6           0        1.858387    0.155030    0.000043
      6          7           0        2.961235   -0.189841    0.000277
      7          1           0        0.292685    1.210244   -0.882880
      8          1           0        0.292596    1.211180    0.881747
      9          1           0       -0.345633   -1.244251   -0.883256
     10          1           0       -0.345730   -1.243308    0.884671
     11          3           0        5.877303   -0.894504    0.000665
 ---------------------------------------------------------------------
                    Distance matrix (angstroms):
                    1          2          3          4          5
     1  N    0.000000
     2  C    1.156152   0.000000
     3  C    2.618948   1.463017   0.000000
     4  C    3.452111   2.463614   1.545447   0.000000
     5  C    4.836503   3.763735   2.490915   1.463480   0.000000
     6  N    5.955007   4.854672   3.496698   2.618985   1.155513
     7  H    3.518647   2.720081   2.184534   1.094672   2.084335
     8  H    3.518696   2.720078   2.184532   1.094673   2.084359
     9  H    3.155082   2.092890   1.094182   2.184586   2.756068
    10  H    3.155129   2.092880   1.094182   2.184588   2.756093
    11  Li   8.928791   7.806457   6.392115   5.616203   4.153698
                    6          7          8          9         10
     6  N    0.000000
     7  H    3.140281   0.000000
     8  H    3.140299   1.764627   0.000000
     9  H    3.581591   2.536138   3.090585   0.000000
    10  H    3.581615   3.090587   2.536135   1.767927   0.000000
    11  Li   3.000000   6.033123   6.033171   6.295123   6.295179
                   11
    11  Li   0.000000
 Stoichiometry    C4H4LiN2(1+)
 Framework group  C1[X(C4H4LiN2)]
 Deg. of freedom    27
 Full point group                 C1      NOp   1
 RotChk:  IX=2 Diff= 5.42D-16
 Largest Abelian subgroup         C1      NOp   1
 Largest concise Abelian subgroup C1      NOp   1
                         Standard orientation:                         
 ---------------------------------------------------------------------
 Center     Atomic      Atomic             Coordinates (Angstroms)
 Number     Number       Type             X           Y           Z
 ---------------------------------------------------------------------
      1          7           0        3.365564    0.103093    0.000082
      2          6           0        2.258995   -0.231857   -0.000029
      3          6           0        0.848121   -0.618965   -0.000038
      4          6           0       -0.044076    0.642934   -0.000027
      5          6           0       -1.466912    0.300425   -0.000010
      6          7           0       -2.588920    0.024186   -0.000015
      7          1           0        0.160922    1.257584    0.882293
      8          1           0        0.160931    1.257602   -0.882334
      9          1           0        0.646739   -1.231588    0.883915
     10          1           0        0.646758   -1.231564   -0.884011
     11          3           0       -5.542876   -0.499402    0.000097
 ---------------------------------------------------------------------
 Rotational constants (GHZ):          22.4116036           0.8909976           0.8661650
 Leave Link  202 at Wed Aug  6 21:40:25 2025, MaxMem=   104857600 cpu:               0.0 elap:               0.0
 (Enter /Applications/g16/l601.exe)
 Copying SCF densities to generalized density rwf, IOpCl= 0 IROHF=0.

 **********************************************************************

            Population analysis using the SCF Density.

 **********************************************************************

 Orbital symmetries:
       Occupied  (A) (A) (A) (A) (A) (A) (A) (A) (A) (A) (A) (A)
                 (A) (A) (A) (A) (A) (A) (A) (A) (A) (A)
       Virtual   (A) (A) (A) (A) (A) (A) (A) (A) (A) (A) (A) (A)
                 (A) (A) (A) (A) (A) (A) (A) (A) (A) (A) (A) (A)
                 (A) (A) (A) (A) (A) (A) (A) (A) (A) (A) (A) (A)
                 (A) (A) (A) (A) (A) (A) (A) (A) (A) (A) (A) (A)
                 (A) (A) (A) (A) (A) (A) (A) (A) (A) (A) (A) (A)
                 (A) (A) (A) (A) (A) (A) (A) (A) (A) (A) (A) (A)
                 (A) (A) (A) (A) (A) (A) (A) (A) (A) (A) (A) (A)
                 (A) (A) (A) (A) (A) (A) (A)
 The electronic state is 1-A.
 Alpha  occ. eigenvalues --  -14.61932 -14.55350 -10.50951 -10.49095 -10.47872
 Alpha  occ. eigenvalues --  -10.44010  -2.40116  -1.16886  -1.10742  -1.05440
 Alpha  occ. eigenvalues --   -0.93747  -0.76131  -0.72022  -0.70525  -0.65384
 Alpha  occ. eigenvalues --   -0.63197  -0.62896  -0.57451  -0.56595  -0.54103
 Alpha  occ. eigenvalues --   -0.51180  -0.50916
 Alpha virt. eigenvalues --   -0.16309  -0.09996  -0.09959  -0.07146  -0.04693
 Alpha virt. eigenvalues --   -0.03889   0.00213   0.02049   0.03089   0.03196
 Alpha virt. eigenvalues --    0.03226   0.04428   0.07857   0.09440   0.09824
 Alpha virt. eigenvalues --    0.14138   0.16178   0.17204   0.17639   0.30022
 Alpha virt. eigenvalues --    0.33786   0.34670   0.34954   0.34954   0.35036
 Alpha virt. eigenvalues --    0.38436   0.48095   0.49394   0.51986   0.52034
 Alpha virt. eigenvalues --    0.55548   0.58435   0.62018   0.63574   0.66790
 Alpha virt. eigenvalues --    0.68021   0.73658   0.75389   0.78941   0.80100
 Alpha virt. eigenvalues --    0.80523   0.82033   0.84661   0.85871   0.87690
 Alpha virt. eigenvalues --    0.89149   0.95548   0.96854   1.01274   1.03642
 Alpha virt. eigenvalues --    1.12282   1.29040   1.31719   1.33941   1.42599
 Alpha virt. eigenvalues --    1.43828   1.45081   1.49568   1.50227   1.53494
 Alpha virt. eigenvalues --    1.66261   1.66817   1.72854   1.81311   1.82181
 Alpha virt. eigenvalues --    1.87349   1.88111   1.92515   1.93357   1.94054
 Alpha virt. eigenvalues --    1.97131   1.99989   2.17443   2.17581   2.20412
 Alpha virt. eigenvalues --    2.29434   2.40521   2.67363   2.72306   2.75660
 Alpha virt. eigenvalues --    2.78499   2.81014   2.87544   3.15438   3.26571
 Alpha virt. eigenvalues --    3.99243   4.05194   4.10110   4.20871   4.50887
 Alpha virt. eigenvalues --    4.72126
          Condensed to atoms (all electrons):
               1          2          3          4          5          6
     1  N    6.629397   0.868030  -0.081979  -0.000811  -0.000078  -0.000000
     2  C    0.868030   4.603322   0.276421  -0.039193   0.003363  -0.000072
     3  C   -0.081979   0.276421   5.217425   0.316945  -0.035648  -0.001043
     4  C   -0.000811  -0.039193   0.316945   5.228710   0.280109  -0.072545
     5  C   -0.000078   0.003363  -0.035648   0.280109   4.519792   0.843108
     6  N   -0.000000  -0.000072  -0.001043  -0.072545   0.843108   6.730112
     7  H    0.000294  -0.002041  -0.028035   0.377795  -0.031704  -0.000925
     8  H    0.000294  -0.002041  -0.028035   0.377796  -0.031702  -0.000925
     9  H   -0.000550  -0.028302   0.378580  -0.031781  -0.003188   0.000164
    10  H   -0.000549  -0.028301   0.378575  -0.031780  -0.003189   0.000164
    11  Li  -0.000000   0.000014  -0.000012   0.000807  -0.000454   0.065419
               7          8          9         10         11
     1  N    0.000294   0.000294  -0.000550  -0.000549  -0.000000
     2  C   -0.002041  -0.002041  -0.028302  -0.028301   0.000014
     3  C   -0.028035  -0.028035   0.378580   0.378575  -0.000012
     4  C    0.377795   0.377796  -0.031781  -0.031780   0.000807
     5  C   -0.031704  -0.031702  -0.003188  -0.003189  -0.000454
     6  N   -0.000925  -0.000925   0.000164   0.000164   0.065419
     7  H    0.429157  -0.018669  -0.002404   0.002936  -0.000043
     8  H   -0.018669   0.429153   0.002936  -0.002404  -0.000043
     9  H   -0.002404   0.002936   0.452887  -0.021418   0.000045
    10  H    0.002936  -0.002404  -0.021418   0.452892   0.000045
    11  Li  -0.000043  -0.000043   0.000045   0.000045   2.019215
 Mulliken charges:
               1
     1  N   -0.414048
     2  C    0.348801
     3  C   -0.393192
     4  C   -0.406052
     5  C    0.459589
     6  N   -0.563455
     7  H    0.273641
     8  H    0.273642
     9  H    0.253033
    10  H    0.253031
    11  Li   0.915009
 Sum of Mulliken charges =   1.00000
 Mulliken charges with hydrogens summed into heavy atoms:
               1
     1  N   -0.414048
     2  C    0.348801
     3  C    0.112872
     4  C    0.141231
     5  C    0.459589
     6  N   -0.563455
    11  Li   0.915009
 Electronic spatial extent (au):  <R**2>=            996.6585
 Charge=              1.0000 electrons
 Dipole moment (field-independent basis, Debye):
    X=            -24.1078    Y=             -2.1796    Z=              0.0003  Tot=             24.2061
 Quadrupole moment (field-independent basis, Debye-Ang):
   XX=             81.3279   YY=            -30.3433   ZZ=            -32.6577
   XY=             10.5813   XZ=             -0.0031   YZ=             -0.0003
 Traceless Quadrupole moment (field-independent basis, Debye-Ang):
   XX=             75.2189   YY=            -36.4523   ZZ=            -38.7667
   XY=             10.5813   XZ=             -0.0031   YZ=             -0.0003
 Octapole moment (field-independent basis, Debye-Ang**2):
  XXX=           -842.5461  YYY=             -2.7544  ZZZ=              0.0004  XYY=            -15.1922
  XXY=            -76.8913  XXZ=              0.0126  XZZ=             -8.9235  YZZ=             -0.6482
  YYZ=              0.0002  XYZ=              0.0012
 Hexadecapole moment (field-independent basis, Debye-Ang**3):
 XXXX=           3137.3648 YYYY=            -81.5188 ZZZZ=            -41.9024 XXXY=            403.4303
 XXXZ=             -0.0877 YYYX=             17.8810 YYYZ=             -0.0005 ZZZX=             -0.0031
 ZZZY=             -0.0002 XXYY=           -143.6192 XXZZ=           -173.5969 YYZZ=            -17.3244
 XXYZ=             -0.0075 YYXZ=             -0.0018 ZZXY=              4.6927
 N-N= 1.916123524265D+02 E-N=-1.008059595803D+03  KE= 2.689643971502D+02
 No NMR shielding tensors so no spin-rotation constants.
 Leave Link  601 at Wed Aug  6 21:40:25 2025, MaxMem=   104857600 cpu:               0.0 elap:               0.0
 (Enter /Applications/g16/l9999.exe)
 Unable to Open any file for archive entry.
 1\1\GINC-MBPSRAK\FOpt\RwB97XD\6-31G(d)\C4H4Li1N2(1+)\ROOT\06-Aug-2025\
 0\\#P wb97xd/6-31g(d) opt(modredundant)\\Gaussian input prepared by AS
 E\\1,1\N,-2.9770634172,0.2559296071,-0.0003215115\C,-1.893243395,-0.14
 65888322,0.0000474142\C,-0.5089120569,-0.619921837,0.0003656234\C,0.45
 93675395,0.5845866754,-0.000226767\C,1.8583868706,0.1550304451,0.00004
 29867\N,2.9612354825,-0.1898406175,0.0002771263\H,0.2926847525,1.21024
 41987,-0.8828801095\H,0.2925964959,1.2111795418,0.8817470256\H,-0.3456
 328074,-1.2442514076,-0.883256001\H,-0.3457303224,-1.2433079912,0.8846
 706722\Li,5.8773030452,-0.894503529,0.0006651408\\Version=Apple M1-G16
 RevC.02\State=1-A\HF=-271.5325416\RMSD=4.493e-09\RMSF=3.265e-03\Dipole
 =9.4138369,-1.4405114,0.0010759\Quadrupole=54.640094,-25.8180199,-28.8
 220741,-12.9147682,0.0082337,-0.0018137\PG=C01 [X(C4H4Li1N2)]\\@
 The archive entry for this job was punched.


 THERE'S A SUCKER BORN EVERY MINUTE

              -- PHINEAS TAYLOR (P.T.) BARNUM
 Job cpu time:       0 days  0 hours  0 minutes 52.5 seconds.
 Elapsed time:       0 days  0 hours  0 minutes 52.5 seconds.
 File lengths (MBytes):  RWF=     10 Int=      0 D2E=      0 Chk=      2 Scr=      1
 Normal termination of Gaussian 16 at Wed Aug  6 21:40:25 2025.
