10

N      10.675373799999999      0.885280800000000      3.863675340000000
C       9.999319200000000      1.452489400000000      3.125223730000001
C       9.179346000000001      2.174501200000000      2.180166530000001
C       8.221501200000001      3.132346000000000      2.846733470000001
C       7.499489400000000      3.952319200000000      1.901676270000001
N       6.932280800000000      4.628373800000000      1.163224660000000
H       8.727284370000000      3.712253300000000      3.452771510000000
H       7.584268339999999      2.618000270000001      3.383053430000000
H       9.759253299999999      2.680284370000000      1.574128489999999
H       8.665000270000000      1.537268339999999      1.643846570000000
