10

N       7.465626200000001      6.932280800000000      8.890575340000000
C       8.141680800000000      7.499489400000000      8.152123730000000
C       8.961653999999999      8.221501200000001      7.207066530000001
C       9.919498800000000      9.179346000000001      7.873633470000000
C      10.641510600000000      9.999319200000000      6.928576270000000
N      11.208719200000001     10.675373799999999      6.190124660000000
H       9.413715630000000      9.759253299999999      8.479671509999999
H      10.556731660000001      8.665000270000000      8.409953430000000
H       8.381746700000001      8.727284370000000      6.601028489999999
H       9.475999730000000      7.584268339999999      6.670746570000000
