10

N       7.465626200000001      6.932280800000000      3.863675340000000
C       8.141680800000000      7.499489400000000      3.125223730000001
C       8.961653999999999      8.221501200000001      2.180166530000001
C       9.919498800000000      9.179346000000001      2.846733470000001
C      10.641510600000000      9.999319200000000      1.901676270000001
N      11.208719200000001     10.675373799999999      1.163224660000000
H       9.413715630000000      9.759253299999999      3.452771510000000
H      10.556731660000001      8.665000270000000      3.383053430000000
H       8.381746700000001      8.727284370000000      1.574128489999999
H       9.475999730000000      7.584268339999999      1.643846570000000
