10

N       4.628373800000000      5.161719200000000      3.863675340000000
C       3.952319200000000      4.594510600000000      3.125223730000001
C       3.132346000000000      3.872498800000001      2.180166530000001
C       2.174501200000000      2.914654000000002      2.846733470000001
C       1.452489400000000      2.094680800000002      1.901676270000001
N       0.885280800000000      1.418626200000002      1.163224660000000
H       2.680284370000000      2.334746700000004      3.452771510000000
H       1.537268339999999      3.428999730000002      3.383053430000000
H       3.712253300000000      3.366715630000002      1.574128489999999
H       2.618000270000001      4.509731660000001      1.643846570000000
