10

N       4.628373800000000      5.161719200000000      8.890575340000000
C       3.952319200000000      4.594510600000000      8.152123730000000
C       3.132346000000000      3.872498800000001      7.207066530000001
C       2.174501200000000      2.914654000000002      7.873633470000000
C       1.452489400000000      2.094680800000002      6.928576270000000
N       0.885280800000000      1.418626200000002      6.190124660000000
H       2.680284370000000      2.334746700000004      8.479671509999999
H       1.537268339999999      3.428999730000002      8.409953430000000
H       3.712253300000000      3.366715630000002      6.601028489999999
H       2.618000270000001      4.509731660000001      6.670746570000000
