10

N       1.418626200000000     11.208719200000001      3.863675340000000
C       2.094680800000000     10.641510600000000      3.125223730000001
C       2.914654000000000      9.919498800000000      2.180166530000001
C       3.872498800000000      8.961653999999999      2.846733470000001
C       4.594510599999999      8.141680800000000      1.901676270000001
N       5.161719199999999      7.465626200000001      1.163224660000000
H       3.366715630000001      8.381746700000001      3.452771510000000
H       4.509731660000000      9.475999730000000      3.383053430000000
H       2.334746700000002      9.413715630000000      1.574128489999999
H       3.428999730000000     10.556731660000001      1.643846570000000
