10

N      10.675373799999999      0.885280800000000      8.890575340000000
C       9.999319200000000      1.452489400000000      8.152123730000000
C       9.179346000000001      2.174501200000000      7.207066530000001
C       8.221501200000001      3.132346000000000      7.873633470000000
C       7.499489400000000      3.952319200000000      6.928576270000000
N       6.932280800000000      4.628373800000000      6.190124660000000
H       8.727284370000000      3.712253300000000      8.479671509999999
H       7.584268339999999      2.618000270000001      8.409953430000000
H       9.759253299999999      2.680284370000000      6.601028489999999
H       8.665000270000000      1.537268339999999      6.670746570000000
