10

N       1.418626200000000     11.208719200000001      8.890575340000000
C       2.094680800000000     10.641510600000000      8.152123730000000
C       2.914654000000000      9.919498800000000      7.207066530000001
C       3.872498800000000      8.961653999999999      7.873633470000000
C       4.594510599999999      8.141680800000000      6.928576270000000
N       5.161719199999999      7.465626200000001      6.190124660000000
H       3.366715630000001      8.381746700000001      8.479671509999999
H       4.509731660000000      9.475999730000000      8.409953430000000
H       2.334746700000002      9.413715630000000      6.601028489999999
H       3.428999730000000     10.556731660000001      6.670746570000000
