 Entering Gaussian System, Link 0=g16
 Initial command:
 /home/appl/Gaussian/g16/l1.exe "/scr/Gau-47310.inp" -scrdir="/scr/"
 Entering Link 1 = /home/appl/Gaussian/g16/l1.exe PID=     47311.
  
 Copyright (c) 1988-2019, Gaussian, Inc.  All Rights Reserved.
  
 This is part of the Gaussian(R) 16 program.  It is based on
 the Gaussian(R) 09 system (copyright 2009, Gaussian, Inc.),
 the Gaussian(R) 03 system (copyright 2003, Gaussian, Inc.),
 the Gaussian(R) 98 system (copyright 1998, Gaussian, Inc.),
 the Gaussian(R) 94 system (copyright 1995, Gaussian, Inc.),
 the Gaussian 92(TM) system (copyright 1992, Gaussian, Inc.),
 the Gaussian 90(TM) system (copyright 1990, Gaussian, Inc.),
 the Gaussian 88(TM) system (copyright 1988, Gaussian, Inc.),
 the Gaussian 86(TM) system (copyright 1986, Carnegie Mellon
 University), and the Gaussian 82(TM) system (copyright 1983,
 Carnegie Mellon University). Gaussian is a federally registered
 trademark of Gaussian, Inc.
  
 This software contains proprietary and confidential information,
 including trade secrets, belonging to Gaussian, Inc.
  
 This software is provided under written license and may be
 used, copied, transmitted, or stored only in accord with that
 written license.
  
 The following legend is applicable only to US Government
 contracts under FAR:
  
                    RESTRICTED RIGHTS LEGEND
  
 Use, reproduction and disclosure by the US Government is
 subject to restrictions as set forth in subparagraphs (a)
 and (c) of the Commercial Computer Software - Restricted
 Rights clause in FAR 52.227-19.
  
 Gaussian, Inc.
 340 Quinnipiac St., Bldg. 40, Wallingford CT 06492
  
  
 ---------------------------------------------------------------
 Warning -- This program may not be used in any manner that
 competes with the business of Gaussian, Inc. or will provide
 assistance to any competitor of Gaussian, Inc.  The licensee
 of this program is prohibited from giving any competitor of
 Gaussian, Inc. access to this program.  By using this program,
 the user acknowledges that Gaussian, Inc. is engaged in the
 business of creating and licensing software in the field of
 computational chemistry and represents and warrants to the
 licensee that it is not a competitor of Gaussian, Inc. and that
 it will not use this program in any manner prohibited above.
 ---------------------------------------------------------------
  

 Cite this work as:
 Gaussian 16, Revision C.01,
 M. J. Frisch, G. W. Trucks, H. B. Schlegel, G. E. Scuseria, 
 M. A. Robb, J. R. Cheeseman, G. Scalmani, V. Barone, 
 G. A. Petersson, H. Nakatsuji, X. Li, M. Caricato, A. V. Marenich, 
 J. Bloino, B. G. Janesko, R. Gomperts, B. Mennucci, H. P. Hratchian, 
 J. V. Ortiz, A. F. Izmaylov, J. L. Sonnenberg, D. Williams-Young, 
 F. Ding, F. Lipparini, F. Egidi, J. Goings, B. Peng, A. Petrone, 
 T. Henderson, D. Ranasinghe, V. G. Zakrzewski, J. Gao, N. Rega, 
 G. Zheng, W. Liang, M. Hada, M. Ehara, K. Toyota, R. Fukuda, 
 J. Hasegawa, M. Ishida, T. Nakajima, Y. Honda, O. Kitao, H. Nakai, 
 T. Vreven, K. Throssell, J. A. Montgomery, Jr., J. E. Peralta, 
 F. Ogliaro, M. J. Bearpark, J. J. Heyd, E. N. Brothers, K. N. Kudin, 
 V. N. Staroverov, T. A. Keith, R. Kobayashi, J. Normand, 
 K. Raghavachari, A. P. Rendell, J. C. Burant, S. S. Iyengar, 
 J. Tomasi, M. Cossi, J. M. Millam, M. Klene, C. Adamo, R. Cammi, 
 J. W. Ochterski, R. L. Martin, K. Morokuma, O. Farkas, 
 J. B. Foresman, and D. J. Fox, Gaussian, Inc., Wallingford CT, 2019.
 
 ******************************************
 Gaussian 16:  ES64L-G16RevC.01  3-Jul-2019
                14-Sep-2024 
 ******************************************
 %mem=32GB
 %nprocshared=32
 Will use up to   32 processors via shared memory.
 ------------------------------------------
 #P hf/6-31g(d) pop(mk) IOP(6/33=2, 6/42=6)
 ------------------------------------------
 1/38=1,172=1/1;
 2/12=2,17=6,18=5,40=1/2;
 3/5=1,6=6,7=1,11=9,25=1,30=1/1,2,3;
 4//1;
 5/5=2,38=5/2;
 6/7=2,8=2,9=2,10=2,15=8,20=1,28=1,33=2,42=6/1,2;
 99/5=1,9=1/99;
 Leave Link    1 at Sat Sep 14 21:01:37 2024, MaxMem=  4294967296 cpu:               2.1 elap:               0.2
 (Enter /home/appl/Gaussian/g16/l101.exe)
 ------------------------------
 Gaussian input prepared by ASE
 ------------------------------
 Symbolic Z-matrix:
 Charge =  0 Multiplicity = 1
 N                     7.55845   6.86641   3.89644 
 C                     8.1592    7.46639   3.12182 
 C                     8.93425   8.24046   2.15701 
 C                     9.89903   9.20815   2.86983 
 C                     10.67404   9.98242   1.90511 
 N                     11.27488   10.58252   1.13064 
 H                     9.34245   9.89818   3.50806 
 H                     10.58863   8.65391   3.51054 
 H                     8.24473   8.79469   1.51619 
 H                     9.49085   7.55037   1.51887 
 
 ITRead=  0  0  0  0  0  0  0  0  0  0
 MicOpt= -1 -1 -1 -1 -1 -1 -1 -1 -1 -1
 NAtoms=     10 NQM=       10 NQMF=       0 NMMI=      0 NMMIF=      0
                NMic=       0 NMicF=      0.
                    Isotopes and Nuclear Properties:
 (Nuclear quadrupole moments (NQMom) in fm**2, nuclear magnetic moments (NMagM)
  in nuclear magnetons)

  Atom         1           2           3           4           5           6           7           8           9          10
 IAtWgt=          14          12          12          12          12          14           1           1           1           1
 AtmWgt=  14.0030740  12.0000000  12.0000000  12.0000000  12.0000000  14.0030740   1.0078250   1.0078250   1.0078250   1.0078250
 NucSpn=           2           0           0           0           0           2           1           1           1           1
 AtZEff=  -0.0000000  -0.0000000  -0.0000000  -0.0000000  -0.0000000  -0.0000000  -0.0000000  -0.0000000  -0.0000000  -0.0000000
 NQMom=    2.0440000   0.0000000   0.0000000   0.0000000   0.0000000   2.0440000   0.0000000   0.0000000   0.0000000   0.0000000
 NMagM=    0.4037610   0.0000000   0.0000000   0.0000000   0.0000000   0.4037610   2.7928460   2.7928460   2.7928460   2.7928460
 AtZNuc=   7.0000000   6.0000000   6.0000000   6.0000000   6.0000000   7.0000000   1.0000000   1.0000000   1.0000000   1.0000000
 Leave Link  101 at Sat Sep 14 21:01:39 2024, MaxMem=  4294967296 cpu:               9.2 elap:               0.9
 (Enter /home/appl/Gaussian/g16/l202.exe)
                          Input orientation:                          
 ---------------------------------------------------------------------
 Center     Atomic      Atomic             Coordinates (Angstroms)
 Number     Number       Type             X           Y           Z
 ---------------------------------------------------------------------
      1          7           0        7.558446    6.866407    3.896444
      2          6           0        8.159201    7.466387    3.121818
      3          6           0        8.934248    8.240456    2.157010
      4          6           0        9.899027    9.208154    2.869825
      5          6           0       10.674045    9.982416    1.905106
      6          7           0       11.274882   10.582522    1.130636
      7          1           0        9.342449    9.898180    3.508060
      8          1           0       10.588631    8.653914    3.510540
      9          1           0        8.244729    8.794686    1.516190
     10          1           0        9.490851    7.550369    1.518872
 ---------------------------------------------------------------------
                    Distance matrix (angstroms):
                    1          2          3          4          5
     1  N    0.000000
     2  C    1.149316   0.000000
     3  C    2.608922   1.459704   0.000000
     4  C    3.466417   2.474722   1.541215   0.000000
     5  C    4.835483   3.759685   2.474828   1.459732   0.000000
     6  N    5.938948   4.835553   3.466595   2.608954   1.149320
     7  H    3.539090   2.731826   2.177157   1.092364   2.085595
     8  H    3.539227   2.731933   2.177148   1.092360   2.085577
     9  H    3.139244   2.085602   1.092363   2.177151   2.731947
    10  H    3.139242   2.085613   1.092358   2.177139   2.732028
                    6          7          8          9         10
     6  N    0.000000
     7  H    3.139230   0.000000
     8  H    3.139174   1.761015   0.000000
     9  H    3.539327   2.527891   3.080767   0.000000
    10  H    3.539413   3.080764   2.527780   1.761009   0.000000
 Stoichiometry    C4H4N2
 Framework group  C1[X(C4H4N2)]
 Deg. of freedom    24
 Full point group                 C1      NOp   1
 Largest Abelian subgroup         C1      NOp   1
 Largest concise Abelian subgroup C1      NOp   1
                         Standard orientation:                         
 ---------------------------------------------------------------------
 Center     Atomic      Atomic             Coordinates (Angstroms)
 Number     Number       Type             X           Y           Z
 ---------------------------------------------------------------------
      1          7           0        2.962202   -0.207255   -0.000046
      2          6           0        1.873045    0.159713   -0.000020
      3          6           0        0.481806    0.601515    0.000050
      4          6           0       -0.481737   -0.601368    0.000051
      5          6           0       -1.873047   -0.159695   -0.000036
      6          7           0       -2.962275    0.207072   -0.000040
      7          1           0       -0.311070   -1.224997   -0.880414
      8          1           0       -0.311173   -1.224899    0.880601
      9          1           0        0.311151    1.225121   -0.880433
     10          1           0        0.311201    1.225065    0.880576
 ---------------------------------------------------------------------
 Rotational constants (GHZ):          25.7013522           1.4906060           1.4338811
 Leave Link  202 at Sat Sep 14 21:01:39 2024, MaxMem=  4294967296 cpu:               3.0 elap:               0.3
 (Enter /home/appl/Gaussian/g16/l301.exe)
 Standard basis: 6-31G(d) (6D, 7F)
 Ernie: Thresh=  0.10000D-02 Tol=  0.10000D-05 Strict=F.
 There are    98 symmetry adapted cartesian basis functions of A   symmetry.
 There are    98 symmetry adapted basis functions of A   symmetry.
    98 basis functions,   184 primitive gaussians,    98 cartesian basis functions
    21 alpha electrons       21 beta electrons
       nuclear repulsion energy       179.4879091759 Hartrees.
 IExCor=    0 DFT=F Ex=HF Corr=None ExCW=0 ScaHFX=  1.000000
 ScaDFX=  1.000000  1.000000  1.000000  1.000000 ScalE2=  1.000000  1.000000
 IRadAn=      5 IRanWt=     -1 IRanGd=            0 ICorTp=0 IEmpDi=  4
 NAtoms=   10 NActive=   10 NUniq=   10 SFac= 1.00D+00 NAtFMM=   60 NAOKFM=F Big=F
 Integral buffers will be    131072 words long.
 Raffenetti 1 integral format.
 Two-electron integral symmetry is turned on.
 Leave Link  301 at Sat Sep 14 21:01:39 2024, MaxMem=  4294967296 cpu:               3.1 elap:               0.3
 (Enter /home/appl/Gaussian/g16/l302.exe)
 NPDir=0 NMtPBC=     1 NCelOv=     1 NCel=       1 NClECP=     1 NCelD=      1
         NCelK=      1 NCelE2=     1 NClLst=     1 CellRange=     0.0.
 One-electron integrals computed using PRISM.
 One-electron integral symmetry used in STVInt
 NBasis=    98 RedAO= T EigKep=  1.04D-03  NBF=    98
 NBsUse=    98 1.00D-06 EigRej= -1.00D+00 NBFU=    98
 Leave Link  302 at Sat Sep 14 21:01:43 2024, MaxMem=  4294967296 cpu:              39.7 elap:               3.8
 (Enter /home/appl/Gaussian/g16/l303.exe)
 DipDrv:  MaxL=1.
 Leave Link  303 at Sat Sep 14 21:01:44 2024, MaxMem=  4294967296 cpu:               6.1 elap:               0.7
 (Enter /home/appl/Gaussian/g16/l401.exe)
 ExpMin= 1.61D-01 ExpMax= 4.17D+03 ExpMxC= 6.27D+02 IAcc=3 IRadAn=         5 AccDes= 0.00D+00
 Harris functional with IExCor=  205 and IRadAn=       5 diagonalized for initial guess.
 HarFok:  IExCor=  205 AccDes= 0.00D+00 IRadAn=         5 IDoV= 1 UseB2=F ITyADJ=14
 ICtDFT=  3500011 ScaDFX=  1.000000  1.000000  1.000000  1.000000
 FoFCou: FMM=F IPFlag=           0 FMFlag=      100000 FMFlg1=           0
         NFxFlg=           0 DoJE=T BraDBF=F KetDBF=T FulRan=T
         wScrn=  0.000000 ICntrl=       500 IOpCl=  0 I1Cent=   200000004 NGrid=           0
         NMat0=    1 NMatS0=      1 NMatT0=    0 NMatD0=    1 NMtDS0=    0 NMtDT0=    0
 Petite list used in FoFCou.
 Harris En= -262.912869507308    
 JPrj=0 DoOrth=F DoCkMO=F.
 Leave Link  401 at Sat Sep 14 21:01:48 2024, MaxMem=  4294967296 cpu:              35.5 elap:               3.7
 (Enter /home/appl/Gaussian/g16/l502.exe)
 Keep R1 ints in memory in canonical form, NReq=18468801.
 FoFCou: FMM=F IPFlag=           0 FMFlag=           0 FMFlg1=           0
         NFxFlg=           0 DoJE=F BraDBF=F KetDBF=F FulRan=T
         wScrn=  0.000000 ICntrl=       600 IOpCl=  0 I1Cent=           0 NGrid=           0
         NMat0=    1 NMatS0=   4851 NMatT0=    0 NMatD0=    1 NMtDS0=    0 NMtDT0=    0
 Symmetry not used in FoFCou.
 Two-electron integral symmetry not used.
 Closed shell SCF:
 Using DIIS extrapolation, IDIIS=  1040.
 NGot=  4294967296 LenX=  4283175002 LenY=  4283164957
 Requested convergence on RMS density matrix=1.00D-08 within 128 cycles.
 Requested convergence on MAX density matrix=1.00D-06.
 Requested convergence on             energy=1.00D-06.
 No special actions if energy rises.

 Cycle   1  Pass 1  IDiag  1:
 E= -262.492604660320    
 DIIS: error= 5.29D-02 at cycle   1 NSaved=   1.
 NSaved= 1 IEnMin= 1 EnMin= -262.492604660320     IErMin= 1 ErrMin= 5.29D-02
 ErrMax= 5.29D-02  0.00D+00 EMaxC= 1.00D-01 BMatC= 3.53D-01 BMatP= 3.53D-01
 IDIUse=3 WtCom= 4.71D-01 WtEn= 5.29D-01
 Coeff-Com:  0.100D+01
 Coeff-En:   0.100D+01
 Coeff:      0.100D+01
 Gap=     0.657 Goal=   None    Shift=    0.000
 GapD=    0.657 DampG=2.000 DampE=0.500 DampFc=1.0000 IDamp=-1.
 RMSDP=6.29D-03 MaxDP=1.36D-01              OVMax= 1.12D-01

 Cycle   2  Pass 1  IDiag  1:
 E= -262.659565378687     Delta-E=       -0.166960718367 Rises=F Damp=F
 DIIS: error= 1.88D-02 at cycle   2 NSaved=   2.
 NSaved= 2 IEnMin= 2 EnMin= -262.659565378687     IErMin= 2 ErrMin= 1.88D-02
 ErrMax= 1.88D-02  0.00D+00 EMaxC= 1.00D-01 BMatC= 3.78D-02 BMatP= 3.53D-01
 IDIUse=3 WtCom= 8.12D-01 WtEn= 1.88D-01
 Coeff-Com:  0.149D+00 0.851D+00
 Coeff-En:   0.000D+00 0.100D+01
 Coeff:      0.121D+00 0.879D+00
 Gap=     0.660 Goal=   None    Shift=    0.000
 RMSDP=3.04D-03 MaxDP=5.38D-02 DE=-1.67D-01 OVMax= 5.38D-02

 Cycle   3  Pass 1  IDiag  1:
 E= -262.679578110764     Delta-E=       -0.020012732078 Rises=F Damp=F
 DIIS: error= 1.11D-02 at cycle   3 NSaved=   3.
 NSaved= 3 IEnMin= 3 EnMin= -262.679578110764     IErMin= 3 ErrMin= 1.11D-02
 ErrMax= 1.11D-02  0.00D+00 EMaxC= 1.00D-01 BMatC= 1.06D-02 BMatP= 3.78D-02
 IDIUse=3 WtCom= 8.89D-01 WtEn= 1.11D-01
 Coeff-Com: -0.142D-01 0.328D+00 0.686D+00
 Coeff-En:   0.000D+00 0.122D+00 0.878D+00
 Coeff:     -0.126D-01 0.305D+00 0.708D+00
 Gap=     0.635 Goal=   None    Shift=    0.000
 RMSDP=1.00D-03 MaxDP=1.75D-02 DE=-2.00D-02 OVMax= 2.83D-02

 Cycle   4  Pass 1  IDiag  1:
 E= -262.687965626718     Delta-E=       -0.008387515954 Rises=F Damp=F
 DIIS: error= 2.46D-03 at cycle   4 NSaved=   4.
 NSaved= 4 IEnMin= 4 EnMin= -262.687965626718     IErMin= 4 ErrMin= 2.46D-03
 ErrMax= 2.46D-03  0.00D+00 EMaxC= 1.00D-01 BMatC= 7.24D-04 BMatP= 1.06D-02
 IDIUse=3 WtCom= 9.75D-01 WtEn= 2.46D-02
 Coeff-Com: -0.103D-01 0.417D-01 0.250D+00 0.718D+00
 Coeff-En:   0.000D+00 0.000D+00 0.000D+00 0.100D+01
 Coeff:     -0.100D-01 0.407D-01 0.244D+00 0.725D+00
 Gap=     0.638 Goal=   None    Shift=    0.000
 RMSDP=3.22D-04 MaxDP=5.32D-03 DE=-8.39D-03 OVMax= 5.47D-03

 Cycle   5  Pass 1  IDiag  1:
 E= -262.688616416211     Delta-E=       -0.000650789493 Rises=F Damp=F
 DIIS: error= 4.60D-04 at cycle   5 NSaved=   5.
 NSaved= 5 IEnMin= 5 EnMin= -262.688616416211     IErMin= 5 ErrMin= 4.60D-04
 ErrMax= 4.60D-04  0.00D+00 EMaxC= 1.00D-01 BMatC= 1.14D-05 BMatP= 7.24D-04
 IDIUse=3 WtCom= 9.95D-01 WtEn= 4.60D-03
 Coeff-Com:  0.164D-02-0.225D-01-0.544D-01-0.446D-01 0.112D+01
 Coeff-En:   0.000D+00 0.000D+00 0.000D+00 0.000D+00 0.100D+01
 Coeff:      0.163D-02-0.224D-01-0.542D-01-0.443D-01 0.112D+01
 Gap=     0.639 Goal=   None    Shift=    0.000
 RMSDP=1.09D-04 MaxDP=1.68D-03 DE=-6.51D-04 OVMax= 1.53D-03

 Cycle   6  Pass 1  IDiag  1:
 E= -262.688638321513     Delta-E=       -0.000021905302 Rises=F Damp=F
 DIIS: error= 1.01D-04 at cycle   6 NSaved=   6.
 NSaved= 6 IEnMin= 6 EnMin= -262.688638321513     IErMin= 6 ErrMin= 1.01D-04
 ErrMax= 1.01D-04  0.00D+00 EMaxC= 1.00D-01 BMatC= 1.01D-06 BMatP= 1.14D-05
 IDIUse=3 WtCom= 9.99D-01 WtEn= 1.01D-03
 Coeff-Com:  0.985D-03-0.726D-02-0.260D-01-0.664D-01 0.153D+00 0.945D+00
 Coeff-En:   0.000D+00 0.000D+00 0.000D+00 0.000D+00 0.000D+00 0.100D+01
 Coeff:      0.984D-03-0.725D-02-0.260D-01-0.664D-01 0.153D+00 0.945D+00
 Gap=     0.639 Goal=   None    Shift=    0.000
 RMSDP=3.07D-05 MaxDP=5.47D-04 DE=-2.19D-05 OVMax= 3.30D-04

 Cycle   7  Pass 1  IDiag  1:
 E= -262.688639847923     Delta-E=       -0.000001526410 Rises=F Damp=F
 DIIS: error= 2.45D-05 at cycle   7 NSaved=   7.
 NSaved= 7 IEnMin= 7 EnMin= -262.688639847923     IErMin= 7 ErrMin= 2.45D-05
 ErrMax= 2.45D-05  0.00D+00 EMaxC= 1.00D-01 BMatC= 4.04D-08 BMatP= 1.01D-06
 IDIUse=1 WtCom= 1.00D+00 WtEn= 0.00D+00
 Coeff-Com: -0.229D-03 0.206D-02 0.773D-02 0.121D-01-0.703D-01-0.165D+00
 Coeff-Com:  0.121D+01
 Coeff:     -0.229D-03 0.206D-02 0.773D-02 0.121D-01-0.703D-01-0.165D+00
 Coeff:      0.121D+01
 Gap=     0.639 Goal=   None    Shift=    0.000
 RMSDP=4.63D-06 MaxDP=5.50D-05 DE=-1.53D-06 OVMax= 9.04D-05

 Cycle   8  Pass 1  IDiag  1:
 E= -262.688639915207     Delta-E=       -0.000000067284 Rises=F Damp=F
 DIIS: error= 7.04D-06 at cycle   8 NSaved=   8.
 NSaved= 8 IEnMin= 8 EnMin= -262.688639915207     IErMin= 8 ErrMin= 7.04D-06
 ErrMax= 7.04D-06  0.00D+00 EMaxC= 1.00D-01 BMatC= 2.26D-09 BMatP= 4.04D-08
 IDIUse=1 WtCom= 1.00D+00 WtEn= 0.00D+00
 Coeff-Com: -0.328D-05-0.491D-04-0.848D-04 0.466D-03 0.643D-02-0.813D-02
 Coeff-Com: -0.263D+00 0.126D+01
 Coeff:     -0.328D-05-0.491D-04-0.848D-04 0.466D-03 0.643D-02-0.813D-02
 Coeff:     -0.263D+00 0.126D+01
 Gap=     0.639 Goal=   None    Shift=    0.000
 RMSDP=1.33D-06 MaxDP=2.03D-05 DE=-6.73D-08 OVMax= 3.21D-05

 Cycle   9  Pass 1  IDiag  1:
 E= -262.688639922277     Delta-E=       -0.000000007070 Rises=F Damp=F
 DIIS: error= 2.62D-06 at cycle   9 NSaved=   9.
 NSaved= 9 IEnMin= 9 EnMin= -262.688639922277     IErMin= 9 ErrMin= 2.62D-06
 ErrMax= 2.62D-06  0.00D+00 EMaxC= 1.00D-01 BMatC= 2.92D-10 BMatP= 2.26D-09
 IDIUse=1 WtCom= 1.00D+00 WtEn= 0.00D+00
 Coeff-Com:  0.175D-04-0.137D-03-0.542D-03-0.117D-02 0.332D-02 0.151D-01
 Coeff-Com: -0.912D-02-0.432D+00 0.142D+01
 Coeff:      0.175D-04-0.137D-03-0.542D-03-0.117D-02 0.332D-02 0.151D-01
 Coeff:     -0.912D-02-0.432D+00 0.142D+01
 Gap=     0.639 Goal=   None    Shift=    0.000
 RMSDP=5.46D-07 MaxDP=7.80D-06 DE=-7.07D-09 OVMax= 1.88D-05

 Cycle  10  Pass 1  IDiag  1:
 E= -262.688639923883     Delta-E=       -0.000000001606 Rises=F Damp=F
 DIIS: error= 1.19D-06 at cycle  10 NSaved=  10.
 NSaved=10 IEnMin=10 EnMin= -262.688639923883     IErMin=10 ErrMin= 1.19D-06
 ErrMax= 1.19D-06  0.00D+00 EMaxC= 1.00D-01 BMatC= 6.12D-11 BMatP= 2.92D-10
 IDIUse=1 WtCom= 1.00D+00 WtEn= 0.00D+00
 Coeff-Com: -0.119D-04 0.107D-03 0.386D-03 0.744D-03-0.341D-02-0.982D-02
 Coeff-Com:  0.581D-01 0.622D-01-0.960D+00 0.185D+01
 Coeff:     -0.119D-04 0.107D-03 0.386D-03 0.744D-03-0.341D-02-0.982D-02
 Coeff:      0.581D-01 0.622D-01-0.960D+00 0.185D+01
 Gap=     0.639 Goal=   None    Shift=    0.000
 RMSDP=2.72D-07 MaxDP=6.05D-06 DE=-1.61D-09 OVMax= 1.22D-05

 Cycle  11  Pass 1  IDiag  1:
 E= -262.688639924319     Delta-E=       -0.000000000436 Rises=F Damp=F
 DIIS: error= 2.48D-07 at cycle  11 NSaved=  11.
 NSaved=11 IEnMin=11 EnMin= -262.688639924319     IErMin=11 ErrMin= 2.48D-07
 ErrMax= 2.48D-07  0.00D+00 EMaxC= 1.00D-01 BMatC= 4.87D-12 BMatP= 6.12D-11
 IDIUse=1 WtCom= 1.00D+00 WtEn= 0.00D+00
 Coeff-Com:  0.831D-06-0.904D-05-0.335D-04-0.147D-04 0.449D-03 0.557D-03
 Coeff-Com: -0.145D-01 0.492D-01 0.442D-01-0.485D+00 0.141D+01
 Coeff:      0.831D-06-0.904D-05-0.335D-04-0.147D-04 0.449D-03 0.557D-03
 Coeff:     -0.145D-01 0.492D-01 0.442D-01-0.485D+00 0.141D+01
 Gap=     0.639 Goal=   None    Shift=    0.000
 RMSDP=9.00D-08 MaxDP=1.72D-06 DE=-4.36D-10 OVMax= 3.29D-06

 Cycle  12  Pass 1  IDiag  1:
 E= -262.688639924345     Delta-E=       -0.000000000026 Rises=F Damp=F
 DIIS: error= 3.53D-08 at cycle  12 NSaved=  12.
 NSaved=12 IEnMin=12 EnMin= -262.688639924345     IErMin=12 ErrMin= 3.53D-08
 ErrMax= 3.53D-08  0.00D+00 EMaxC= 1.00D-01 BMatC= 9.71D-14 BMatP= 4.87D-12
 IDIUse=1 WtCom= 1.00D+00 WtEn= 0.00D+00
 Coeff-Com:  0.385D-06-0.339D-05-0.118D-04-0.253D-04 0.841D-04 0.332D-03
 Coeff-Com: -0.139D-02-0.348D-02 0.257D-01-0.288D-01-0.955D-01 0.110D+01
 Coeff:      0.385D-06-0.339D-05-0.118D-04-0.253D-04 0.841D-04 0.332D-03
 Coeff:     -0.139D-02-0.348D-02 0.257D-01-0.288D-01-0.955D-01 0.110D+01
 Gap=     0.639 Goal=   None    Shift=    0.000
 RMSDP=1.15D-08 MaxDP=2.54D-07 DE=-2.60D-11 OVMax= 2.61D-07

 Cycle  13  Pass 1  IDiag  1:
 E= -262.688639924345     Delta-E=       -0.000000000000 Rises=F Damp=F
 DIIS: error= 1.63D-08 at cycle  13 NSaved=  13.
 NSaved=13 IEnMin=13 EnMin= -262.688639924345     IErMin=13 ErrMin= 1.63D-08
 ErrMax= 1.63D-08  0.00D+00 EMaxC= 1.00D-01 BMatC= 3.29D-14 BMatP= 9.71D-14
 IDIUse=1 WtCom= 1.00D+00 WtEn= 0.00D+00
 Coeff-Com:  0.100D-06-0.780D-06-0.240D-05-0.940D-05 0.111D-05 0.972D-04
 Coeff-Com:  0.496D-03-0.493D-02 0.635D-02 0.257D-01-0.145D+00 0.460D+00
 Coeff-Com:  0.657D+00
 Coeff:      0.100D-06-0.780D-06-0.240D-05-0.940D-05 0.111D-05 0.972D-04
 Coeff:      0.496D-03-0.493D-02 0.635D-02 0.257D-01-0.145D+00 0.460D+00
 Coeff:      0.657D+00
 Gap=     0.639 Goal=   None    Shift=    0.000
 RMSDP=2.18D-09 MaxDP=5.18D-08 DE=-1.14D-13 OVMax= 4.92D-08

 SCF Done:  E(RHF) =  -262.688639924     A.U. after   13 cycles
            NFock= 13  Conv=0.22D-08     -V/T= 2.0022
 KE= 2.621216024374D+02 PE=-9.715638926255D+02 EE= 2.672657410879D+02
 Leave Link  502 at Sat Sep 14 21:02:05 2024, MaxMem=  4294967296 cpu:             171.0 elap:              17.3
 (Enter /home/appl/Gaussian/g16/l601.exe)
 Copying SCF densities to generalized density rwf, IOpCl= 0 IROHF=0.
 SCF density gives NOpUse=  1 NOpAll=  1.

 **********************************************************************

            Population analysis using the SCF Density.

 **********************************************************************

 Orbital symmetries:
 BldTbl:  Degeneracy threshold= 1.00D-02
       Occupied  (A) (A) (A) (A) (A) (A) (A) (A) (A) (A) (A) (A)
                 (A) (A) (A) (A) (A) (A) (A) (A) (A)
       Virtual   (A) (A) (A) (A) (A) (A) (A) (A) (A) (A) (A) (A)
                 (A) (A) (A) (A) (A) (A) (A) (A) (A) (A) (A) (A)
                 (A) (A) (A) (A) (A) (A) (A) (A) (A) (A) (A) (A)
                 (A) (A) (A) (A) (A) (A) (A) (A) (A) (A) (A) (A)
                 (A) (A) (A) (A) (A) (A) (A) (A) (A) (A) (A) (A)
                 (A) (A) (A) (A) (A) (A) (A) (A) (A) (A) (A) (A)
                 (A) (A) (A) (A) (A)
 The electronic state is 1-A.
 Alpha  occ. eigenvalues --  -15.59690 -15.59689 -11.31892 -11.31836 -11.29737
 Alpha  occ. eigenvalues --  -11.29736  -1.24579  -1.23979  -1.13116  -0.98229
 Alpha  occ. eigenvalues --   -0.75393  -0.70494  -0.69120  -0.62196  -0.59994
 Alpha  occ. eigenvalues --   -0.57449  -0.56453  -0.49282  -0.47938  -0.47724
 Alpha  occ. eigenvalues --   -0.47014
 Alpha virt. eigenvalues --    0.16869   0.16891   0.17105   0.20748   0.24146
 Alpha virt. eigenvalues --    0.24521   0.26655   0.34487   0.34814   0.35626
 Alpha virt. eigenvalues --    0.36476   0.49943   0.53270   0.71051   0.71227
 Alpha virt. eigenvalues --    0.74524   0.74932   0.77510   0.80466   0.84983
 Alpha virt. eigenvalues --    0.85579   0.86544   0.88666   0.92917   0.99025
 Alpha virt. eigenvalues --    1.02923   1.06341   1.07477   1.07746   1.10002
 Alpha virt. eigenvalues --    1.10082   1.13870   1.14495   1.20365   1.24956
 Alpha virt. eigenvalues --    1.32333   1.39987   1.58067   1.59920   1.61350
 Alpha virt. eigenvalues --    1.67534   1.75740   1.76033   1.77305   1.80231
 Alpha virt. eigenvalues --    1.81427   1.90208   1.98412   2.03121   2.14594
 Alpha virt. eigenvalues --    2.15347   2.16844   2.23242   2.26083   2.26121
 Alpha virt. eigenvalues --    2.28429   2.29899   2.32254   2.52699   2.52767
 Alpha virt. eigenvalues --    2.54798   2.64212   2.76257   3.06761   3.08861
 Alpha virt. eigenvalues --    3.10787   3.12580   3.16029   3.21204   3.58257
 Alpha virt. eigenvalues --    3.67814   4.43425   4.47187   4.51312   4.62605
 Alpha virt. eigenvalues --    4.93671   5.14932
          Condensed to atoms (all electrons):
               1          2          3          4          5          6
     1  N    6.561341   0.949334  -0.063795  -0.000699  -0.000084  -0.000000
     2  C    0.949334   4.599692   0.266986  -0.049767   0.004468  -0.000084
     3  C   -0.063795   0.266986   5.167528   0.320174  -0.049754  -0.000698
     4  C   -0.000699  -0.049767   0.320174   5.167537   0.266990  -0.063793
     5  C   -0.000084   0.004468  -0.049754   0.266990   4.599690   0.949329
     6  N   -0.000000  -0.000084  -0.000698  -0.063793   0.949329   6.561352
     7  H    0.000206  -0.002525  -0.032905   0.396760  -0.038033  -0.000832
     8  H    0.000206  -0.002526  -0.032903   0.396759  -0.038032  -0.000833
     9  H   -0.000832  -0.038032   0.396761  -0.032906  -0.002525   0.000206
    10  H   -0.000832  -0.038027   0.396758  -0.032904  -0.002526   0.000206
               7          8          9         10
     1  N    0.000206   0.000206  -0.000832  -0.000832
     2  C   -0.002525  -0.002526  -0.038032  -0.038027
     3  C   -0.032905  -0.032903   0.396761   0.396758
     4  C    0.396760   0.396759  -0.032906  -0.032904
     5  C   -0.038033  -0.038032  -0.002525  -0.002526
     6  N   -0.000832  -0.000833   0.000206   0.000206
     7  H    0.443207  -0.018590  -0.001311   0.002765
     8  H   -0.018590   0.443208   0.002765  -0.001312
     9  H   -0.001311   0.002765   0.443206  -0.018591
    10  H    0.002765  -0.001312  -0.018591   0.443204
 Mulliken charges:
               1
     1  N   -0.444844
     2  C    0.310482
     3  C   -0.368150
     4  C   -0.368149
     5  C    0.310476
     6  N   -0.444852
     7  H    0.251259
     8  H    0.251259
     9  H    0.251259
    10  H    0.251260
 Sum of Mulliken charges =  -0.00000
 Mulliken charges with hydrogens summed into heavy atoms:
               1
     1  N   -0.444844
     2  C    0.310482
     3  C    0.134368
     4  C    0.134369
     5  C    0.310476
     6  N   -0.444852
 DipInt: DoE/N= T F RetVal/Mat= T F Init=T NMatP=  1 IDeriv=0 Min/MaxMlt=  0  4
 Entering OneElI...
 OneElI was handed  4294940707 working-precision words.
 Multipole integrals L=0 to 4 MinM= 0 MaxM= 0.
 Requested accuracy = 0.1000D-12
 ShPair: Thresh= 1.00D-13 NBox=     0 BxSize= 0.00D+00 RnKept= 1.12D+01
         NSMCal=                  528 NSMKep=                 504
 PrmmSu-InSpLW:  IPartL=    0 NPrtUS=    1 NPrtUL=    1 DoSpLW=F IThBeg=    0 IThEnd=    0 NThAct=    1.
 PrSmSu:  IncTry=   512 NBBP=            504 NTPThr=   100 NPartT=    1 Incr=           5 LDynOK=F GPUOK=F.
 PrsmSu:  NPrtUS=   1 ThrOK=F IAlg=2 LenDen=           0 ISkipM=0 DoSpLW=F IThBeg=    0 IThEnd=    0.
 Prism:   IPart=     0 DynPar=F LinDyn=F Incr=           5.
 PRISM was handed  4294886089 working-precision words and   504 shell-pairs
 IPart=  0 NShTot=         504 NBatch=          37 AvBLen=        13.6
 PrsmSu-ThDecC:  IPartSL=    0    0 NPrtUSL=    1    1 IThBeg=    0 IThEnd=    0 CPU=   -1 GPU=   -1 NThAct=    1.
 PrSmSu:  NxtVal=              6.
 Electronic moments (au):
        -42.00000000          0.00009263          0.00019576          0.00010676
       -646.81092046        -64.37536144        -35.65925346          3.04739715
          0.00000200          0.00000136          0.09615249         -0.01312387
         -0.00415027         -0.01858102          0.07017867          0.04433676
         -0.00036159         -0.00122380         -0.00230980         -0.00472326
     -18815.41510053       -351.81175306       -145.39448309        873.86143431
          0.00595520        -35.35487730         -0.00074867          0.00047948
          0.00103017       -536.35970068       -416.24595142       -106.84976582
         -0.00127237          0.00058466        -12.26434245
 Electronic spatial extent (au):  <R**2>=            746.8455
 DipInt: DoE/N= F T RetVal/Mat= T F Init=T NMatP=  1 IDeriv=0 Min/MaxMlt=  0  4
 Nuclear    moments (au):
         42.00000000         -0.00000000         -0.00000000         -0.00000000
        600.36796109         40.17582539         11.07445375         -0.00000000
          0.00000000          0.00000000         -0.08960825          0.01422814
          0.00518594          0.01799580         -0.06545129         -0.04194209
          0.00054831          0.00143073          0.00236448          0.00469877
      15639.11224191        135.32817302         30.66088123       -788.61179080
         -0.00502018         41.68318385          0.00107406         -0.00087737
         -0.00127139        101.18663107          3.82875019         59.34807667
          0.00110392         -0.00082175         15.07410845
 Total      moments (au):
         -0.00000000          0.00009263          0.00019576          0.00010676
        -46.44295937        -24.19953606        -24.58479971          3.04739715
          0.00000200          0.00000136          0.00654424          0.00110428
          0.00103567         -0.00058522          0.00472738          0.00239467
          0.00018673          0.00020693          0.00005467         -0.00002449
      -3176.30285862       -216.48358004       -114.73360186         85.24964351
          0.00093502          6.32830655          0.00032538         -0.00039790
         -0.00024121       -435.17306961       -412.41720122        -47.50168915
         -0.00016845         -0.00023709          2.80976600
 Traceless Quadrup. (au):
        -14.70052766          7.54289566          7.15763200          3.04739715
          0.00000200          0.00000136
 Charge=             -0.0000 electrons
 Dipole moment (field-independent basis, Debye):
    X=              0.0002    Y=              0.0005    Z=              0.0003  Tot=              0.0006
 Quadrupole moment (field-independent basis, Debye-Ang):
   XX=            -62.4674   YY=            -32.5492   ZZ=            -33.0674
   XY=              4.0989   XZ=              0.0000   YZ=              0.0000
 Traceless Quadrupole moment (field-independent basis, Debye-Ang):
   XX=            -19.7727   YY=             10.1455   ZZ=              9.6273
   XY=              4.0989   XZ=              0.0000   YZ=              0.0000
 Octapole moment (field-independent basis, Debye-Ang**2):
  XXX=              0.0047  YYY=              0.0008  ZZZ=              0.0007  XYY=             -0.0004
  XXY=              0.0034  XXZ=              0.0017  XZZ=              0.0001  YZZ=              0.0001
  YYZ=              0.0000  XYZ=             -0.0000
 Hexadecapole moment (field-independent basis, Debye-Ang**3):
 XXXX=          -1196.3480 YYYY=            -81.5381 ZZZZ=            -43.2142 XXXY=             32.1091
 XXXZ=              0.0004 YYYX=              2.3835 YYYZ=              0.0001 ZZZX=             -0.0001
 ZZZY=             -0.0001 XXYY=           -163.9070 XXZZ=           -155.3361 YYZZ=            -17.8914
 XXYZ=             -0.0001 YYXZ=             -0.0001 ZZXY=              1.0583
 N-N= 1.794879091759D+02 E-N=-9.715638925899D+02  KE= 2.621216024374D+02
 Entering OneElI...
 OneElI was handed  4294945200 working-precision words.
 Calculate electrostatic properties
    NBasis =    98  MinDer = 0  MaxDer = 0
    NGrid  =    10  NMatD  =   1
 Requested accuracy = 0.1000D-12
 ShPair: Thresh= 1.00D-13 NBox=     0 BxSize= 0.00D+00 RnKept= 1.12D+01
         NSMCal=                  528 NSMKep=                 490
 PrmmSu-InSpLW:  IPartL=    0 NPrtUS=   32 NPrtUL=    1 DoSpLW=F IThBeg=    0 IThEnd=   31 NThAct=   32.
 PrSmSu:  IncTry=   512 NBBP=           4900 NTPThr=   100 NPartT=   32 Incr=           1 LDynOK=F GPUOK=F.
 PrsmSu:  NPrtUS=  32 ThrOK=T IAlg=2 LenDen=           0 ISkipM=0 DoSpLW=F IThBeg=    0 IThEnd=   31.
 Prism:   IPart=     0 DynPar=F LinDyn=F Incr=           1.
 PRISM was handed   134196166 working-precision words and   490 shell-pairs
 PRISM was handed   134196166 working-precision words and   490 shell-pairs
 PRISM was handed   134196166 working-precision words and   490 shell-pairs
 PRISM was handed   134196166 working-precision words and   490 shell-pairs
 PRISM was handed   134196166 working-precision words and   490 shell-pairs
 PRISM was handed   134196166 working-precision words and   490 shell-pairs
 PRISM was handed   134196166 working-precision words and   490 shell-pairs
 PRISM was handed   134196166 working-precision words and   490 shell-pairs
 PRISM was handed   134196166 working-precision words and   490 shell-pairs
 PRISM was handed   134196166 working-precision words and   490 shell-pairs
 PRISM was handed   134196166 working-precision words and   490 shell-pairs
 PRISM was handed   134196166 working-precision words and   490 shell-pairs
 PRISM was handed   134196166 working-precision words and   490 shell-pairs
 PRISM was handed   134196166 working-precision words and   490 shell-pairs
 PRISM was handed   134196166 working-precision words and   490 shell-pairs
 PRISM was handed   134196166 working-precision words and   490 shell-pairs
 PRISM was handed   134196166 working-precision words and   490 shell-pairs
 PRISM was handed   134196166 working-precision words and   490 shell-pairs
 PRISM was handed   134196166 working-precision words and   490 shell-pairs
 PRISM was handed   134196166 working-precision words and   490 shell-pairs
 PRISM was handed   134196166 working-precision words and   490 shell-pairs
 IPart= 30 NShTot=          40 NBatch=           4 AvBLen=        10.0
 PrsmSu-ThDecC:  IPartSL=   30    0 NPrtUSL=   32    1 IThBeg=    0 IThEnd=   31 CPU=   -1 GPU=   -1 NThAct=   32.
 IPart= 26 NShTot=          60 NBatch=           6 AvBLen=        10.0
 PrsmSu-ThDecC:  IPartSL=   26    0 NPrtUSL=   32    1 IThBeg=    0 IThEnd=   31 CPU=   -1 GPU=   -1 NThAct=   31.
 IPart= 21 NShTot=         110 NBatch=          11 AvBLen=        10.0
 PrsmSu-ThDecC:  IPartSL=   21    0 NPrtUSL=   32    1 IThBeg=    0 IThEnd=   31 CPU=   -1 GPU=   -1 NThAct=   30.
 IPart= 28 NShTot=          50 NBatch=           5 AvBLen=        10.0
 PrsmSu-ThDecC:  IPartSL=   28    0 NPrtUSL=   32    1 IThBeg=    0 IThEnd=   31 CPU=   -1 GPU=   -1 NThAct=   29.
 IPart= 27 NShTot=          60 NBatch=           6 AvBLen=        10.0
 PrsmSu-ThDecC:  IPartSL=   27    0 NPrtUSL=   32    1 IThBeg=    0 IThEnd=   31 CPU=   -1 GPU=   -1 NThAct=   28.
 IPart= 23 NShTot=          90 NBatch=           9 AvBLen=        10.0
 IPart= 19 NShTot=         120 NBatch=          12 AvBLen=        10.0
 PrsmSu-ThDecC:  IPartSL=   23    0 NPrtUSL=   32    1 IThBeg=    0 IThEnd=   31 CPU=   -1 GPU=   -1 NThAct=   27.
 PrsmSu-ThDecC:  IPartSL=   19    0 NPrtUSL=   32    1 IThBeg=    0 IThEnd=   31 CPU=   -1 GPU=   -1 NThAct=   26.
 IPart=  9 NShTot=         180 NBatch=          18 AvBLen=        10.0
 PrsmSu-ThDecC:  IPartSL=    9    0 NPrtUSL=   32    1 IThBeg=    0 IThEnd=   31 CPU=   -1 GPU=   -1 NThAct=   25.
 IPart= 20 NShTot=         110 NBatch=          11 AvBLen=        10.0
 PrsmSu-ThDecC:  IPartSL=   20    0 NPrtUSL=   32    1 IThBeg=    0 IThEnd=   31 CPU=   -1 GPU=   -1 NThAct=   24.
 PRISM was handed   134196166 working-precision words and   490 shell-pairs
 PRISM was handed   134196166 working-precision words and   490 shell-pairs
 PRISM was handed   134196166 working-precision words and   490 shell-pairs
 PRISM was handed   134196166 working-precision words and   490 shell-pairs
 PRISM was handed   134196166 working-precision words and   490 shell-pairs
 IPart= 12 NShTot=         140 NBatch=          14 AvBLen=        10.0
 PrsmSu-ThDecC:  IPartSL=   12    0 NPrtUSL=   32    1 IThBeg=    0 IThEnd=   31 CPU=   -1 GPU=   -1 NThAct=   23.
 PRISM was handed   134196166 working-precision words and   490 shell-pairs
 PRISM was handed   134196166 working-precision words and   490 shell-pairs
 PRISM was handed   134196166 working-precision words and   490 shell-pairs
 IPart= 16 NShTot=         130 NBatch=          13 AvBLen=        10.0
 PrsmSu-ThDecC:  IPartSL=   16    0 NPrtUSL=   32    1 IThBeg=    0 IThEnd=   31 CPU=   -1 GPU=   -1 NThAct=   22.
 IPart=  2 NShTot=         340 NBatch=          34 AvBLen=        10.0
 PrsmSu-ThDecC:  IPartSL=    2    0 NPrtUSL=   32    1 IThBeg=    0 IThEnd=   31 CPU=   -1 GPU=   -1 NThAct=   21.
 IPart= 24 NShTot=          80 NBatch=           8 AvBLen=        10.0
 PrsmSu-ThDecC:  IPartSL=   24    0 NPrtUSL=   32    1 IThBeg=    0 IThEnd=   31 CPU=   -1 GPU=   -1 NThAct=   20.
 IPart=  0 NShTot=         390 NBatch=          39 AvBLen=        10.0
 PrsmSu-ThDecC:  IPartSL=    0    0 NPrtUSL=   32    1 IThBeg=    0 IThEnd=   31 CPU=   -1 GPU=   -1 NThAct=   19.
 IPart= 17 NShTot=         130 NBatch=          13 AvBLen=        10.0
 PrsmSu-ThDecC:  IPartSL=   17    0 NPrtUSL=   32    1 IThBeg=    0 IThEnd=   31 CPU=   -1 GPU=   -1 NThAct=   18.
 PRISM was handed   134196166 working-precision words and   490 shell-pairs
 PRISM was handed   134196166 working-precision words and   490 shell-pairs
 IPart= 18 NShTot=         120 NBatch=          12 AvBLen=        10.0
 PrsmSu-ThDecC:  IPartSL=   18    0 NPrtUSL=   32    1 IThBeg=    0 IThEnd=   31 CPU=   -1 GPU=   -1 NThAct=   17.
 IPart= 22 NShTot=         100 NBatch=          10 AvBLen=        10.0
 PrsmSu-ThDecC:  IPartSL=   22    0 NPrtUSL=   32    1 IThBeg=    0 IThEnd=   31 CPU=   -1 GPU=   -1 NThAct=   16.
 PRISM was handed   134196166 working-precision words and   490 shell-pairs
 IPart=  5 NShTot=         240 NBatch=          24 AvBLen=        10.0
 PrsmSu-ThDecC:  IPartSL=    5    0 NPrtUSL=   32    1 IThBeg=    0 IThEnd=   31 CPU=   -1 GPU=   -1 NThAct=   15.
 IPart=  4 NShTot=         250 NBatch=          25 AvBLen=        10.0
 PrsmSu-ThDecC:  IPartSL=    4    0 NPrtUSL=   32    1 IThBeg=    0 IThEnd=   31 CPU=   -1 GPU=   -1 NThAct=   14.
 IPart= 13 NShTot=         140 NBatch=          14 AvBLen=        10.0
 PrsmSu-ThDecC:  IPartSL=   13    0 NPrtUSL=   32    1 IThBeg=    0 IThEnd=   31 CPU=   -1 GPU=   -1 NThAct=   13.
 IPart= 11 NShTot=         140 NBatch=          14 AvBLen=        10.0
 PrsmSu-ThDecC:  IPartSL=   11    0 NPrtUSL=   32    1 IThBeg=    0 IThEnd=   31 CPU=   -1 GPU=   -1 NThAct=   12.
 IPart=  8 NShTot=         180 NBatch=          18 AvBLen=        10.0
 PrsmSu-ThDecC:  IPartSL=    8    0 NPrtUSL=   32    1 IThBeg=    0 IThEnd=   31 CPU=   -1 GPU=   -1 NThAct=   11.
 IPart=  6 NShTot=         200 NBatch=          20 AvBLen=        10.0
 PrsmSu-ThDecC:  IPartSL=    6    0 NPrtUSL=   32    1 IThBeg=    0 IThEnd=   31 CPU=   -1 GPU=   -1 NThAct=   10.
 IPart=  7 NShTot=         200 NBatch=          20 AvBLen=        10.0
 PrsmSu-ThDecC:  IPartSL=    7    0 NPrtUSL=   32    1 IThBeg=    0 IThEnd=   31 CPU=   -1 GPU=   -1 NThAct=    9.
 IPart=  3 NShTot=         330 NBatch=          33 AvBLen=        10.0
 PrsmSu-ThDecC:  IPartSL=    3    0 NPrtUSL=   32    1 IThBeg=    0 IThEnd=   31 CPU=   -1 GPU=   -1 NThAct=    8.
 IPart= 29 NShTot=          50 NBatch=           5 AvBLen=        10.0
 PrsmSu-ThDecC:  IPartSL=   29    0 NPrtUSL=   32    1 IThBeg=    0 IThEnd=   31 CPU=   -1 GPU=   -1 NThAct=    7.
 IPart= 15 NShTot=         140 NBatch=          14 AvBLen=        10.0
 PrsmSu-ThDecC:  IPartSL=   15    0 NPrtUSL=   32    1 IThBeg=    0 IThEnd=   31 CPU=   -1 GPU=   -1 NThAct=    6.
 IPart= 31 NShTot=          40 NBatch=           4 AvBLen=        10.0
 PrsmSu-ThDecC:  IPartSL=   31    0 NPrtUSL=   32    1 IThBeg=    0 IThEnd=   31 CPU=   -1 GPU=   -1 NThAct=    5.
 IPart= 25 NShTot=          80 NBatch=           8 AvBLen=        10.0
 PrsmSu-ThDecC:  IPartSL=   25    0 NPrtUSL=   32    1 IThBeg=    0 IThEnd=   31 CPU=   -1 GPU=   -1 NThAct=    4.
 IPart= 10 NShTot=         140 NBatch=          14 AvBLen=        10.0
 PrsmSu-ThDecC:  IPartSL=   10    0 NPrtUSL=   32    1 IThBeg=    0 IThEnd=   31 CPU=   -1 GPU=   -1 NThAct=    3.
 IPart= 14 NShTot=         140 NBatch=          14 AvBLen=        10.0
 PrsmSu-ThDecC:  IPartSL=   14    0 NPrtUSL=   32    1 IThBeg=    0 IThEnd=   31 CPU=   -1 GPU=   -1 NThAct=    2.
 IPart=  1 NShTot=         380 NBatch=          38 AvBLen=        10.0
 PrsmSu-ThDecC:  IPartSL=    1    0 NPrtUSL=   32    1 IThBeg=    0 IThEnd=   31 CPU=   -1 GPU=   -1 NThAct=    1.
 PrSmSu:  NxtVal=             33.
 --------------------------------------------------------
       Center         ----      EFG at Nuclei      ----
                      3XX-RR        3YY-RR        3ZZ-RR
 --------------------------------------------------------
     1   Atom        0.773024     -0.346141     -0.426883
     2   Atom        0.328113     -0.129735     -0.198378
     3   Atom       -0.185557      0.032564      0.152992
     4   Atom       -0.185582      0.032579      0.153004
     5   Atom        0.328166     -0.129781     -0.198385
     6   Atom        0.773150     -0.346292     -0.426858
     7   Atom        0.125616      0.008443     -0.134060
     8   Atom        0.125632      0.008487     -0.134119
     9   Atom        0.125621      0.008453     -0.134074
    10   Atom        0.125632      0.008477     -0.134109
 --------------------------------------------------------
                        XY            XZ            YZ
 --------------------------------------------------------
     1   Atom       -0.417265     -0.000050      0.000015
     2   Atom       -0.161030     -0.000019      0.000007
     3   Atom        0.020166      0.000015     -0.000002
     4   Atom        0.020173     -0.000023      0.000006
     5   Atom       -0.160955      0.000015     -0.000003
     6   Atom       -0.417089      0.000040     -0.000018
     7   Atom        0.037776      0.056570     -0.202690
     8   Atom        0.037748     -0.056545      0.202683
     9   Atom        0.037773     -0.056565      0.202688
    10   Atom        0.037758      0.056553     -0.202687
 --------------------------------------------------------


 ---------------------------------------------------------------------------------
              Nuclear Quadrupole Coupling Constant in Principal Axis System
 ---------------------------------------------------------------------------------

       Atom             a.u.   MegaHertz   Gauss  10(-4) cm-1        Axes

              Baa    -0.4846     2.327     0.830     0.776  0.3149  0.9491  0.0000
     1 N(14)  Bbb    -0.4269     2.050     0.732     0.684  0.0000 -0.0000  1.0000
              Bcc     0.9115    -4.377    -1.562    -1.460  0.9491 -0.3149 -0.0000
 
              Baa    -0.4846     2.327     0.830     0.776  0.3148  0.9492  0.0001
     6 N(14)  Bbb    -0.4269     2.050     0.732     0.684 -0.0001 -0.0001  1.0000
              Bcc     0.9115    -4.377    -1.562    -1.460  0.9492 -0.3148  0.0000
 

 ---------------------------------------------------------------------------------

 No NMR shielding tensors so no spin-rotation constants.
 Leave Link  601 at Sat Sep 14 21:02:08 2024, MaxMem=  4294967296 cpu:              26.0 elap:               2.5
 (Enter /home/appl/Gaussian/g16/l602.exe)
 FitSet:  NAtFit=    10 NAtPot=    10 NAtFrz=     0 MDM=    14 TotChg=   0.00000
 Merz-Kollman atomic radii used.
 Atom Element Radius
    1     7    1.50
    2     6    1.50
    3     6    1.50
    4     6    1.50
    5     6    1.50
    6     7    1.50
    7     1    1.20
    8     1    1.20
    9     1    1.20
   10     1    1.20
 Generate VDW surfaces: Layer= 4 Dens= 6 Start= 1.400 Inc= 0.200

 **********************************************************************

            Electrostatic Properties Using The SCF Density.

 **********************************************************************

       Atomic Center    1 is at   2.962202 -0.207255 -0.000046
       Atomic Center    2 is at   1.873045  0.159713 -0.000020
       Atomic Center    3 is at   0.481806  0.601515  0.000050
       Atomic Center    4 is at  -0.481737 -0.601368  0.000051
       Atomic Center    5 is at  -1.873047 -0.159695 -0.000036
       Atomic Center    6 is at  -2.962275  0.207072 -0.000040
       Atomic Center    7 is at  -0.311070 -1.224997 -0.880414
       Atomic Center    8 is at  -0.311173 -1.224899  0.880601
       Atomic Center    9 is at   0.311151  1.225121 -0.880433
       Atomic Center   10 is at   0.311201  1.225065  0.880576
      ESP Fit Center   11 is at   2.962202 -0.207255  2.099954
      ESP Fit Center   12 is at   3.371892 -0.207255  2.059603
      ESP Fit Center   13 is at   3.167047  0.147547  2.059603
      ESP Fit Center   14 is at   2.757357  0.147547  2.059603
      ESP Fit Center   15 is at   2.552512 -0.207255  2.059603
      ESP Fit Center   16 is at   2.757357 -0.562057  2.059603
      ESP Fit Center   17 is at   3.167047 -0.562057  2.059603
      ESP Fit Center   18 is at   3.765837 -0.207255  1.940101
      ESP Fit Center   19 is at   3.658171  0.194563  1.940101
      ESP Fit Center   20 is at   3.364020  0.488713  1.940101
      ESP Fit Center   21 is at   2.962202  0.596380  1.940101
      ESP Fit Center   22 is at   2.266234 -0.609073  1.940101
      ESP Fit Center   23 is at   2.560385 -0.903224  1.940101
      ESP Fit Center   24 is at   2.962202 -1.010890  1.940101
      ESP Fit Center   25 is at   3.364020 -0.903224  1.940101
      ESP Fit Center   26 is at   3.658171 -0.609073  1.940101
      ESP Fit Center   27 is at   4.128900 -0.207255  1.746040
      ESP Fit Center   28 is at   4.050115  0.214205  1.746040
      ESP Fit Center   29 is at   3.824402  0.578744  1.746040
      ESP Fit Center   30 is at   3.482244  0.837130  1.746040
      ESP Fit Center   31 is at   3.069851  0.954466  1.746040
      ESP Fit Center   32 is at   2.259110 -1.138300  1.746040
      ESP Fit Center   33 is at   2.642920 -1.329415  1.746040
      ESP Fit Center   34 is at   3.069851 -1.368976  1.746040
      ESP Fit Center   35 is at   3.482244 -1.251640  1.746040
      ESP Fit Center   36 is at   3.824402 -0.993254  1.746040
      ESP Fit Center   37 is at   4.050115 -0.628715  1.746040
      ESP Fit Center   38 is at   4.447126 -0.207255  1.484878
      ESP Fit Center   39 is at   4.386977  0.211096  1.484878
      ESP Fit Center   40 is at   4.211400  0.595556  1.484878
      ESP Fit Center   41 is at   3.934621  0.914976  1.484878
      ESP Fit Center   42 is at   3.579062  1.143480  1.484878
      ESP Fit Center   43 is at   3.173529  1.262555  1.484878
      ESP Fit Center   44 is at   1.989784 -1.329486  1.484878
      ESP Fit Center   45 is at   2.345342 -1.557990  1.484878
      ESP Fit Center   46 is at   2.750875 -1.677065  1.484878
      ESP Fit Center   47 is at   3.173529 -1.677065  1.484878
      ESP Fit Center   48 is at   3.579062 -1.557990  1.484878
      ESP Fit Center   49 is at   3.934621 -1.329486  1.484878
      ESP Fit Center   50 is at   4.211400 -1.010066  1.484878
      ESP Fit Center   51 is at   4.386977 -0.625607  1.484878
      ESP Fit Center   52 is at   4.708288 -0.207255  1.166652
      ESP Fit Center   53 is at   4.657550  0.210611  1.166652
      ESP Fit Center   54 is at   4.508285  0.604192  1.166652
      ESP Fit Center   55 is at   4.269166  0.950614  1.166652
      ESP Fit Center   56 is at   3.954092  1.229746  1.166652
      ESP Fit Center   57 is at   3.581373  1.425364  1.166652
      ESP Fit Center   58 is at   3.172670  1.526100  1.166652
      ESP Fit Center   59 is at   1.970312 -1.644256  1.166652
      ESP Fit Center   60 is at   2.343031 -1.839874  1.166652
      ESP Fit Center   61 is at   2.751735 -1.940610  1.166652
      ESP Fit Center   62 is at   3.172670 -1.940610  1.166652
      ESP Fit Center   63 is at   3.581373 -1.839874  1.166652
      ESP Fit Center   64 is at   3.954092 -1.644256  1.166652
      ESP Fit Center   65 is at   4.269166 -1.365124  1.166652
      ESP Fit Center   66 is at   4.508285 -1.018702  1.166652
      ESP Fit Center   67 is at   4.657550 -0.625121  1.166652
      ESP Fit Center   68 is at   4.902349 -0.207255  0.803589
      ESP Fit Center   69 is at   4.856990  0.209819  0.803589
      ESP Fit Center   70 is at   4.723032  0.607392  0.803589
      ESP Fit Center   71 is at   4.506740  0.966872  0.803589
      ESP Fit Center   72 is at   4.218227  1.271451  0.803589
      ESP Fit Center   73 is at   3.870983  1.506888  0.803589
      ESP Fit Center   74 is at   3.481246  1.662174  0.803589
      ESP Fit Center   75 is at   3.067240  1.730047  0.803589
      ESP Fit Center   76 is at   1.873417 -1.813093  0.803589
      ESP Fit Center   77 is at   2.244080 -2.009606  0.803589
      ESP Fit Center   78 is at   2.648321 -2.121844  0.803589
      ESP Fit Center   79 is at   3.067240 -2.144557  0.803589
      ESP Fit Center   80 is at   3.481246 -2.076684  0.803589
      ESP Fit Center   81 is at   3.870983 -1.921398  0.803589
      ESP Fit Center   82 is at   4.218227 -1.685961  0.803589
      ESP Fit Center   83 is at   4.506740 -1.381382  0.803589
      ESP Fit Center   84 is at   4.723032 -1.021902  0.803589
      ESP Fit Center   85 is at   4.856990 -0.624329  0.803589
      ESP Fit Center   86 is at   5.021851 -0.207255  0.409644
      ESP Fit Center   87 is at   4.979690  0.207349  0.409644
      ESP Fit Center   88 is at   4.854933  0.604980  0.409644
      ESP Fit Center   89 is at   4.652687  0.969357  0.409644
      ESP Fit Center   90 is at   4.381232  1.285564  0.409644
      ESP Fit Center   91 is at   4.051682  1.540654  0.409644
      ESP Fit Center   92 is at   3.677529  1.724185  0.409644
      ESP Fit Center   93 is at   3.274090  1.828643  0.409644
      ESP Fit Center   94 is at   2.055145 -2.056417  0.409644
      ESP Fit Center   95 is at   2.445946 -2.201154  0.409644
      ESP Fit Center   96 is at   2.857883 -2.264261  0.409644
      ESP Fit Center   97 is at   3.274090 -2.243153  0.409644
      ESP Fit Center   98 is at   3.677529 -2.138695  0.409644
      ESP Fit Center   99 is at   4.051682 -1.955164  0.409644
      ESP Fit Center  100 is at   4.381232 -1.700074  0.409644
      ESP Fit Center  101 is at   4.652687 -1.383867  0.409644
      ESP Fit Center  102 is at   4.854933 -1.019490  0.409644
      ESP Fit Center  103 is at   4.979690 -0.621859  0.409644
      ESP Fit Center  104 is at   5.062202 -0.207255 -0.000046
      ESP Fit Center  105 is at   5.021851  0.202435 -0.000046
      ESP Fit Center  106 is at   4.902349  0.596380 -0.000046
      ESP Fit Center  107 is at   4.708288  0.959442 -0.000046
      ESP Fit Center  108 is at   4.447126  1.277669 -0.000046
      ESP Fit Center  109 is at   4.128900  1.538831 -0.000046
      ESP Fit Center  110 is at   3.765837  1.732892 -0.000046
      ESP Fit Center  111 is at   3.371892  1.852394 -0.000046
      ESP Fit Center  112 is at   1.795505 -1.953341 -0.000046
      ESP Fit Center  113 is at   2.158567 -2.147402 -0.000046
      ESP Fit Center  114 is at   2.552512 -2.266904 -0.000046
      ESP Fit Center  115 is at   2.962202 -2.307255 -0.000046
      ESP Fit Center  116 is at   3.371892 -2.266904 -0.000046
      ESP Fit Center  117 is at   3.765837 -2.147402 -0.000046
      ESP Fit Center  118 is at   4.128900 -1.953341 -0.000046
      ESP Fit Center  119 is at   4.447126 -1.692179 -0.000046
      ESP Fit Center  120 is at   4.708288 -1.373953 -0.000046
      ESP Fit Center  121 is at   4.902349 -1.010890 -0.000046
      ESP Fit Center  122 is at   5.021851 -0.616945 -0.000046
      ESP Fit Center  123 is at   5.021851 -0.207255 -0.409736
      ESP Fit Center  124 is at   4.979690  0.207349 -0.409736
      ESP Fit Center  125 is at   4.854933  0.604980 -0.409736
      ESP Fit Center  126 is at   4.652687  0.969357 -0.409736
      ESP Fit Center  127 is at   4.381232  1.285564 -0.409736
      ESP Fit Center  128 is at   4.051682  1.540654 -0.409736
      ESP Fit Center  129 is at   3.677529  1.724185 -0.409736
      ESP Fit Center  130 is at   3.274090  1.828643 -0.409736
      ESP Fit Center  131 is at   2.055145 -2.056417 -0.409736
      ESP Fit Center  132 is at   2.445946 -2.201154 -0.409736
      ESP Fit Center  133 is at   2.857883 -2.264261 -0.409736
      ESP Fit Center  134 is at   3.274090 -2.243153 -0.409736
      ESP Fit Center  135 is at   3.677529 -2.138695 -0.409736
      ESP Fit Center  136 is at   4.051682 -1.955164 -0.409736
      ESP Fit Center  137 is at   4.381232 -1.700074 -0.409736
      ESP Fit Center  138 is at   4.652687 -1.383867 -0.409736
      ESP Fit Center  139 is at   4.854933 -1.019490 -0.409736
      ESP Fit Center  140 is at   4.979690 -0.621859 -0.409736
      ESP Fit Center  141 is at   4.902349 -0.207255 -0.803681
      ESP Fit Center  142 is at   4.856990  0.209819 -0.803681
      ESP Fit Center  143 is at   4.723032  0.607392 -0.803681
      ESP Fit Center  144 is at   4.506740  0.966872 -0.803681
      ESP Fit Center  145 is at   4.218227  1.271451 -0.803681
      ESP Fit Center  146 is at   3.870983  1.506888 -0.803681
      ESP Fit Center  147 is at   3.481246  1.662174 -0.803681
      ESP Fit Center  148 is at   3.067240  1.730047 -0.803681
      ESP Fit Center  149 is at   1.873417 -1.813093 -0.803681
      ESP Fit Center  150 is at   2.244080 -2.009606 -0.803681
      ESP Fit Center  151 is at   2.648321 -2.121844 -0.803681
      ESP Fit Center  152 is at   3.067240 -2.144557 -0.803681
      ESP Fit Center  153 is at   3.481246 -2.076684 -0.803681
      ESP Fit Center  154 is at   3.870983 -1.921398 -0.803681
      ESP Fit Center  155 is at   4.218227 -1.685961 -0.803681
      ESP Fit Center  156 is at   4.506740 -1.381382 -0.803681
      ESP Fit Center  157 is at   4.723032 -1.021902 -0.803681
      ESP Fit Center  158 is at   4.856990 -0.624329 -0.803681
      ESP Fit Center  159 is at   4.708288 -0.207255 -1.166743
      ESP Fit Center  160 is at   4.657550  0.210611 -1.166743
      ESP Fit Center  161 is at   4.508285  0.604192 -1.166743
      ESP Fit Center  162 is at   4.269166  0.950614 -1.166743
      ESP Fit Center  163 is at   3.954092  1.229746 -1.166743
      ESP Fit Center  164 is at   3.581373  1.425364 -1.166743
      ESP Fit Center  165 is at   3.172670  1.526100 -1.166743
      ESP Fit Center  166 is at   1.970312 -1.644256 -1.166743
      ESP Fit Center  167 is at   2.343031 -1.839874 -1.166743
      ESP Fit Center  168 is at   2.751735 -1.940610 -1.166743
      ESP Fit Center  169 is at   3.172670 -1.940610 -1.166743
      ESP Fit Center  170 is at   3.581373 -1.839874 -1.166743
      ESP Fit Center  171 is at   3.954092 -1.644256 -1.166743
      ESP Fit Center  172 is at   4.269166 -1.365124 -1.166743
      ESP Fit Center  173 is at   4.508285 -1.018702 -1.166743
      ESP Fit Center  174 is at   4.657550 -0.625121 -1.166743
      ESP Fit Center  175 is at   4.447126 -0.207255 -1.484970
      ESP Fit Center  176 is at   4.386977  0.211096 -1.484970
      ESP Fit Center  177 is at   4.211400  0.595556 -1.484970
      ESP Fit Center  178 is at   3.934621  0.914976 -1.484970
      ESP Fit Center  179 is at   3.579062  1.143480 -1.484970
      ESP Fit Center  180 is at   3.173529  1.262555 -1.484970
      ESP Fit Center  181 is at   1.989784 -1.329486 -1.484970
      ESP Fit Center  182 is at   2.345342 -1.557990 -1.484970
      ESP Fit Center  183 is at   2.750875 -1.677065 -1.484970
      ESP Fit Center  184 is at   3.173529 -1.677065 -1.484970
      ESP Fit Center  185 is at   3.579062 -1.557990 -1.484970
      ESP Fit Center  186 is at   3.934621 -1.329486 -1.484970
      ESP Fit Center  187 is at   4.211400 -1.010066 -1.484970
      ESP Fit Center  188 is at   4.386977 -0.625607 -1.484970
      ESP Fit Center  189 is at   4.128900 -0.207255 -1.746132
      ESP Fit Center  190 is at   4.050115  0.214205 -1.746132
      ESP Fit Center  191 is at   3.824402  0.578744 -1.746132
      ESP Fit Center  192 is at   3.482244  0.837130 -1.746132
      ESP Fit Center  193 is at   3.069851  0.954466 -1.746132
      ESP Fit Center  194 is at   2.259110 -1.138300 -1.746132
      ESP Fit Center  195 is at   2.642920 -1.329415 -1.746132
      ESP Fit Center  196 is at   3.069851 -1.368976 -1.746132
      ESP Fit Center  197 is at   3.482244 -1.251640 -1.746132
      ESP Fit Center  198 is at   3.824402 -0.993254 -1.746132
      ESP Fit Center  199 is at   4.050115 -0.628715 -1.746132
      ESP Fit Center  200 is at   3.765837 -0.207255 -1.940193
      ESP Fit Center  201 is at   3.658171  0.194563 -1.940193
      ESP Fit Center  202 is at   3.364020  0.488713 -1.940193
      ESP Fit Center  203 is at   2.962202  0.596380 -1.940193
      ESP Fit Center  204 is at   2.266234 -0.609073 -1.940193
      ESP Fit Center  205 is at   2.560385 -0.903224 -1.940193
      ESP Fit Center  206 is at   2.962202 -1.010890 -1.940193
      ESP Fit Center  207 is at   3.364020 -0.903224 -1.940193
      ESP Fit Center  208 is at   3.658171 -0.609073 -1.940193
      ESP Fit Center  209 is at   3.371892 -0.207255 -2.059695
      ESP Fit Center  210 is at   3.167047  0.147547 -2.059695
      ESP Fit Center  211 is at   2.757357  0.147547 -2.059695
      ESP Fit Center  212 is at   2.552512 -0.207255 -2.059695
      ESP Fit Center  213 is at   2.757357 -0.562057 -2.059695
      ESP Fit Center  214 is at   3.167047 -0.562057 -2.059695
      ESP Fit Center  215 is at   2.962202 -0.207255 -2.100046
      ESP Fit Center  216 is at   1.873045  0.159713  2.099980
      ESP Fit Center  217 is at   2.282735  0.159713  2.059629
      ESP Fit Center  218 is at   2.077890  0.514515  2.059629
      ESP Fit Center  219 is at   1.668201  0.514515  2.059629
      ESP Fit Center  220 is at   1.463356  0.159713  2.059629
      ESP Fit Center  221 is at   1.668201 -0.195088  2.059629
      ESP Fit Center  222 is at   2.077890 -0.195088  2.059629
      ESP Fit Center  223 is at   2.569014  0.561531  1.940127
      ESP Fit Center  224 is at   2.274863  0.855682  1.940127
      ESP Fit Center  225 is at   1.873045  0.963349  1.940127
      ESP Fit Center  226 is at   1.177077 -0.242104  1.940127
      ESP Fit Center  227 is at   1.471228 -0.536255  1.940127
      ESP Fit Center  228 is at   1.873045 -0.643922  1.940127
      ESP Fit Center  229 is at   2.735245  0.945712  1.746066
      ESP Fit Center  230 is at   2.393087  1.204098  1.746066
      ESP Fit Center  231 is at   1.980695  1.321434  1.746066
      ESP Fit Center  232 is at   1.169953 -0.771331  1.746066
      ESP Fit Center  233 is at   1.553764 -0.962446  1.746066
      ESP Fit Center  234 is at   1.980695 -1.002007  1.746066
      ESP Fit Center  235 is at   2.845464  1.281944  1.484904
      ESP Fit Center  236 is at   2.489905  1.510448  1.484904
      ESP Fit Center  237 is at   2.084372  1.629523  1.484904
      ESP Fit Center  238 is at   1.256186 -1.191021  1.484904
      ESP Fit Center  239 is at   1.661719 -1.310097  1.484904
      ESP Fit Center  240 is at   2.864935  1.596714  1.166678
      ESP Fit Center  241 is at   2.492216  1.792332  1.166678
      ESP Fit Center  242 is at   2.083513  1.893069  1.166678
      ESP Fit Center  243 is at   1.662578 -1.573642  1.166678
      ESP Fit Center  244 is at   2.781827  1.873857  0.803615
      ESP Fit Center  245 is at   2.392090  2.029142  0.803615
      ESP Fit Center  246 is at   1.978083  2.097015  0.803615
      ESP Fit Center  247 is at   1.559165 -1.754875  0.803615
      ESP Fit Center  248 is at   2.962526  1.907623  0.409670
      ESP Fit Center  249 is at   2.588372  2.091154  0.409670
      ESP Fit Center  250 is at   2.184934  2.195611  0.409670
      ESP Fit Center  251 is at   1.768726  2.216719  0.409670
      ESP Fit Center  252 is at   1.356789 -1.834186  0.409670
      ESP Fit Center  253 is at   1.768726 -1.897292  0.409670
      ESP Fit Center  254 is at   3.039743  1.905799 -0.000020
      ESP Fit Center  255 is at   2.676681  2.099860 -0.000020
      ESP Fit Center  256 is at   2.282735  2.219362 -0.000020
      ESP Fit Center  257 is at   1.873045  2.259713 -0.000020
      ESP Fit Center  258 is at   1.463356 -1.899936 -0.000020
      ESP Fit Center  259 is at   2.962526  1.907623 -0.409709
      ESP Fit Center  260 is at   2.588372  2.091154 -0.409709
      ESP Fit Center  261 is at   2.184934  2.195611 -0.409709
      ESP Fit Center  262 is at   1.768726  2.216719 -0.409709
      ESP Fit Center  263 is at   1.356789 -1.834186 -0.409709
      ESP Fit Center  264 is at   1.768726 -1.897292 -0.409709
      ESP Fit Center  265 is at   2.781827  1.873857 -0.803655
      ESP Fit Center  266 is at   2.392090  2.029142 -0.803655
      ESP Fit Center  267 is at   1.978083  2.097015 -0.803655
      ESP Fit Center  268 is at   1.559165 -1.754875 -0.803655
      ESP Fit Center  269 is at   2.864935  1.596714 -1.166717
      ESP Fit Center  270 is at   2.492216  1.792332 -1.166717
      ESP Fit Center  271 is at   2.083513  1.893069 -1.166717
      ESP Fit Center  272 is at   1.662578 -1.573642 -1.166717
      ESP Fit Center  273 is at   2.845464  1.281944 -1.484944
      ESP Fit Center  274 is at   2.489905  1.510448 -1.484944
      ESP Fit Center  275 is at   2.084372  1.629523 -1.484944
      ESP Fit Center  276 is at   1.256186 -1.191021 -1.484944
      ESP Fit Center  277 is at   1.661719 -1.310097 -1.484944
      ESP Fit Center  278 is at   2.735245  0.945712 -1.746106
      ESP Fit Center  279 is at   2.393087  1.204098 -1.746106
      ESP Fit Center  280 is at   1.980695  1.321434 -1.746106
      ESP Fit Center  281 is at   1.169953 -0.771331 -1.746106
      ESP Fit Center  282 is at   1.553764 -0.962446 -1.746106
      ESP Fit Center  283 is at   1.980695 -1.002007 -1.746106
      ESP Fit Center  284 is at   2.569014  0.561531 -1.940167
      ESP Fit Center  285 is at   2.274863  0.855682 -1.940167
      ESP Fit Center  286 is at   1.873045  0.963349 -1.940167
      ESP Fit Center  287 is at   1.177077 -0.242104 -1.940167
      ESP Fit Center  288 is at   1.471228 -0.536255 -1.940167
      ESP Fit Center  289 is at   1.873045 -0.643922 -1.940167
      ESP Fit Center  290 is at   2.282735  0.159713 -2.059669
      ESP Fit Center  291 is at   2.077890  0.514515 -2.059669
      ESP Fit Center  292 is at   1.668201  0.514515 -2.059669
      ESP Fit Center  293 is at   1.463356  0.159713 -2.059669
      ESP Fit Center  294 is at   1.668201 -0.195088 -2.059669
      ESP Fit Center  295 is at   2.077890 -0.195088 -2.059669
      ESP Fit Center  296 is at   1.873045  0.159713 -2.100020
      ESP Fit Center  297 is at   0.883624 -0.094454  1.940197
      ESP Fit Center  298 is at   1.571287  2.349424  0.409740
      ESP Fit Center  299 is at   1.648504  2.347601  0.000050
      ESP Fit Center  300 is at   1.285441  2.541662  0.000050
      ESP Fit Center  301 is at   0.891496  2.661164  0.000050
      ESP Fit Center  302 is at   0.481806  2.701515  0.000050
      ESP Fit Center  303 is at   0.072117  2.661164  0.000050
      ESP Fit Center  304 is at  -0.321829  2.541662  0.000050
      ESP Fit Center  305 is at  -0.684891  2.347601  0.000050
      ESP Fit Center  306 is at  -1.003118  2.086439  0.000050
      ESP Fit Center  307 is at   1.571287  2.349424 -0.409640
      ESP Fit Center  308 is at   0.883624 -0.094454 -1.940097
      ESP Fit Center  309 is at  -0.883555  0.094601  1.940198
      ESP Fit Center  310 is at  -1.742461 -2.230088  0.409741
      ESP Fit Center  311 is at  -1.388795 -2.450530  0.409741
      ESP Fit Center  312 is at  -1.648435 -2.347454  0.000051
      ESP Fit Center  313 is at  -1.285373 -2.541515  0.000051
      ESP Fit Center  314 is at  -0.891427 -2.661017  0.000051
      ESP Fit Center  315 is at  -0.481737 -2.701368  0.000051
      ESP Fit Center  316 is at  -0.072048 -2.661017  0.000051
      ESP Fit Center  317 is at   0.321898 -2.541515  0.000051
      ESP Fit Center  318 is at   0.684960 -2.347454  0.000051
      ESP Fit Center  319 is at   1.003187 -2.086292  0.000051
      ESP Fit Center  320 is at  -1.742461 -2.230088 -0.409638
      ESP Fit Center  321 is at  -1.388795 -2.450530 -0.409638
      ESP Fit Center  322 is at  -0.883555  0.094601 -1.940096
      ESP Fit Center  323 is at  -1.873047 -0.159695  2.099964
      ESP Fit Center  324 is at  -1.463357 -0.159695  2.059613
      ESP Fit Center  325 is at  -1.668202  0.195107  2.059613
      ESP Fit Center  326 is at  -2.077892  0.195107  2.059613
      ESP Fit Center  327 is at  -2.282737 -0.159695  2.059613
      ESP Fit Center  328 is at  -2.077892 -0.514496  2.059613
      ESP Fit Center  329 is at  -1.668202 -0.514496  2.059613
      ESP Fit Center  330 is at  -1.177078  0.242123  1.940111
      ESP Fit Center  331 is at  -1.471229  0.536274  1.940111
      ESP Fit Center  332 is at  -1.873047  0.643941  1.940111
      ESP Fit Center  333 is at  -2.569015 -0.561512  1.940111
      ESP Fit Center  334 is at  -2.274865 -0.855663  1.940111
      ESP Fit Center  335 is at  -1.873047 -0.963330  1.940111
      ESP Fit Center  336 is at  -1.010847  0.626304  1.746050
      ESP Fit Center  337 is at  -1.353005  0.884690  1.746050
      ESP Fit Center  338 is at  -1.765398  1.002026  1.746050
      ESP Fit Center  339 is at  -2.576139 -1.090739  1.746050
      ESP Fit Center  340 is at  -2.192329 -1.281854  1.746050
      ESP Fit Center  341 is at  -1.765398 -1.321415  1.746050
      ESP Fit Center  342 is at  -1.256187  1.191040  1.484888
      ESP Fit Center  343 is at  -1.661720  1.310115  1.484888
      ESP Fit Center  344 is at  -2.845466 -1.281926  1.484888
      ESP Fit Center  345 is at  -2.489907 -1.510429  1.484888
      ESP Fit Center  346 is at  -2.084374 -1.629505  1.484888
      ESP Fit Center  347 is at  -1.662580  1.573661  1.166662
      ESP Fit Center  348 is at  -2.864937 -1.596695  1.166662
      ESP Fit Center  349 is at  -2.492218 -1.792314  1.166662
      ESP Fit Center  350 is at  -2.083514 -1.893050  1.166662
      ESP Fit Center  351 is at  -1.354003  1.709734  0.803599
      ESP Fit Center  352 is at  -1.768010  1.777607  0.803599
      ESP Fit Center  353 is at  -2.961832 -1.765533  0.803599
      ESP Fit Center  354 is at  -2.591169 -1.962046  0.803599
      ESP Fit Center  355 is at  -2.186928 -2.074283  0.803599
      ESP Fit Center  356 is at  -1.768010 -2.096996  0.803599
      ESP Fit Center  357 is at  -1.561159  1.876203  0.409654
      ESP Fit Center  358 is at  -2.780104 -2.008857  0.409654
      ESP Fit Center  359 is at  -2.389303 -2.153594  0.409654
      ESP Fit Center  360 is at  -1.977367 -2.216700  0.409654
      ESP Fit Center  361 is at  -1.463357  1.899954 -0.000036
      ESP Fit Center  362 is at  -3.039744 -1.905781 -0.000036
      ESP Fit Center  363 is at  -2.676682 -2.099842 -0.000036
      ESP Fit Center  364 is at  -2.282737 -2.219344 -0.000036
      ESP Fit Center  365 is at  -1.873047 -2.259695 -0.000036
      ESP Fit Center  366 is at  -1.561159  1.876203 -0.409725
      ESP Fit Center  367 is at  -2.780104 -2.008857 -0.409725
      ESP Fit Center  368 is at  -2.389303 -2.153594 -0.409725
      ESP Fit Center  369 is at  -1.977367 -2.216700 -0.409725
      ESP Fit Center  370 is at  -1.354003  1.709734 -0.803671
      ESP Fit Center  371 is at  -1.768010  1.777607 -0.803671
      ESP Fit Center  372 is at  -2.961832 -1.765533 -0.803671
      ESP Fit Center  373 is at  -2.591169 -1.962046 -0.803671
      ESP Fit Center  374 is at  -2.186928 -2.074283 -0.803671
      ESP Fit Center  375 is at  -1.768010 -2.096996 -0.803671
      ESP Fit Center  376 is at  -1.662580  1.573661 -1.166733
      ESP Fit Center  377 is at  -2.864937 -1.596695 -1.166733
      ESP Fit Center  378 is at  -2.492218 -1.792314 -1.166733
      ESP Fit Center  379 is at  -2.083514 -1.893050 -1.166733
      ESP Fit Center  380 is at  -1.256187  1.191040 -1.484960
      ESP Fit Center  381 is at  -1.661720  1.310115 -1.484960
      ESP Fit Center  382 is at  -2.845466 -1.281926 -1.484960
      ESP Fit Center  383 is at  -2.489907 -1.510429 -1.484960
      ESP Fit Center  384 is at  -2.084374 -1.629505 -1.484960
      ESP Fit Center  385 is at  -1.010847  0.626304 -1.746122
      ESP Fit Center  386 is at  -1.353005  0.884690 -1.746122
      ESP Fit Center  387 is at  -1.765398  1.002026 -1.746122
      ESP Fit Center  388 is at  -2.576139 -1.090739 -1.746122
      ESP Fit Center  389 is at  -2.192329 -1.281854 -1.746122
      ESP Fit Center  390 is at  -1.765398 -1.321415 -1.746122
      ESP Fit Center  391 is at  -1.177078  0.242123 -1.940183
      ESP Fit Center  392 is at  -1.471229  0.536274 -1.940183
      ESP Fit Center  393 is at  -1.873047  0.643941 -1.940183
      ESP Fit Center  394 is at  -2.569015 -0.561512 -1.940183
      ESP Fit Center  395 is at  -2.274865 -0.855663 -1.940183
      ESP Fit Center  396 is at  -1.873047 -0.963330 -1.940183
      ESP Fit Center  397 is at  -1.463357 -0.159695 -2.059685
      ESP Fit Center  398 is at  -1.668202  0.195107 -2.059685
      ESP Fit Center  399 is at  -2.077892  0.195107 -2.059685
      ESP Fit Center  400 is at  -2.282737 -0.159695 -2.059685
      ESP Fit Center  401 is at  -2.077892 -0.514496 -2.059685
      ESP Fit Center  402 is at  -1.668202 -0.514496 -2.059685
      ESP Fit Center  403 is at  -1.873047 -0.159695 -2.100036
      ESP Fit Center  404 is at  -2.962275  0.207072  2.099960
      ESP Fit Center  405 is at  -2.552586  0.207072  2.059609
      ESP Fit Center  406 is at  -2.757431  0.561873  2.059609
      ESP Fit Center  407 is at  -3.167120  0.561873  2.059609
      ESP Fit Center  408 is at  -3.371965  0.207072  2.059609
      ESP Fit Center  409 is at  -3.167120 -0.147730  2.059609
      ESP Fit Center  410 is at  -2.757431 -0.147730  2.059609
      ESP Fit Center  411 is at  -2.266307  0.608889  1.940107
      ESP Fit Center  412 is at  -2.560458  0.903040  1.940107
      ESP Fit Center  413 is at  -2.962275  1.010707  1.940107
      ESP Fit Center  414 is at  -3.364093  0.903040  1.940107
      ESP Fit Center  415 is at  -3.658244  0.608889  1.940107
      ESP Fit Center  416 is at  -3.765911  0.207072  1.940107
      ESP Fit Center  417 is at  -3.658244 -0.194746  1.940107
      ESP Fit Center  418 is at  -3.364093 -0.488897  1.940107
      ESP Fit Center  419 is at  -2.962275 -0.596564  1.940107
      ESP Fit Center  420 is at  -2.100076  0.993071  1.746046
      ESP Fit Center  421 is at  -2.442234  1.251456  1.746046
      ESP Fit Center  422 is at  -2.854626  1.368792  1.746046
      ESP Fit Center  423 is at  -3.281557  1.329231  1.746046
      ESP Fit Center  424 is at  -3.665368  1.138116  1.746046
      ESP Fit Center  425 is at  -3.954222  0.821259  1.746046
      ESP Fit Center  426 is at  -4.109108  0.421452  1.746046
      ESP Fit Center  427 is at  -4.109108 -0.007309  1.746046
      ESP Fit Center  428 is at  -3.954222 -0.407116  1.746046
      ESP Fit Center  429 is at  -3.665368 -0.723973  1.746046
      ESP Fit Center  430 is at  -3.281557 -0.915088  1.746046
      ESP Fit Center  431 is at  -2.854626 -0.954649  1.746046
      ESP Fit Center  432 is at  -1.989857  1.329302  1.484884
      ESP Fit Center  433 is at  -2.345416  1.557806  1.484884
      ESP Fit Center  434 is at  -2.750949  1.676881  1.484884
      ESP Fit Center  435 is at  -3.173602  1.676881  1.484884
      ESP Fit Center  436 is at  -3.579135  1.557806  1.484884
      ESP Fit Center  437 is at  -3.934694  1.329302  1.484884
      ESP Fit Center  438 is at  -4.211473  1.009882  1.484884
      ESP Fit Center  439 is at  -4.387050  0.625423  1.484884
      ESP Fit Center  440 is at  -4.447200  0.207072  1.484884
      ESP Fit Center  441 is at  -4.387050 -0.211280  1.484884
      ESP Fit Center  442 is at  -4.211473 -0.595739  1.484884
      ESP Fit Center  443 is at  -3.934694 -0.915159  1.484884
      ESP Fit Center  444 is at  -3.579135 -1.143663  1.484884
      ESP Fit Center  445 is at  -3.173602 -1.262738  1.484884
      ESP Fit Center  446 is at  -1.970385  1.644072  1.166657
      ESP Fit Center  447 is at  -2.343105  1.839691  1.166657
      ESP Fit Center  448 is at  -2.751808  1.940427  1.166657
      ESP Fit Center  449 is at  -3.172743  1.940427  1.166657
      ESP Fit Center  450 is at  -3.581446  1.839691  1.166657
      ESP Fit Center  451 is at  -3.954165  1.644072  1.166657
      ESP Fit Center  452 is at  -4.269240  1.364941  1.166657
      ESP Fit Center  453 is at  -4.508358  1.018518  1.166657
      ESP Fit Center  454 is at  -4.657624  0.624937  1.166657
      ESP Fit Center  455 is at  -4.708362  0.207072  1.166657
      ESP Fit Center  456 is at  -4.657624 -0.210794  1.166657
      ESP Fit Center  457 is at  -4.508358 -0.604375  1.166657
      ESP Fit Center  458 is at  -4.269240 -0.950798  1.166657
      ESP Fit Center  459 is at  -3.954165 -1.229929  1.166657
      ESP Fit Center  460 is at  -3.581446 -1.425547  1.166657
      ESP Fit Center  461 is at  -3.172743 -1.526284  1.166657
      ESP Fit Center  462 is at  -2.053494  1.921215  0.803595
      ESP Fit Center  463 is at  -2.443231  2.076500  0.803595
      ESP Fit Center  464 is at  -2.857238  2.144373  0.803595
      ESP Fit Center  465 is at  -3.276156  2.121660  0.803595
      ESP Fit Center  466 is at  -3.680398  2.009423  0.803595
      ESP Fit Center  467 is at  -4.051061  1.812910  0.803595
      ESP Fit Center  468 is at  -4.370813  1.541310  0.803595
      ESP Fit Center  469 is at  -4.624704  1.207322  0.803595
      ESP Fit Center  470 is at  -4.800862  0.826563  0.803595
      ESP Fit Center  471 is at  -4.891049  0.416838  0.803595
      ESP Fit Center  472 is at  -4.891049 -0.002695  0.803595
      ESP Fit Center  473 is at  -4.800862 -0.412420  0.803595
      ESP Fit Center  474 is at  -4.624704 -0.793179  0.803595
      ESP Fit Center  475 is at  -4.370813 -1.127166  0.803595
      ESP Fit Center  476 is at  -4.051061 -1.398767  0.803595
      ESP Fit Center  477 is at  -3.680398 -1.595280  0.803595
      ESP Fit Center  478 is at  -3.276156 -1.707517  0.803595
      ESP Fit Center  479 is at  -1.872795  1.954981  0.409649
      ESP Fit Center  480 is at  -2.246948  2.138512  0.409649
      ESP Fit Center  481 is at  -2.650387  2.242969  0.409649
      ESP Fit Center  482 is at  -3.066595  2.264077  0.409649
      ESP Fit Center  483 is at  -3.478532  2.200971  0.409649
      ESP Fit Center  484 is at  -3.869333  2.056234  0.409649
      ESP Fit Center  485 is at  -4.222999  1.835792  0.409649
      ESP Fit Center  486 is at  -4.525051  1.548670  0.409649
      ESP Fit Center  487 is at  -4.763123  1.206623  0.409649
      ESP Fit Center  488 is at  -4.927467  0.823655  0.409649
      ESP Fit Center  489 is at  -5.011357  0.415443  0.409649
      ESP Fit Center  490 is at  -5.011357 -0.001300  0.409649
      ESP Fit Center  491 is at  -4.927467 -0.409511  0.409649
      ESP Fit Center  492 is at  -4.763123 -0.792480  0.409649
      ESP Fit Center  493 is at  -4.525051 -1.134527  0.409649
      ESP Fit Center  494 is at  -4.222999 -1.421649  0.409649
      ESP Fit Center  495 is at  -3.869333 -1.642091  0.409649
      ESP Fit Center  496 is at  -3.478532 -1.786828  0.409649
      ESP Fit Center  497 is at  -3.066595 -1.849934  0.409649
      ESP Fit Center  498 is at  -1.795578  1.953158 -0.000040
      ESP Fit Center  499 is at  -2.158640  2.147219 -0.000040
      ESP Fit Center  500 is at  -2.552586  2.266721 -0.000040
      ESP Fit Center  501 is at  -2.962275  2.307072 -0.000040
      ESP Fit Center  502 is at  -3.371965  2.266721 -0.000040
      ESP Fit Center  503 is at  -3.765911  2.147219 -0.000040
      ESP Fit Center  504 is at  -4.128973  1.953158 -0.000040
      ESP Fit Center  505 is at  -4.447200  1.691996 -0.000040
      ESP Fit Center  506 is at  -4.708362  1.373769 -0.000040
      ESP Fit Center  507 is at  -4.902422  1.010707 -0.000040
      ESP Fit Center  508 is at  -5.021925  0.616761 -0.000040
      ESP Fit Center  509 is at  -5.062275  0.207072 -0.000040
      ESP Fit Center  510 is at  -5.021925 -0.202618 -0.000040
      ESP Fit Center  511 is at  -4.902422 -0.596564 -0.000040
      ESP Fit Center  512 is at  -4.708362 -0.959626 -0.000040
      ESP Fit Center  513 is at  -4.447200 -1.277853 -0.000040
      ESP Fit Center  514 is at  -4.128973 -1.539015 -0.000040
      ESP Fit Center  515 is at  -3.765911 -1.733075 -0.000040
      ESP Fit Center  516 is at  -3.371965 -1.852578 -0.000040
      ESP Fit Center  517 is at  -1.872795  1.954981 -0.409730
      ESP Fit Center  518 is at  -2.246948  2.138512 -0.409730
      ESP Fit Center  519 is at  -2.650387  2.242969 -0.409730
      ESP Fit Center  520 is at  -3.066595  2.264077 -0.409730
      ESP Fit Center  521 is at  -3.478532  2.200971 -0.409730
      ESP Fit Center  522 is at  -3.869333  2.056234 -0.409730
      ESP Fit Center  523 is at  -4.222999  1.835792 -0.409730
      ESP Fit Center  524 is at  -4.525051  1.548670 -0.409730
      ESP Fit Center  525 is at  -4.763123  1.206623 -0.409730
      ESP Fit Center  526 is at  -4.927467  0.823655 -0.409730
      ESP Fit Center  527 is at  -5.011357  0.415443 -0.409730
      ESP Fit Center  528 is at  -5.011357 -0.001300 -0.409730
      ESP Fit Center  529 is at  -4.927467 -0.409511 -0.409730
      ESP Fit Center  530 is at  -4.763123 -0.792480 -0.409730
      ESP Fit Center  531 is at  -4.525051 -1.134527 -0.409730
      ESP Fit Center  532 is at  -4.222999 -1.421649 -0.409730
      ESP Fit Center  533 is at  -3.869333 -1.642091 -0.409730
      ESP Fit Center  534 is at  -3.478532 -1.786828 -0.409730
      ESP Fit Center  535 is at  -3.066595 -1.849934 -0.409730
      ESP Fit Center  536 is at  -2.053494  1.921215 -0.803676
      ESP Fit Center  537 is at  -2.443231  2.076500 -0.803676
      ESP Fit Center  538 is at  -2.857238  2.144373 -0.803676
      ESP Fit Center  539 is at  -3.276156  2.121660 -0.803676
      ESP Fit Center  540 is at  -3.680398  2.009423 -0.803676
      ESP Fit Center  541 is at  -4.051061  1.812910 -0.803676
      ESP Fit Center  542 is at  -4.370813  1.541310 -0.803676
      ESP Fit Center  543 is at  -4.624704  1.207322 -0.803676
      ESP Fit Center  544 is at  -4.800862  0.826563 -0.803676
      ESP Fit Center  545 is at  -4.891049  0.416838 -0.803676
      ESP Fit Center  546 is at  -4.891049 -0.002695 -0.803676
      ESP Fit Center  547 is at  -4.800862 -0.412420 -0.803676
      ESP Fit Center  548 is at  -4.624704 -0.793179 -0.803676
      ESP Fit Center  549 is at  -4.370813 -1.127166 -0.803676
      ESP Fit Center  550 is at  -4.051061 -1.398767 -0.803676
      ESP Fit Center  551 is at  -3.680398 -1.595280 -0.803676
      ESP Fit Center  552 is at  -3.276156 -1.707517 -0.803676
      ESP Fit Center  553 is at  -1.970385  1.644072 -1.166738
      ESP Fit Center  554 is at  -2.343105  1.839691 -1.166738
      ESP Fit Center  555 is at  -2.751808  1.940427 -1.166738
      ESP Fit Center  556 is at  -3.172743  1.940427 -1.166738
      ESP Fit Center  557 is at  -3.581446  1.839691 -1.166738
      ESP Fit Center  558 is at  -3.954165  1.644072 -1.166738
      ESP Fit Center  559 is at  -4.269240  1.364941 -1.166738
      ESP Fit Center  560 is at  -4.508358  1.018518 -1.166738
      ESP Fit Center  561 is at  -4.657624  0.624937 -1.166738
      ESP Fit Center  562 is at  -4.708362  0.207072 -1.166738
      ESP Fit Center  563 is at  -4.657624 -0.210794 -1.166738
      ESP Fit Center  564 is at  -4.508358 -0.604375 -1.166738
      ESP Fit Center  565 is at  -4.269240 -0.950798 -1.166738
      ESP Fit Center  566 is at  -3.954165 -1.229929 -1.166738
      ESP Fit Center  567 is at  -3.581446 -1.425547 -1.166738
      ESP Fit Center  568 is at  -3.172743 -1.526284 -1.166738
      ESP Fit Center  569 is at  -1.989857  1.329302 -1.484965
      ESP Fit Center  570 is at  -2.345416  1.557806 -1.484965
      ESP Fit Center  571 is at  -2.750949  1.676881 -1.484965
      ESP Fit Center  572 is at  -3.173602  1.676881 -1.484965
      ESP Fit Center  573 is at  -3.579135  1.557806 -1.484965
      ESP Fit Center  574 is at  -3.934694  1.329302 -1.484965
      ESP Fit Center  575 is at  -4.211473  1.009882 -1.484965
      ESP Fit Center  576 is at  -4.387050  0.625423 -1.484965
      ESP Fit Center  577 is at  -4.447200  0.207072 -1.484965
      ESP Fit Center  578 is at  -4.387050 -0.211280 -1.484965
      ESP Fit Center  579 is at  -4.211473 -0.595739 -1.484965
      ESP Fit Center  580 is at  -3.934694 -0.915159 -1.484965
      ESP Fit Center  581 is at  -3.579135 -1.143663 -1.484965
      ESP Fit Center  582 is at  -3.173602 -1.262738 -1.484965
      ESP Fit Center  583 is at  -2.100076  0.993071 -1.746127
      ESP Fit Center  584 is at  -2.442234  1.251456 -1.746127
      ESP Fit Center  585 is at  -2.854626  1.368792 -1.746127
      ESP Fit Center  586 is at  -3.281557  1.329231 -1.746127
      ESP Fit Center  587 is at  -3.665368  1.138116 -1.746127
      ESP Fit Center  588 is at  -3.954222  0.821259 -1.746127
      ESP Fit Center  589 is at  -4.109108  0.421452 -1.746127
      ESP Fit Center  590 is at  -4.109108 -0.007309 -1.746127
      ESP Fit Center  591 is at  -3.954222 -0.407116 -1.746127
      ESP Fit Center  592 is at  -3.665368 -0.723973 -1.746127
      ESP Fit Center  593 is at  -3.281557 -0.915088 -1.746127
      ESP Fit Center  594 is at  -2.854626 -0.954649 -1.746127
      ESP Fit Center  595 is at  -2.266307  0.608889 -1.940187
      ESP Fit Center  596 is at  -2.560458  0.903040 -1.940187
      ESP Fit Center  597 is at  -2.962275  1.010707 -1.940187
      ESP Fit Center  598 is at  -3.364093  0.903040 -1.940187
      ESP Fit Center  599 is at  -3.658244  0.608889 -1.940187
      ESP Fit Center  600 is at  -3.765911  0.207072 -1.940187
      ESP Fit Center  601 is at  -3.658244 -0.194746 -1.940187
      ESP Fit Center  602 is at  -3.364093 -0.488897 -1.940187
      ESP Fit Center  603 is at  -2.962275 -0.596564 -1.940187
      ESP Fit Center  604 is at  -2.552586  0.207072 -2.059689
      ESP Fit Center  605 is at  -2.757431  0.561873 -2.059689
      ESP Fit Center  606 is at  -3.167120  0.561873 -2.059689
      ESP Fit Center  607 is at  -3.371965  0.207072 -2.059689
      ESP Fit Center  608 is at  -3.167120 -0.147730 -2.059689
      ESP Fit Center  609 is at  -2.757431 -0.147730 -2.059689
      ESP Fit Center  610 is at  -2.962275  0.207072 -2.100040
      ESP Fit Center  611 is at  -1.122448 -2.630344 -0.445598
      ESP Fit Center  612 is at  -0.731070 -2.792458 -0.445598
      ESP Fit Center  613 is at  -0.311070 -2.847752 -0.445598
      ESP Fit Center  614 is at   0.108930 -2.792458 -0.445598
      ESP Fit Center  615 is at   0.500308 -2.630344 -0.445598
      ESP Fit Center  616 is at   0.836391 -2.372458 -0.445598
      ESP Fit Center  617 is at   1.094277 -2.036374 -0.445598
      ESP Fit Center  618 is at  -1.670219 -2.212476 -0.880414
      ESP Fit Center  619 is at  -1.381942 -2.519459 -0.880414
      ESP Fit Center  620 is at  -1.026379 -2.745106 -0.880414
      ESP Fit Center  621 is at  -0.625871 -2.875239 -0.880414
      ESP Fit Center  622 is at  -0.205582 -2.901682 -0.880414
      ESP Fit Center  623 is at   0.208078 -2.822772 -0.880414
      ESP Fit Center  624 is at   0.589119 -2.643468 -0.880414
      ESP Fit Center  625 is at   0.913597 -2.375036 -0.880414
      ESP Fit Center  626 is at   1.161125 -2.034343 -0.880414
      ESP Fit Center  627 is at  -1.716417 -2.036374 -1.315230
      ESP Fit Center  628 is at  -1.458531 -2.372458 -1.315230
      ESP Fit Center  629 is at  -1.122448 -2.630344 -1.315230
      ESP Fit Center  630 is at  -0.731070 -2.792458 -1.315230
      ESP Fit Center  631 is at  -0.311070 -2.847752 -1.315230
      ESP Fit Center  632 is at   0.108930 -2.792458 -1.315230
      ESP Fit Center  633 is at   0.500308 -2.630344 -1.315230
      ESP Fit Center  634 is at   0.836391 -2.372458 -1.315230
      ESP Fit Center  635 is at   1.094277 -2.036374 -1.315230
      ESP Fit Center  636 is at   1.256391 -1.644997 -1.315230
      ESP Fit Center  637 is at   1.143853 -1.224997 -1.720414
      ESP Fit Center  638 is at   1.079214 -0.796151 -1.720414
      ESP Fit Center  639 is at  -1.749742 -1.441842 -1.720414
      ESP Fit Center  640 is at  -1.621910 -1.856264 -1.720414
      ESP Fit Center  641 is at  -1.377604 -2.214595 -1.720414
      ESP Fit Center  642 is at  -1.038531 -2.484997 -1.720414
      ESP Fit Center  643 is at  -0.634821 -2.643441 -1.720414
      ESP Fit Center  644 is at  -0.202344 -2.675851 -1.720414
      ESP Fit Center  645 is at   0.220473 -2.579346 -1.720414
      ESP Fit Center  646 is at   0.596059 -2.362501 -1.720414
      ESP Fit Center  647 is at   0.891043 -2.044584 -1.720414
      ESP Fit Center  648 is at   1.079214 -1.653843 -1.720414
      ESP Fit Center  649 is at   0.876869 -1.224997 -2.068353
      ESP Fit Center  650 is at   0.796650 -0.795863 -2.068353
      ESP Fit Center  651 is at   0.566828 -0.424687 -2.068353
      ESP Fit Center  652 is at   0.218440 -0.161597 -2.068353
      ESP Fit Center  653 is at  -0.201461 -0.042125 -2.068353
      ESP Fit Center  654 is at  -0.636165 -0.082406 -2.068353
      ESP Fit Center  655 is at  -1.026964 -0.277001 -2.068353
      ESP Fit Center  656 is at  -1.321077 -0.599627 -2.068353
      ESP Fit Center  657 is at  -1.478783 -1.006713 -2.068353
      ESP Fit Center  658 is at  -1.478783 -1.443280 -2.068353
      ESP Fit Center  659 is at  -1.321077 -1.850366 -2.068353
      ESP Fit Center  660 is at  -1.026964 -2.172993 -2.068353
      ESP Fit Center  661 is at  -0.636165 -2.367587 -2.068353
      ESP Fit Center  662 is at  -0.201461 -2.407869 -2.068353
      ESP Fit Center  663 is at   0.218440 -2.288396 -2.068353
      ESP Fit Center  664 is at   0.566828 -2.025306 -2.068353
      ESP Fit Center  665 is at   0.796650 -1.654130 -2.068353
      ESP Fit Center  666 is at   0.528930 -1.224997 -2.335336
      ESP Fit Center  667 is at   0.416391 -0.804997 -2.335336
      ESP Fit Center  668 is at   0.108930 -0.497535 -2.335336
      ESP Fit Center  669 is at  -0.311070 -0.384997 -2.335336
      ESP Fit Center  670 is at  -0.731070 -0.497535 -2.335336
      ESP Fit Center  671 is at  -1.038531 -0.804997 -2.335336
      ESP Fit Center  672 is at  -1.151070 -1.224997 -2.335336
      ESP Fit Center  673 is at  -1.038531 -1.644997 -2.335336
      ESP Fit Center  674 is at  -0.731070 -1.952458 -2.335336
      ESP Fit Center  675 is at  -0.311070 -2.064997 -2.335336
      ESP Fit Center  676 is at   0.108930 -1.952458 -2.335336
      ESP Fit Center  677 is at   0.416391 -1.644997 -2.335336
      ESP Fit Center  678 is at   0.123746 -1.224997 -2.503169
      ESP Fit Center  679 is at  -0.093662 -0.848435 -2.503169
      ESP Fit Center  680 is at  -0.528478 -0.848435 -2.503169
      ESP Fit Center  681 is at  -0.745886 -1.224997 -2.503169
      ESP Fit Center  682 is at  -0.528478 -1.601558 -2.503169
      ESP Fit Center  683 is at  -0.093662 -1.601558 -2.503169
      ESP Fit Center  684 is at  -0.311070 -1.224997 -2.560414
      ESP Fit Center  685 is at  -0.311173 -1.224899  2.560601
      ESP Fit Center  686 is at   0.123643 -1.224899  2.503357
      ESP Fit Center  687 is at  -0.093765 -0.848337  2.503357
      ESP Fit Center  688 is at  -0.528581 -0.848337  2.503357
      ESP Fit Center  689 is at  -0.745989 -1.224899  2.503357
      ESP Fit Center  690 is at  -0.528581 -1.601460  2.503357
      ESP Fit Center  691 is at  -0.093765 -1.601460  2.503357
      ESP Fit Center  692 is at   0.528827 -1.224899  2.335524
      ESP Fit Center  693 is at   0.416288 -0.804899  2.335524
      ESP Fit Center  694 is at   0.108827 -0.497437  2.335524
      ESP Fit Center  695 is at  -0.311173 -0.384899  2.335524
      ESP Fit Center  696 is at  -0.731173 -0.497437  2.335524
      ESP Fit Center  697 is at  -1.038634 -0.804899  2.335524
      ESP Fit Center  698 is at  -1.151173 -1.224899  2.335524
      ESP Fit Center  699 is at  -1.038634 -1.644899  2.335524
      ESP Fit Center  700 is at  -0.731173 -1.952360  2.335524
      ESP Fit Center  701 is at  -0.311173 -2.064899  2.335524
      ESP Fit Center  702 is at   0.108827 -1.952360  2.335524
      ESP Fit Center  703 is at   0.416288 -1.644899  2.335524
      ESP Fit Center  704 is at   0.876766 -1.224899  2.068541
      ESP Fit Center  705 is at   0.796547 -0.795766  2.068541
      ESP Fit Center  706 is at   0.566725 -0.424589  2.068541
      ESP Fit Center  707 is at   0.218337 -0.161499  2.068541
      ESP Fit Center  708 is at  -0.201564 -0.042027  2.068541
      ESP Fit Center  709 is at  -0.636268 -0.082308  2.068541
      ESP Fit Center  710 is at  -1.027067 -0.276903  2.068541
      ESP Fit Center  711 is at  -1.321180 -0.599529  2.068541
      ESP Fit Center  712 is at  -1.478886 -1.006615  2.068541
      ESP Fit Center  713 is at  -1.478886 -1.443182  2.068541
      ESP Fit Center  714 is at  -1.321180 -1.850268  2.068541
      ESP Fit Center  715 is at  -1.027067 -2.172895  2.068541
      ESP Fit Center  716 is at  -0.636268 -2.367489  2.068541
      ESP Fit Center  717 is at  -0.201564 -2.407771  2.068541
      ESP Fit Center  718 is at   0.218337 -2.288299  2.068541
      ESP Fit Center  719 is at   0.566725 -2.025208  2.068541
      ESP Fit Center  720 is at   0.796547 -1.654032  2.068541
      ESP Fit Center  721 is at   1.143750 -1.224899  1.720601
      ESP Fit Center  722 is at   1.079111 -0.796053  1.720601
      ESP Fit Center  723 is at  -1.749846 -1.441744  1.720601
      ESP Fit Center  724 is at  -1.622013 -1.856166  1.720601
      ESP Fit Center  725 is at  -1.377707 -2.214498  1.720601
      ESP Fit Center  726 is at  -1.038634 -2.484899  1.720601
      ESP Fit Center  727 is at  -0.634924 -2.643344  1.720601
      ESP Fit Center  728 is at  -0.202447 -2.675753  1.720601
      ESP Fit Center  729 is at   0.220370 -2.579248  1.720601
      ESP Fit Center  730 is at   0.595956 -2.362403  1.720601
      ESP Fit Center  731 is at   0.890940 -2.044486  1.720601
      ESP Fit Center  732 is at   1.079111 -1.653745  1.720601
      ESP Fit Center  733 is at  -1.716521 -2.036276  1.315417
      ESP Fit Center  734 is at  -1.458634 -2.372360  1.315417
      ESP Fit Center  735 is at  -1.122551 -2.630246  1.315417
      ESP Fit Center  736 is at  -0.731173 -2.792360  1.315417
      ESP Fit Center  737 is at  -0.311173 -2.847654  1.315417
      ESP Fit Center  738 is at   0.108827 -2.792360  1.315417
      ESP Fit Center  739 is at   0.500205 -2.630246  1.315417
      ESP Fit Center  740 is at   0.836288 -2.372360  1.315417
      ESP Fit Center  741 is at   1.094174 -2.036276  1.315417
      ESP Fit Center  742 is at   1.256288 -1.644899  1.315417
      ESP Fit Center  743 is at  -1.670322 -2.212378  0.880601
      ESP Fit Center  744 is at  -1.382045 -2.519361  0.880601
      ESP Fit Center  745 is at  -1.026482 -2.745008  0.880601
      ESP Fit Center  746 is at  -0.625974 -2.875141  0.880601
      ESP Fit Center  747 is at  -0.205685 -2.901584  0.880601
      ESP Fit Center  748 is at   0.207975 -2.822674  0.880601
      ESP Fit Center  749 is at   0.589016 -2.643370  0.880601
      ESP Fit Center  750 is at   0.913494 -2.374938  0.880601
      ESP Fit Center  751 is at   1.161022 -2.034245  0.880601
      ESP Fit Center  752 is at  -1.122551 -2.630246  0.445785
      ESP Fit Center  753 is at  -0.731173 -2.792360  0.445785
      ESP Fit Center  754 is at  -0.311173 -2.847654  0.445785
      ESP Fit Center  755 is at   0.108827 -2.792360  0.445785
      ESP Fit Center  756 is at   0.500205 -2.630246  0.445785
      ESP Fit Center  757 is at   0.836288 -2.372360  0.445785
      ESP Fit Center  758 is at   1.094174 -2.036276  0.445785
      ESP Fit Center  759 is at  -0.012600  2.643565 -0.040433
      ESP Fit Center  760 is at   1.122529  2.630468 -0.445617
      ESP Fit Center  761 is at   0.731151  2.792582 -0.445617
      ESP Fit Center  762 is at   0.311151  2.847876 -0.445617
      ESP Fit Center  763 is at  -0.108849  2.792582 -0.445617
      ESP Fit Center  764 is at  -0.500227  2.630468 -0.445617
      ESP Fit Center  765 is at  -0.836310  2.372582 -0.445617
      ESP Fit Center  766 is at  -1.094196  2.036498 -0.445617
      ESP Fit Center  767 is at   1.535818  2.375160 -0.880433
      ESP Fit Center  768 is at   1.211340  2.643592 -0.880433
      ESP Fit Center  769 is at   0.830300  2.822896 -0.880433
      ESP Fit Center  770 is at   0.416639  2.901806 -0.880433
      ESP Fit Center  771 is at  -0.003649  2.875363 -0.880433
      ESP Fit Center  772 is at  -0.404158  2.745230 -0.880433
      ESP Fit Center  773 is at  -0.759721  2.519583 -0.880433
      ESP Fit Center  774 is at  -1.047997  2.212600 -0.880433
      ESP Fit Center  775 is at  -1.250873  1.843570 -0.880433
      ESP Fit Center  776 is at   1.716499  2.036498 -1.315249
      ESP Fit Center  777 is at   1.458612  2.372582 -1.315249
      ESP Fit Center  778 is at   1.122529  2.630468 -1.315249
      ESP Fit Center  779 is at   0.731151  2.792582 -1.315249
      ESP Fit Center  780 is at   0.311151  2.847876 -1.315249
      ESP Fit Center  781 is at  -0.108849  2.792582 -1.315249
      ESP Fit Center  782 is at  -0.500227  2.630468 -1.315249
      ESP Fit Center  783 is at  -0.836310  2.372582 -1.315249
      ESP Fit Center  784 is at  -1.094196  2.036498 -1.315249
      ESP Fit Center  785 is at  -1.256310  1.645121 -1.315249
      ESP Fit Center  786 is at   1.701436  1.653967 -1.720433
      ESP Fit Center  787 is at   1.513265  2.044708 -1.720433
      ESP Fit Center  788 is at   1.218281  2.362625 -1.720433
      ESP Fit Center  789 is at   0.842694  2.579470 -1.720433
      ESP Fit Center  790 is at   0.419878  2.675975 -1.720433
      ESP Fit Center  791 is at  -0.012600  2.643565 -1.720433
      ESP Fit Center  792 is at  -0.416310  2.485121 -1.720433
      ESP Fit Center  793 is at  -0.755383  2.214719 -1.720433
      ESP Fit Center  794 is at  -0.999689  1.856388 -1.720433
      ESP Fit Center  795 is at  -1.127521  1.441966 -1.720433
      ESP Fit Center  796 is at  -1.127521  1.008276 -1.720433
      ESP Fit Center  797 is at   1.499091  1.225121 -2.068372
      ESP Fit Center  798 is at   1.418872  1.654254 -2.068372
      ESP Fit Center  799 is at   1.189049  2.025430 -2.068372
      ESP Fit Center  800 is at   0.840661  2.288520 -2.068372
      ESP Fit Center  801 is at   0.420760  2.407993 -2.068372
      ESP Fit Center  802 is at  -0.013944  2.367711 -2.068372
      ESP Fit Center  803 is at  -0.404742  2.173117 -2.068372
      ESP Fit Center  804 is at  -0.698855  1.850490 -2.068372
      ESP Fit Center  805 is at  -0.856561  1.443404 -2.068372
      ESP Fit Center  806 is at  -0.856561  1.006837 -2.068372
      ESP Fit Center  807 is at  -0.698855  0.599751 -2.068372
      ESP Fit Center  808 is at  -0.404742  0.277125 -2.068372
      ESP Fit Center  809 is at  -0.013944  0.082530 -2.068372
      ESP Fit Center  810 is at   0.420760  0.042249 -2.068372
      ESP Fit Center  811 is at   0.840661  0.161721 -2.068372
      ESP Fit Center  812 is at   1.189049  0.424811 -2.068372
      ESP Fit Center  813 is at   1.418872  0.795987 -2.068372
      ESP Fit Center  814 is at   1.151151  1.225121 -2.335356
      ESP Fit Center  815 is at   1.038612  1.645121 -2.335356
      ESP Fit Center  816 is at   0.731151  1.952582 -2.335356
      ESP Fit Center  817 is at   0.311151  2.065121 -2.335356
      ESP Fit Center  818 is at  -0.108849  1.952582 -2.335356
      ESP Fit Center  819 is at  -0.416310  1.645121 -2.335356
      ESP Fit Center  820 is at  -0.528849  1.225121 -2.335356
      ESP Fit Center  821 is at  -0.416310  0.805121 -2.335356
      ESP Fit Center  822 is at  -0.108849  0.497659 -2.335356
      ESP Fit Center  823 is at   0.311151  0.385121 -2.335356
      ESP Fit Center  824 is at   0.731151  0.497659 -2.335356
      ESP Fit Center  825 is at   1.038612  0.805121 -2.335356
      ESP Fit Center  826 is at   0.745967  1.225121 -2.503188
      ESP Fit Center  827 is at   0.528559  1.601682 -2.503188
      ESP Fit Center  828 is at   0.093743  1.601682 -2.503188
      ESP Fit Center  829 is at  -0.123665  1.225121 -2.503188
      ESP Fit Center  830 is at   0.093743  0.848559 -2.503188
      ESP Fit Center  831 is at   0.528559  0.848559 -2.503188
      ESP Fit Center  832 is at   0.311151  1.225121 -2.560433
      ESP Fit Center  833 is at   0.311201  1.225065  2.560576
      ESP Fit Center  834 is at   0.746017  1.225065  2.503331
      ESP Fit Center  835 is at   0.528609  1.601627  2.503331
      ESP Fit Center  836 is at   0.093793  1.601627  2.503331
      ESP Fit Center  837 is at  -0.123615  1.225065  2.503331
      ESP Fit Center  838 is at   0.093793  0.848504  2.503331
      ESP Fit Center  839 is at   0.528609  0.848504  2.503331
      ESP Fit Center  840 is at   1.151201  1.225065  2.335498
      ESP Fit Center  841 is at   1.038663  1.645065  2.335498
      ESP Fit Center  842 is at   0.731201  1.952527  2.335498
      ESP Fit Center  843 is at   0.311201  2.065065  2.335498
      ESP Fit Center  844 is at  -0.108799  1.952527  2.335498
      ESP Fit Center  845 is at  -0.416260  1.645065  2.335498
      ESP Fit Center  846 is at  -0.528799  1.225065  2.335498
      ESP Fit Center  847 is at  -0.416260  0.805065  2.335498
      ESP Fit Center  848 is at  -0.108799  0.497604  2.335498
      ESP Fit Center  849 is at   0.311201  0.385065  2.335498
      ESP Fit Center  850 is at   0.731201  0.497604  2.335498
      ESP Fit Center  851 is at   1.038663  0.805065  2.335498
      ESP Fit Center  852 is at   1.499141  1.225065  2.068515
      ESP Fit Center  853 is at   1.418922  1.654198  2.068515
      ESP Fit Center  854 is at   1.189099  2.025375  2.068515
      ESP Fit Center  855 is at   0.840711  2.288465  2.068515
      ESP Fit Center  856 is at   0.420810  2.407937  2.068515
      ESP Fit Center  857 is at  -0.013894  2.367656  2.068515
      ESP Fit Center  858 is at  -0.404692  2.173061  2.068515
      ESP Fit Center  859 is at  -0.698805  1.850435  2.068515
      ESP Fit Center  860 is at  -0.856511  1.443349  2.068515
      ESP Fit Center  861 is at  -0.856511  1.006782  2.068515
      ESP Fit Center  862 is at  -0.698805  0.599696  2.068515
      ESP Fit Center  863 is at  -0.404692  0.277069  2.068515
      ESP Fit Center  864 is at  -0.013894  0.082475  2.068515
      ESP Fit Center  865 is at   0.420810  0.042193  2.068515
      ESP Fit Center  866 is at   0.840711  0.161666  2.068515
      ESP Fit Center  867 is at   1.189099  0.424756  2.068515
      ESP Fit Center  868 is at   1.418922  0.795932  2.068515
      ESP Fit Center  869 is at   1.701486  1.653911  1.720576
      ESP Fit Center  870 is at   1.513315  2.044652  1.720576
      ESP Fit Center  871 is at   1.218331  2.362570  1.720576
      ESP Fit Center  872 is at   0.842744  2.579415  1.720576
      ESP Fit Center  873 is at   0.419928  2.675920  1.720576
      ESP Fit Center  874 is at  -0.012549  2.643510  1.720576
      ESP Fit Center  875 is at  -0.416260  2.485065  1.720576
      ESP Fit Center  876 is at  -0.755333  2.214664  1.720576
      ESP Fit Center  877 is at  -0.999639  1.856333  1.720576
      ESP Fit Center  878 is at  -1.127471  1.441910  1.720576
      ESP Fit Center  879 is at  -1.127471  1.008220  1.720576
      ESP Fit Center  880 is at   1.716549  2.036443  1.315392
      ESP Fit Center  881 is at   1.458663  2.372527  1.315392
      ESP Fit Center  882 is at   1.122579  2.630413  1.315392
      ESP Fit Center  883 is at   0.731201  2.792527  1.315392
      ESP Fit Center  884 is at   0.311201  2.847821  1.315392
      ESP Fit Center  885 is at  -0.108799  2.792527  1.315392
      ESP Fit Center  886 is at  -0.500176  2.630413  1.315392
      ESP Fit Center  887 is at  -0.836260  2.372527  1.315392
      ESP Fit Center  888 is at  -1.094146  2.036443  1.315392
      ESP Fit Center  889 is at  -1.256260  1.645065  1.315392
      ESP Fit Center  890 is at   1.535869  2.375104  0.880576
      ESP Fit Center  891 is at   1.211390  2.643536  0.880576
      ESP Fit Center  892 is at   0.830350  2.822840  0.880576
      ESP Fit Center  893 is at   0.416689  2.901750  0.880576
      ESP Fit Center  894 is at  -0.003599  2.875308  0.880576
      ESP Fit Center  895 is at  -0.404108  2.745175  0.880576
      ESP Fit Center  896 is at  -0.759671  2.519528  0.880576
      ESP Fit Center  897 is at  -1.047947  2.212545  0.880576
      ESP Fit Center  898 is at  -1.250823  1.843515  0.880576
      ESP Fit Center  899 is at   1.122579  2.630413  0.445760
      ESP Fit Center  900 is at   0.731201  2.792527  0.445760
      ESP Fit Center  901 is at   0.311201  2.847821  0.445760
      ESP Fit Center  902 is at  -0.108799  2.792527  0.445760
      ESP Fit Center  903 is at  -0.500176  2.630413  0.445760
      ESP Fit Center  904 is at  -0.836260  2.372527  0.445760
      ESP Fit Center  905 is at  -1.094146  2.036443  0.445760
      ESP Fit Center  906 is at  -0.012549  2.643510  0.040576
      ESP Fit Center  907 is at   2.962202 -0.207255  2.399954
      ESP Fit Center  908 is at   3.378958 -0.207255  2.363493
      ESP Fit Center  909 is at   3.170580  0.153666  2.363493
      ESP Fit Center  910 is at   2.753824  0.153666  2.363493
      ESP Fit Center  911 is at   2.545447 -0.207255  2.363493
      ESP Fit Center  912 is at   2.753824 -0.568176  2.363493
      ESP Fit Center  913 is at   3.170580 -0.568176  2.363493
      ESP Fit Center  914 is at   3.783050 -0.207255  2.255216
      ESP Fit Center  915 is at   3.673078  0.203169  2.255216
      ESP Fit Center  916 is at   3.372626  0.503620  2.255216
      ESP Fit Center  917 is at   2.962202  0.613593  2.255216
      ESP Fit Center  918 is at   2.251327 -0.617679  2.255216
      ESP Fit Center  919 is at   2.551778 -0.918131  2.255216
      ESP Fit Center  920 is at   2.962202 -1.028103  2.255216
      ESP Fit Center  921 is at   3.372626 -0.918131  2.255216
      ESP Fit Center  922 is at   3.673078 -0.617679  2.255216
      ESP Fit Center  923 is at   4.162202 -0.207255  2.078415
      ESP Fit Center  924 is at   4.089833  0.203169  2.078415
      ESP Fit Center  925 is at   3.881455  0.564090  2.078415
      ESP Fit Center  926 is at   3.562202  0.831975  2.078415
      ESP Fit Center  927 is at   3.170580  0.974514  2.078415
      ESP Fit Center  928 is at   2.362202 -1.246486  2.078415
      ESP Fit Center  929 is at   2.753824 -1.389024  2.078415
      ESP Fit Center  930 is at   3.170580 -1.389024  2.078415
      ESP Fit Center  931 is at   3.562202 -1.246486  2.078415
      ESP Fit Center  932 is at   3.881455 -0.978600  2.078415
      ESP Fit Center  933 is at   4.089833 -0.617679  2.078415
      ESP Fit Center  934 is at   4.504892 -0.207255  1.838461
      ESP Fit Center  935 is at   4.447685  0.208958  1.838461
      ESP Fit Center  936 is at   4.280307  0.594302  1.838461
      ESP Fit Center  937 is at   4.015170  0.920198  1.838461
      ESP Fit Center  938 is at   3.671940  1.162477  1.838461
      ESP Fit Center  939 is at   3.276072  1.303168  1.838461
      ESP Fit Center  940 is at   2.072563 -1.467587  1.838461
      ESP Fit Center  941 is at   2.445587 -1.660872  1.838461
      ESP Fit Center  942 is at   2.856925 -1.746349  1.838461
      ESP Fit Center  943 is at   3.276072 -1.717679  1.838461
      ESP Fit Center  944 is at   3.671940 -1.576987  1.838461
      ESP Fit Center  945 is at   4.015170 -1.334709  1.838461
      ESP Fit Center  946 is at   4.280307 -1.008812  1.838461
      ESP Fit Center  947 is at   4.447685 -0.623468  1.838461
      ESP Fit Center  948 is at   4.800709 -0.207255  1.542644
      ESP Fit Center  949 is at   4.751152  0.216734  1.542644
      ESP Fit Center  950 is at   4.605152  0.617865  1.542644
      ESP Fit Center  951 is at   4.370580  0.974514  1.542644
      ESP Fit Center  952 is at   4.060082  1.267454  1.542644
      ESP Fit Center  953 is at   3.690397  1.480891  1.542644
      ESP Fit Center  954 is at   3.281455  1.603321  1.542644
      ESP Fit Center  955 is at   2.042949 -1.799449  1.542644
      ESP Fit Center  956 is at   2.434912 -1.968525  1.542644
      ESP Fit Center  957 is at   2.855302 -2.042651  1.542644
      ESP Fit Center  958 is at   3.281455 -2.017831  1.542644
      ESP Fit Center  959 is at   3.690397 -1.895401  1.542644
      ESP Fit Center  960 is at   4.060082 -1.681964  1.542644
      ESP Fit Center  961 is at   4.370580 -1.389024  1.542644
      ESP Fit Center  962 is at   4.605152 -1.032375  1.542644
      ESP Fit Center  963 is at   4.751152 -0.631244  1.542644
      ESP Fit Center  964 is at   5.040663 -0.207255  1.199954
      ESP Fit Center  965 is at   4.998117  0.211136  1.199954
      ESP Fit Center  966 is at   4.872220  0.612398  1.199954
      ESP Fit Center  967 is at   4.668127  0.980104  1.199954
      ESP Fit Center  968 is at   4.394193  1.299198  1.199954
      ESP Fit Center  969 is at   4.061633  1.556619  1.199954
      ESP Fit Center  970 is at   3.684063  1.741826  1.199954
      ESP Fit Center  971 is at   3.276939  1.847238  1.199954
      ESP Fit Center  972 is at   2.046860 -2.073307  1.199954
      ESP Fit Center  973 is at   2.441231 -2.219366  1.199954
      ESP Fit Center  974 is at   2.856930 -2.283048  1.199954
      ESP Fit Center  975 is at   3.276939 -2.261748  1.199954
      ESP Fit Center  976 is at   3.684063 -2.156336  1.199954
      ESP Fit Center  977 is at   4.061633 -1.971129  1.199954
      ESP Fit Center  978 is at   4.394193 -1.713709  1.199954
      ESP Fit Center  979 is at   4.668127 -1.394614  1.199954
      ESP Fit Center  980 is at   4.872220 -1.026908  1.199954
      ESP Fit Center  981 is at   4.998117 -0.625646  1.199954
      ESP Fit Center  982 is at   5.217464 -0.207255  0.820802
      ESP Fit Center  983 is at   5.176709  0.219556  0.820802
      ESP Fit Center  984 is at   5.055915  0.630941  0.820802
      ESP Fit Center  985 is at   4.859450  1.012032  0.820802
      ESP Fit Center  986 is at   4.594412  1.349054  0.820802
      ESP Fit Center  987 is at   4.270383  1.629827  0.820802
      ESP Fit Center  988 is at   3.899072  1.844204  0.820802
      ESP Fit Center  989 is at   3.493900  1.984435  0.820802
      ESP Fit Center  990 is at   1.834571 -2.160369  0.820802
      ESP Fit Center  991 is at   2.224578 -2.338480  0.820802
      ESP Fit Center  992 is at   2.641245 -2.439562  0.820802
      ESP Fit Center  993 is at   3.069512 -2.459963  0.820802
      ESP Fit Center  994 is at   3.493900 -2.398945  0.820802
      ESP Fit Center  995 is at   3.899072 -2.258714  0.820802
      ESP Fit Center  996 is at   4.270383 -2.044337  0.820802
      ESP Fit Center  997 is at   4.594412 -1.763564  0.820802
      ESP Fit Center  998 is at   4.859450 -1.426542  0.820802
      ESP Fit Center  999 is at   5.055915 -1.045451  0.820802
      ESP Fit Center 1000 is at   5.176709 -0.634066  0.820802
      ESP Fit Center 1001 is at   5.325741 -0.207255  0.416710
      ESP Fit Center 1002 is at   5.287758  0.214771  0.416710
      ESP Fit Center 1003 is at   5.175029  0.623233  0.416710
      ESP Fit Center 1004 is at   4.991179  1.005002  0.416710
      ESP Fit Center 1005 is at   4.742116  1.347809  0.416710
      ESP Fit Center 1006 is at   4.435844  1.640634  0.416710
      ESP Fit Center 1007 is at   4.082209  1.874066  0.416710
      ESP Fit Center 1008 is at   3.692576  2.040604  0.416710
      ESP Fit Center 1009 is at   3.279468  2.134893  0.416710
      ESP Fit Center 1010 is at   2.033272 -2.380594  0.416710
      ESP Fit Center 1011 is at   2.436265 -2.511535  0.416710
      ESP Fit Center 1012 is at   2.856162 -2.568414  0.416710
      ESP Fit Center 1013 is at   3.279468 -2.549403  0.416710
      ESP Fit Center 1014 is at   3.692576 -2.455114  0.416710
      ESP Fit Center 1015 is at   4.082209 -2.288577  0.416710
      ESP Fit Center 1016 is at   4.435844 -2.055144  0.416710
      ESP Fit Center 1017 is at   4.742116 -1.762319  0.416710
      ESP Fit Center 1018 is at   4.991179 -1.419512  0.416710
      ESP Fit Center 1019 is at   5.175029 -1.037743  0.416710
      ESP Fit Center 1020 is at   5.287758 -0.629281  0.416710
      ESP Fit Center 1021 is at   5.362202 -0.207255 -0.000046
      ESP Fit Center 1022 is at   5.325741  0.209501 -0.000046
      ESP Fit Center 1023 is at   5.217464  0.613593 -0.000046
      ESP Fit Center 1024 is at   5.040663  0.992745 -0.000046
      ESP Fit Center 1025 is at   4.800709  1.335435 -0.000046
      ESP Fit Center 1026 is at   4.504892  1.631252 -0.000046
      ESP Fit Center 1027 is at   4.162202  1.871206 -0.000046
      ESP Fit Center 1028 is at   3.783050  2.048007 -0.000046
      ESP Fit Center 1029 is at   3.378958  2.156284 -0.000046
      ESP Fit Center 1030 is at   1.762202 -2.285716 -0.000046
      ESP Fit Center 1031 is at   2.141354 -2.462517 -0.000046
      ESP Fit Center 1032 is at   2.545447 -2.570794 -0.000046
      ESP Fit Center 1033 is at   2.962202 -2.607255 -0.000046
      ESP Fit Center 1034 is at   3.378958 -2.570794 -0.000046
      ESP Fit Center 1035 is at   3.783050 -2.462517 -0.000046
      ESP Fit Center 1036 is at   4.162202 -2.285716 -0.000046
      ESP Fit Center 1037 is at   4.504892 -2.045762 -0.000046
      ESP Fit Center 1038 is at   4.800709 -1.749945 -0.000046
      ESP Fit Center 1039 is at   5.040663 -1.407255 -0.000046
      ESP Fit Center 1040 is at   5.217464 -1.028103 -0.000046
      ESP Fit Center 1041 is at   5.325741 -0.624011 -0.000046
      ESP Fit Center 1042 is at   5.325741 -0.207255 -0.416802
      ESP Fit Center 1043 is at   5.287758  0.214771 -0.416802
      ESP Fit Center 1044 is at   5.175029  0.623233 -0.416802
      ESP Fit Center 1045 is at   4.991179  1.005002 -0.416802
      ESP Fit Center 1046 is at   4.742116  1.347809 -0.416802
      ESP Fit Center 1047 is at   4.435844  1.640634 -0.416802
      ESP Fit Center 1048 is at   4.082209  1.874066 -0.416802
      ESP Fit Center 1049 is at   3.692576  2.040604 -0.416802
      ESP Fit Center 1050 is at   3.279468  2.134893 -0.416802
      ESP Fit Center 1051 is at   2.033272 -2.380594 -0.416802
      ESP Fit Center 1052 is at   2.436265 -2.511535 -0.416802
      ESP Fit Center 1053 is at   2.856162 -2.568414 -0.416802
      ESP Fit Center 1054 is at   3.279468 -2.549403 -0.416802
      ESP Fit Center 1055 is at   3.692576 -2.455114 -0.416802
      ESP Fit Center 1056 is at   4.082209 -2.288577 -0.416802
      ESP Fit Center 1057 is at   4.435844 -2.055144 -0.416802
      ESP Fit Center 1058 is at   4.742116 -1.762319 -0.416802
      ESP Fit Center 1059 is at   4.991179 -1.419512 -0.416802
      ESP Fit Center 1060 is at   5.175029 -1.037743 -0.416802
      ESP Fit Center 1061 is at   5.287758 -0.629281 -0.416802
      ESP Fit Center 1062 is at   5.217464 -0.207255 -0.820894
      ESP Fit Center 1063 is at   5.176709  0.219556 -0.820894
      ESP Fit Center 1064 is at   5.055915  0.630941 -0.820894
      ESP Fit Center 1065 is at   4.859450  1.012032 -0.820894
      ESP Fit Center 1066 is at   4.594412  1.349054 -0.820894
      ESP Fit Center 1067 is at   4.270383  1.629827 -0.820894
      ESP Fit Center 1068 is at   3.899072  1.844204 -0.820894
      ESP Fit Center 1069 is at   3.493900  1.984435 -0.820894
      ESP Fit Center 1070 is at   1.834571 -2.160369 -0.820894
      ESP Fit Center 1071 is at   2.224578 -2.338480 -0.820894
      ESP Fit Center 1072 is at   2.641245 -2.439562 -0.820894
      ESP Fit Center 1073 is at   3.069512 -2.459963 -0.820894
      ESP Fit Center 1074 is at   3.493900 -2.398945 -0.820894
      ESP Fit Center 1075 is at   3.899072 -2.258714 -0.820894
      ESP Fit Center 1076 is at   4.270383 -2.044337 -0.820894
      ESP Fit Center 1077 is at   4.594412 -1.763564 -0.820894
      ESP Fit Center 1078 is at   4.859450 -1.426542 -0.820894
      ESP Fit Center 1079 is at   5.055915 -1.045451 -0.820894
      ESP Fit Center 1080 is at   5.176709 -0.634066 -0.820894
      ESP Fit Center 1081 is at   5.040663 -0.207255 -1.200046
      ESP Fit Center 1082 is at   4.998117  0.211136 -1.200046
      ESP Fit Center 1083 is at   4.872220  0.612398 -1.200046
      ESP Fit Center 1084 is at   4.668127  0.980104 -1.200046
      ESP Fit Center 1085 is at   4.394193  1.299198 -1.200046
      ESP Fit Center 1086 is at   4.061633  1.556619 -1.200046
      ESP Fit Center 1087 is at   3.684063  1.741826 -1.200046
      ESP Fit Center 1088 is at   3.276939  1.847238 -1.200046
      ESP Fit Center 1089 is at   2.046860 -2.073307 -1.200046
      ESP Fit Center 1090 is at   2.441231 -2.219366 -1.200046
      ESP Fit Center 1091 is at   2.856930 -2.283048 -1.200046
      ESP Fit Center 1092 is at   3.276939 -2.261748 -1.200046
      ESP Fit Center 1093 is at   3.684063 -2.156336 -1.200046
      ESP Fit Center 1094 is at   4.061633 -1.971129 -1.200046
      ESP Fit Center 1095 is at   4.394193 -1.713709 -1.200046
      ESP Fit Center 1096 is at   4.668127 -1.394614 -1.200046
      ESP Fit Center 1097 is at   4.872220 -1.026908 -1.200046
      ESP Fit Center 1098 is at   4.998117 -0.625646 -1.200046
      ESP Fit Center 1099 is at   4.800709 -0.207255 -1.542736
      ESP Fit Center 1100 is at   4.751152  0.216734 -1.542736
      ESP Fit Center 1101 is at   4.605152  0.617865 -1.542736
      ESP Fit Center 1102 is at   4.370580  0.974514 -1.542736
      ESP Fit Center 1103 is at   4.060082  1.267454 -1.542736
      ESP Fit Center 1104 is at   3.690397  1.480891 -1.542736
      ESP Fit Center 1105 is at   3.281455  1.603321 -1.542736
      ESP Fit Center 1106 is at   2.042949 -1.799449 -1.542736
      ESP Fit Center 1107 is at   2.434912 -1.968525 -1.542736
      ESP Fit Center 1108 is at   2.855302 -2.042651 -1.542736
      ESP Fit Center 1109 is at   3.281455 -2.017831 -1.542736
      ESP Fit Center 1110 is at   3.690397 -1.895401 -1.542736
      ESP Fit Center 1111 is at   4.060082 -1.681964 -1.542736
      ESP Fit Center 1112 is at   4.370580 -1.389024 -1.542736
      ESP Fit Center 1113 is at   4.605152 -1.032375 -1.542736
      ESP Fit Center 1114 is at   4.751152 -0.631244 -1.542736
      ESP Fit Center 1115 is at   4.504892 -0.207255 -1.838553
      ESP Fit Center 1116 is at   4.447685  0.208958 -1.838553
      ESP Fit Center 1117 is at   4.280307  0.594302 -1.838553
      ESP Fit Center 1118 is at   4.015170  0.920198 -1.838553
      ESP Fit Center 1119 is at   3.671940  1.162477 -1.838553
      ESP Fit Center 1120 is at   3.276072  1.303168 -1.838553
      ESP Fit Center 1121 is at   2.072563 -1.467587 -1.838553
      ESP Fit Center 1122 is at   2.445587 -1.660872 -1.838553
      ESP Fit Center 1123 is at   2.856925 -1.746349 -1.838553
      ESP Fit Center 1124 is at   3.276072 -1.717679 -1.838553
      ESP Fit Center 1125 is at   3.671940 -1.576987 -1.838553
      ESP Fit Center 1126 is at   4.015170 -1.334709 -1.838553
      ESP Fit Center 1127 is at   4.280307 -1.008812 -1.838553
      ESP Fit Center 1128 is at   4.447685 -0.623468 -1.838553
      ESP Fit Center 1129 is at   4.162202 -0.207255 -2.078507
      ESP Fit Center 1130 is at   4.089833  0.203169 -2.078507
      ESP Fit Center 1131 is at   3.881455  0.564090 -2.078507
      ESP Fit Center 1132 is at   3.562202  0.831975 -2.078507
      ESP Fit Center 1133 is at   3.170580  0.974514 -2.078507
      ESP Fit Center 1134 is at   2.362202 -1.246486 -2.078507
      ESP Fit Center 1135 is at   2.753824 -1.389024 -2.078507
      ESP Fit Center 1136 is at   3.170580 -1.389024 -2.078507
      ESP Fit Center 1137 is at   3.562202 -1.246486 -2.078507
      ESP Fit Center 1138 is at   3.881455 -0.978600 -2.078507
      ESP Fit Center 1139 is at   4.089833 -0.617679 -2.078507
      ESP Fit Center 1140 is at   3.783050 -0.207255 -2.255308
      ESP Fit Center 1141 is at   3.673078  0.203169 -2.255308
      ESP Fit Center 1142 is at   3.372626  0.503620 -2.255308
      ESP Fit Center 1143 is at   2.962202  0.613593 -2.255308
      ESP Fit Center 1144 is at   2.251327 -0.617679 -2.255308
      ESP Fit Center 1145 is at   2.551778 -0.918131 -2.255308
      ESP Fit Center 1146 is at   2.962202 -1.028103 -2.255308
      ESP Fit Center 1147 is at   3.372626 -0.918131 -2.255308
      ESP Fit Center 1148 is at   3.673078 -0.617679 -2.255308
      ESP Fit Center 1149 is at   3.378958 -0.207255 -2.363585
      ESP Fit Center 1150 is at   3.170580  0.153666 -2.363585
      ESP Fit Center 1151 is at   2.753824  0.153666 -2.363585
      ESP Fit Center 1152 is at   2.545447 -0.207255 -2.363585
      ESP Fit Center 1153 is at   2.753824 -0.568176 -2.363585
      ESP Fit Center 1154 is at   3.170580 -0.568176 -2.363585
      ESP Fit Center 1155 is at   2.962202 -0.207255 -2.400046
      ESP Fit Center 1156 is at   1.873045  0.159713  2.399980
      ESP Fit Center 1157 is at   2.289801  0.159713  2.363519
      ESP Fit Center 1158 is at   2.081423  0.520634  2.363519
      ESP Fit Center 1159 is at   1.664668  0.520634  2.363519
      ESP Fit Center 1160 is at   1.456290  0.159713  2.363519
      ESP Fit Center 1161 is at   1.664668 -0.201208  2.363519
      ESP Fit Center 1162 is at   2.081423 -0.201208  2.363519
      ESP Fit Center 1163 is at   2.583921  0.570137  2.255243
      ESP Fit Center 1164 is at   2.283470  0.870589  2.255243
      ESP Fit Center 1165 is at   1.873045  0.980562  2.255243
      ESP Fit Center 1166 is at   1.162170 -0.250711  2.255243
      ESP Fit Center 1167 is at   1.462621 -0.551162  2.255243
      ESP Fit Center 1168 is at   1.873045 -0.661135  2.255243
      ESP Fit Center 1169 is at   2.473045  1.198944  2.078441
      ESP Fit Center 1170 is at   2.081423  1.341483  2.078441
      ESP Fit Center 1171 is at   1.273045 -0.879517  2.078441
      ESP Fit Center 1172 is at   1.664668 -1.022056  2.078441
      ESP Fit Center 1173 is at   2.582783  1.529445  1.838487
      ESP Fit Center 1174 is at   2.186915  1.670137  1.838487
      ESP Fit Center 1175 is at   1.356430 -1.293903  1.838487
      ESP Fit Center 1176 is at   1.767769 -1.379381  1.838487
      ESP Fit Center 1177 is at   2.970926  1.634422  1.542671
      ESP Fit Center 1178 is at   2.601241  1.847860  1.542671
      ESP Fit Center 1179 is at   2.192299  1.970289  1.542671
      ESP Fit Center 1180 is at   1.766146 -1.675683  1.542671
      ESP Fit Center 1181 is at   2.972477  1.923587  1.199980
      ESP Fit Center 1182 is at   2.594906  2.108795  1.199980
      ESP Fit Center 1183 is at   2.187782  2.214206  1.199980
      ESP Fit Center 1184 is at   1.767773 -1.916080  1.199980
      ESP Fit Center 1185 is at   2.809915  2.211172  0.820829
      ESP Fit Center 1186 is at   2.404744  2.351403  0.820829
      ESP Fit Center 1187 is at   1.980355  2.412421  0.820829
      ESP Fit Center 1188 is at   1.552088 -2.072594  0.820829
      ESP Fit Center 1189 is at   2.993052  2.241035  0.416736
      ESP Fit Center 1190 is at   2.603419  2.407572  0.416736
      ESP Fit Center 1191 is at   2.190311  2.501861  0.416736
      ESP Fit Center 1192 is at   1.347109 -2.144566  0.416736
      ESP Fit Center 1193 is at   3.073045  2.238174 -0.000020
      ESP Fit Center 1194 is at   2.693894  2.414976 -0.000020
      ESP Fit Center 1195 is at   2.289801  2.523252 -0.000020
      ESP Fit Center 1196 is at   1.873045  2.559713 -0.000020
      ESP Fit Center 1197 is at   1.456290 -2.203825 -0.000020
      ESP Fit Center 1198 is at   2.993052  2.241035 -0.416775
      ESP Fit Center 1199 is at   2.603419  2.407572 -0.416775
      ESP Fit Center 1200 is at   2.190311  2.501861 -0.416775
      ESP Fit Center 1201 is at   1.347109 -2.144566 -0.416775
      ESP Fit Center 1202 is at   2.809915  2.211172 -0.820868
      ESP Fit Center 1203 is at   2.404744  2.351403 -0.820868
      ESP Fit Center 1204 is at   1.980355  2.412421 -0.820868
      ESP Fit Center 1205 is at   1.552088 -2.072594 -0.820868
      ESP Fit Center 1206 is at   2.972477  1.923587 -1.200020
      ESP Fit Center 1207 is at   2.594906  2.108795 -1.200020
      ESP Fit Center 1208 is at   2.187782  2.214206 -1.200020
      ESP Fit Center 1209 is at   1.767773 -1.916080 -1.200020
      ESP Fit Center 1210 is at   2.970926  1.634422 -1.542710
      ESP Fit Center 1211 is at   2.601241  1.847860 -1.542710
      ESP Fit Center 1212 is at   2.192299  1.970289 -1.542710
      ESP Fit Center 1213 is at   1.766146 -1.675683 -1.542710
      ESP Fit Center 1214 is at   2.582783  1.529445 -1.838526
      ESP Fit Center 1215 is at   2.186915  1.670137 -1.838526
      ESP Fit Center 1216 is at   1.356430 -1.293903 -1.838526
      ESP Fit Center 1217 is at   1.767769 -1.379381 -1.838526
      ESP Fit Center 1218 is at   2.473045  1.198944 -2.078481
      ESP Fit Center 1219 is at   2.081423  1.341483 -2.078481
      ESP Fit Center 1220 is at   1.273045 -0.879517 -2.078481
      ESP Fit Center 1221 is at   1.664668 -1.022056 -2.078481
      ESP Fit Center 1222 is at   2.583921  0.570137 -2.255282
      ESP Fit Center 1223 is at   2.283470  0.870589 -2.255282
      ESP Fit Center 1224 is at   1.873045  0.980562 -2.255282
      ESP Fit Center 1225 is at   1.162170 -0.250711 -2.255282
      ESP Fit Center 1226 is at   1.462621 -0.551162 -2.255282
      ESP Fit Center 1227 is at   1.873045 -0.661135 -2.255282
      ESP Fit Center 1228 is at   2.289801  0.159713 -2.363558
      ESP Fit Center 1229 is at   2.081423  0.520634 -2.363558
      ESP Fit Center 1230 is at   1.664668  0.520634 -2.363558
      ESP Fit Center 1231 is at   1.456290  0.159713 -2.363558
      ESP Fit Center 1232 is at   1.664668 -0.201208 -2.363558
      ESP Fit Center 1233 is at   2.081423 -0.201208 -2.363558
      ESP Fit Center 1234 is at   1.873045  0.159713 -2.400020
      ESP Fit Center 1235 is at   0.892230 -0.109361  2.255312
      ESP Fit Center 1236 is at   1.601813  2.682836  0.416805
      ESP Fit Center 1237 is at   1.681806  2.679976  0.000050
      ESP Fit Center 1238 is at   1.302655  2.856777  0.000050
      ESP Fit Center 1239 is at   0.898562  2.965053  0.000050
      ESP Fit Center 1240 is at   0.481806  3.001515  0.000050
      ESP Fit Center 1241 is at   0.065051  2.965053  0.000050
      ESP Fit Center 1242 is at  -0.339042  2.856777  0.000050
      ESP Fit Center 1243 is at  -0.718194  2.679976  0.000050
      ESP Fit Center 1244 is at  -1.060884  2.440021  0.000050
      ESP Fit Center 1245 is at   1.601813  2.682836 -0.416706
      ESP Fit Center 1246 is at   0.892230 -0.109361 -2.255212
      ESP Fit Center 1247 is at  -0.892162  0.109508  2.255314
      ESP Fit Center 1248 is at  -1.783804 -2.573914  0.416807
      ESP Fit Center 1249 is at  -1.410667 -2.774707  0.416807
      ESP Fit Center 1250 is at  -1.681737 -2.679829  0.000051
      ESP Fit Center 1251 is at  -1.302586 -2.856630  0.000051
      ESP Fit Center 1252 is at  -0.898493 -2.964906  0.000051
      ESP Fit Center 1253 is at  -0.481737 -3.001368  0.000051
      ESP Fit Center 1254 is at  -0.064982 -2.964906  0.000051
      ESP Fit Center 1255 is at   0.339111 -2.856630  0.000051
      ESP Fit Center 1256 is at   0.718263 -2.679829  0.000051
      ESP Fit Center 1257 is at   1.060953 -2.439874  0.000051
      ESP Fit Center 1258 is at  -1.783804 -2.573914 -0.416704
      ESP Fit Center 1259 is at  -1.410667 -2.774707 -0.416704
      ESP Fit Center 1260 is at  -0.892162  0.109508 -2.255211
      ESP Fit Center 1261 is at  -1.873047 -0.159695  2.399964
      ESP Fit Center 1262 is at  -1.456291 -0.159695  2.363503
      ESP Fit Center 1263 is at  -1.664669  0.201226  2.363503
      ESP Fit Center 1264 is at  -2.081425  0.201226  2.363503
      ESP Fit Center 1265 is at  -2.289803 -0.159695  2.363503
      ESP Fit Center 1266 is at  -2.081425 -0.520616  2.363503
      ESP Fit Center 1267 is at  -1.664669 -0.520616  2.363503
      ESP Fit Center 1268 is at  -1.162171  0.250729  2.255226
      ESP Fit Center 1269 is at  -1.462623  0.551181  2.255226
      ESP Fit Center 1270 is at  -1.873047  0.661154  2.255226
      ESP Fit Center 1271 is at  -2.583923 -0.570119  2.255226
      ESP Fit Center 1272 is at  -2.283471 -0.870570  2.255226
      ESP Fit Center 1273 is at  -1.873047 -0.980543  2.255226
      ESP Fit Center 1274 is at  -1.273047  0.879536  2.078425
      ESP Fit Center 1275 is at  -1.664669  1.022075  2.078425
      ESP Fit Center 1276 is at  -2.081425  1.022075  2.078425
      ESP Fit Center 1277 is at  -2.473047 -1.198925  2.078425
      ESP Fit Center 1278 is at  -2.081425 -1.341464  2.078425
      ESP Fit Center 1279 is at  -1.559177  1.350729  1.838471
      ESP Fit Center 1280 is at  -2.762686 -1.420026  1.838471
      ESP Fit Center 1281 is at  -2.389663 -1.613311  1.838471
      ESP Fit Center 1282 is at  -1.978324 -1.698789  1.838471
      ESP Fit Center 1283 is at  -1.553794  1.650881  1.542654
      ESP Fit Center 1284 is at  -2.792300 -1.751888  1.542654
      ESP Fit Center 1285 is at  -2.400337 -1.920965  1.542654
      ESP Fit Center 1286 is at  -1.979947 -1.995091  1.542654
      ESP Fit Center 1287 is at  -1.558310  1.894798  1.199964
      ESP Fit Center 1288 is at  -2.788389 -2.025746  1.199964
      ESP Fit Center 1289 is at  -2.394018 -2.171805  1.199964
      ESP Fit Center 1290 is at  -1.978319 -2.235488  1.199964
      ESP Fit Center 1291 is at  -3.000678 -2.112809  0.820813
      ESP Fit Center 1292 is at  -2.610671 -2.290919  0.820813
      ESP Fit Center 1293 is at  -2.194004 -2.392002  0.820813
      ESP Fit Center 1294 is at  -1.555781  2.182453  0.416720
      ESP Fit Center 1295 is at  -2.801977 -2.333034  0.416720
      ESP Fit Center 1296 is at  -2.398984 -2.463974  0.416720
      ESP Fit Center 1297 is at  -1.979087 -2.520853  0.416720
      ESP Fit Center 1298 is at  -1.456291  2.203844 -0.000036
      ESP Fit Center 1299 is at  -3.073047 -2.238156 -0.000036
      ESP Fit Center 1300 is at  -2.693895 -2.414957 -0.000036
      ESP Fit Center 1301 is at  -2.289803 -2.523233 -0.000036
      ESP Fit Center 1302 is at  -1.873047 -2.559695 -0.000036
      ESP Fit Center 1303 is at  -1.555781  2.182453 -0.416791
      ESP Fit Center 1304 is at  -2.801977 -2.333034 -0.416791
      ESP Fit Center 1305 is at  -2.398984 -2.463974 -0.416791
      ESP Fit Center 1306 is at  -1.979087 -2.520853 -0.416791
      ESP Fit Center 1307 is at  -3.000678 -2.112809 -0.820884
      ESP Fit Center 1308 is at  -2.610671 -2.290919 -0.820884
      ESP Fit Center 1309 is at  -2.194004 -2.392002 -0.820884
      ESP Fit Center 1310 is at  -1.558310  1.894798 -1.200036
      ESP Fit Center 1311 is at  -2.788389 -2.025746 -1.200036
      ESP Fit Center 1312 is at  -2.394018 -2.171805 -1.200036
      ESP Fit Center 1313 is at  -1.978319 -2.235488 -1.200036
      ESP Fit Center 1314 is at  -1.553794  1.650881 -1.542726
      ESP Fit Center 1315 is at  -2.792300 -1.751888 -1.542726
      ESP Fit Center 1316 is at  -2.400337 -1.920965 -1.542726
      ESP Fit Center 1317 is at  -1.979947 -1.995091 -1.542726
      ESP Fit Center 1318 is at  -1.559177  1.350729 -1.838542
      ESP Fit Center 1319 is at  -2.762686 -1.420026 -1.838542
      ESP Fit Center 1320 is at  -2.389663 -1.613311 -1.838542
      ESP Fit Center 1321 is at  -1.978324 -1.698789 -1.838542
      ESP Fit Center 1322 is at  -1.273047  0.879536 -2.078497
      ESP Fit Center 1323 is at  -1.664669  1.022075 -2.078497
      ESP Fit Center 1324 is at  -2.081425  1.022075 -2.078497
      ESP Fit Center 1325 is at  -2.473047 -1.198925 -2.078497
      ESP Fit Center 1326 is at  -2.081425 -1.341464 -2.078497
      ESP Fit Center 1327 is at  -1.162171  0.250729 -2.255298
      ESP Fit Center 1328 is at  -1.462623  0.551181 -2.255298
      ESP Fit Center 1329 is at  -1.873047  0.661154 -2.255298
      ESP Fit Center 1330 is at  -2.583923 -0.570119 -2.255298
      ESP Fit Center 1331 is at  -2.283471 -0.870570 -2.255298
      ESP Fit Center 1332 is at  -1.873047 -0.980543 -2.255298
      ESP Fit Center 1333 is at  -1.456291 -0.159695 -2.363574
      ESP Fit Center 1334 is at  -1.664669  0.201226 -2.363574
      ESP Fit Center 1335 is at  -2.081425  0.201226 -2.363574
      ESP Fit Center 1336 is at  -2.289803 -0.159695 -2.363574
      ESP Fit Center 1337 is at  -2.081425 -0.520616 -2.363574
      ESP Fit Center 1338 is at  -1.664669 -0.520616 -2.363574
      ESP Fit Center 1339 is at  -1.873047 -0.159695 -2.400036
      ESP Fit Center 1340 is at  -2.962275  0.207072  2.399960
      ESP Fit Center 1341 is at  -2.545520  0.207072  2.363498
      ESP Fit Center 1342 is at  -2.753898  0.567993  2.363498
      ESP Fit Center 1343 is at  -3.170653  0.567993  2.363498
      ESP Fit Center 1344 is at  -3.379031  0.207072  2.363498
      ESP Fit Center 1345 is at  -3.170653 -0.153849  2.363498
      ESP Fit Center 1346 is at  -2.753898 -0.153849  2.363498
      ESP Fit Center 1347 is at  -2.251400  0.617496  2.255222
      ESP Fit Center 1348 is at  -2.551851  0.917947  2.255222
      ESP Fit Center 1349 is at  -2.962275  1.027920  2.255222
      ESP Fit Center 1350 is at  -3.372700  0.917947  2.255222
      ESP Fit Center 1351 is at  -3.673151  0.617496  2.255222
      ESP Fit Center 1352 is at  -3.783124  0.207072  2.255222
      ESP Fit Center 1353 is at  -3.673151 -0.203353  2.255222
      ESP Fit Center 1354 is at  -3.372700 -0.503804  2.255222
      ESP Fit Center 1355 is at  -2.962275 -0.613777  2.255222
      ESP Fit Center 1356 is at  -2.362275  1.246302  2.078421
      ESP Fit Center 1357 is at  -2.753898  1.388841  2.078421
      ESP Fit Center 1358 is at  -3.170653  1.388841  2.078421
      ESP Fit Center 1359 is at  -3.562275  1.246302  2.078421
      ESP Fit Center 1360 is at  -3.881529  0.978417  2.078421
      ESP Fit Center 1361 is at  -4.089907  0.617496  2.078421
      ESP Fit Center 1362 is at  -4.162275  0.207072  2.078421
      ESP Fit Center 1363 is at  -4.089907 -0.203353  2.078421
      ESP Fit Center 1364 is at  -3.881529 -0.564274  2.078421
      ESP Fit Center 1365 is at  -3.562275 -0.832159  2.078421
      ESP Fit Center 1366 is at  -3.170653 -0.974698  2.078421
      ESP Fit Center 1367 is at  -2.753898 -0.974698  2.078421
      ESP Fit Center 1368 is at  -2.252538  1.576803  1.838466
      ESP Fit Center 1369 is at  -2.648406  1.717495  1.838466
      ESP Fit Center 1370 is at  -3.067552  1.746165  1.838466
      ESP Fit Center 1371 is at  -3.478891  1.660688  1.838466
      ESP Fit Center 1372 is at  -3.851915  1.467403  1.838466
      ESP Fit Center 1373 is at  -4.158958  1.180645  1.838466
      ESP Fit Center 1374 is at  -4.377248  0.821681  1.838466
      ESP Fit Center 1375 is at  -4.490597  0.417135  1.838466
      ESP Fit Center 1376 is at  -4.490597 -0.002991  1.838466
      ESP Fit Center 1377 is at  -4.377248 -0.407538  1.838466
      ESP Fit Center 1378 is at  -4.158958 -0.766502  1.838466
      ESP Fit Center 1379 is at  -3.851915 -1.053260  1.838466
      ESP Fit Center 1380 is at  -3.478891 -1.246545  1.838466
      ESP Fit Center 1381 is at  -3.067552 -1.332022  1.838466
      ESP Fit Center 1382 is at  -1.864395  1.681780  1.542650
      ESP Fit Center 1383 is at  -2.234080  1.895218  1.542650
      ESP Fit Center 1384 is at  -2.643022  2.017647  1.542650
      ESP Fit Center 1385 is at  -3.069175  2.042468  1.542650
      ESP Fit Center 1386 is at  -3.489565  1.968342  1.542650
      ESP Fit Center 1387 is at  -3.881529  1.799265  1.542650
      ESP Fit Center 1388 is at  -4.223935  1.544353  1.542650
      ESP Fit Center 1389 is at  -4.498325  1.217347  1.542650
      ESP Fit Center 1390 is at  -4.689907  0.835878  1.542650
      ESP Fit Center 1391 is at  -4.788351  0.420509  1.542650
      ESP Fit Center 1392 is at  -4.788351 -0.006366  1.542650
      ESP Fit Center 1393 is at  -4.689907 -0.421735  1.542650
      ESP Fit Center 1394 is at  -4.498325 -0.803204  1.542650
      ESP Fit Center 1395 is at  -4.223935 -1.130210  1.542650
      ESP Fit Center 1396 is at  -3.881529 -1.385122  1.542650
      ESP Fit Center 1397 is at  -3.489565 -1.554199  1.542650
      ESP Fit Center 1398 is at  -3.069175 -1.628325  1.542650
      ESP Fit Center 1399 is at  -1.862844  1.970946  1.199960
      ESP Fit Center 1400 is at  -2.240415  2.156153  1.199960
      ESP Fit Center 1401 is at  -2.647539  2.261564  1.199960
      ESP Fit Center 1402 is at  -3.067548  2.282865  1.199960
      ESP Fit Center 1403 is at  -3.483247  2.219182  1.199960
      ESP Fit Center 1404 is at  -3.877617  2.073123  1.199960
      ESP Fit Center 1405 is at  -4.234514  1.850668  1.199960
      ESP Fit Center 1406 is at  -4.539325  1.560924  1.199960
      ESP Fit Center 1407 is at  -4.779571  1.215753  1.199960
      ESP Fit Center 1408 is at  -4.945417  0.829286  1.199960
      ESP Fit Center 1409 is at  -5.030072  0.417346  1.199960
      ESP Fit Center 1410 is at  -5.030072 -0.003203  1.199960
      ESP Fit Center 1411 is at  -4.945417 -0.415143  1.199960
      ESP Fit Center 1412 is at  -4.779571 -0.801610  1.199960
      ESP Fit Center 1413 is at  -4.539325 -1.146781  1.199960
      ESP Fit Center 1414 is at  -4.234514 -1.436525  1.199960
      ESP Fit Center 1415 is at  -3.877617 -1.658980  1.199960
      ESP Fit Center 1416 is at  -3.483247 -1.805039  1.199960
      ESP Fit Center 1417 is at  -3.067548 -1.868722  1.199960
      ESP Fit Center 1418 is at  -2.025406  2.258530  0.820808
      ESP Fit Center 1419 is at  -2.430577  2.398762  0.820808
      ESP Fit Center 1420 is at  -2.854966  2.459779  0.820808
      ESP Fit Center 1421 is at  -3.283233  2.439379  0.820808
      ESP Fit Center 1422 is at  -3.699899  2.338296  0.820808
      ESP Fit Center 1423 is at  -4.089907  2.160186  0.820808
      ESP Fit Center 1424 is at  -4.439158  1.911485  0.820808
      ESP Fit Center 1425 is at  -4.735031  1.601182  0.820808
      ESP Fit Center 1426 is at  -4.966832  1.240493  0.820808
      ESP Fit Center 1427 is at  -5.126184  0.842452  0.820808
      ESP Fit Center 1428 is at  -5.207326  0.421448  0.820808
      ESP Fit Center 1429 is at  -5.207326 -0.007305  0.820808
      ESP Fit Center 1430 is at  -5.126184 -0.428309  0.820808
      ESP Fit Center 1431 is at  -4.966832 -0.826349  0.820808
      ESP Fit Center 1432 is at  -4.735031 -1.187039  0.820808
      ESP Fit Center 1433 is at  -4.439158 -1.497342  0.820808
      ESP Fit Center 1434 is at  -4.089907 -1.746043  0.820808
      ESP Fit Center 1435 is at  -3.699899 -1.924153  0.820808
      ESP Fit Center 1436 is at  -3.283233 -2.025235  0.820808
      ESP Fit Center 1437 is at  -1.842269  2.288393  0.416715
      ESP Fit Center 1438 is at  -2.231902  2.454930  0.416715
      ESP Fit Center 1439 is at  -2.645010  2.549220  0.416715
      ESP Fit Center 1440 is at  -3.068315  2.568230  0.416715
      ESP Fit Center 1441 is at  -3.488212  2.511351  0.416715
      ESP Fit Center 1442 is at  -3.891205  2.380411  0.416715
      ESP Fit Center 1443 is at  -4.264342  2.179618  0.416715
      ESP Fit Center 1444 is at  -4.595629  1.915425  0.416715
      ESP Fit Center 1445 is at  -4.874418  1.596325  0.416715
      ESP Fit Center 1446 is at  -5.091750  1.232573  0.416715
      ESP Fit Center 1447 is at  -5.240639  0.835860  0.416715
      ESP Fit Center 1448 is at  -5.316299  0.418938  0.416715
      ESP Fit Center 1449 is at  -5.316299 -0.004794  0.416715
      ESP Fit Center 1450 is at  -5.240639 -0.421717  0.416715
      ESP Fit Center 1451 is at  -5.091750 -0.818429  0.416715
      ESP Fit Center 1452 is at  -4.874418 -1.182182  0.416715
      ESP Fit Center 1453 is at  -4.595629 -1.501282  0.416715
      ESP Fit Center 1454 is at  -4.264342 -1.765475  0.416715
      ESP Fit Center 1455 is at  -3.891205 -1.966268  0.416715
      ESP Fit Center 1456 is at  -3.488212 -2.097208  0.416715
      ESP Fit Center 1457 is at  -1.762275  2.285533 -0.000040
      ESP Fit Center 1458 is at  -2.141427  2.462334 -0.000040
      ESP Fit Center 1459 is at  -2.545520  2.570610 -0.000040
      ESP Fit Center 1460 is at  -2.962275  2.607072 -0.000040
      ESP Fit Center 1461 is at  -3.379031  2.570610 -0.000040
      ESP Fit Center 1462 is at  -3.783124  2.462334 -0.000040
      ESP Fit Center 1463 is at  -4.162275  2.285533 -0.000040
      ESP Fit Center 1464 is at  -4.504966  2.045578 -0.000040
      ESP Fit Center 1465 is at  -4.800782  1.749762 -0.000040
      ESP Fit Center 1466 is at  -5.040736  1.407072 -0.000040
      ESP Fit Center 1467 is at  -5.217538  1.027920 -0.000040
      ESP Fit Center 1468 is at  -5.325814  0.623827 -0.000040
      ESP Fit Center 1469 is at  -5.362275  0.207072 -0.000040
      ESP Fit Center 1470 is at  -5.325814 -0.209684 -0.000040
      ESP Fit Center 1471 is at  -5.217538 -0.613777 -0.000040
      ESP Fit Center 1472 is at  -5.040736 -0.992928 -0.000040
      ESP Fit Center 1473 is at  -4.800782 -1.335619 -0.000040
      ESP Fit Center 1474 is at  -4.504966 -1.631435 -0.000040
      ESP Fit Center 1475 is at  -4.162275 -1.871389 -0.000040
      ESP Fit Center 1476 is at  -3.783124 -2.048191 -0.000040
      ESP Fit Center 1477 is at  -3.379031 -2.156467 -0.000040
      ESP Fit Center 1478 is at  -1.842269  2.288393 -0.416796
      ESP Fit Center 1479 is at  -2.231902  2.454930 -0.416796
      ESP Fit Center 1480 is at  -2.645010  2.549220 -0.416796
      ESP Fit Center 1481 is at  -3.068315  2.568230 -0.416796
      ESP Fit Center 1482 is at  -3.488212  2.511351 -0.416796
      ESP Fit Center 1483 is at  -3.891205  2.380411 -0.416796
      ESP Fit Center 1484 is at  -4.264342  2.179618 -0.416796
      ESP Fit Center 1485 is at  -4.595629  1.915425 -0.416796
      ESP Fit Center 1486 is at  -4.874418  1.596325 -0.416796
      ESP Fit Center 1487 is at  -5.091750  1.232573 -0.416796
      ESP Fit Center 1488 is at  -5.240639  0.835860 -0.416796
      ESP Fit Center 1489 is at  -5.316299  0.418938 -0.416796
      ESP Fit Center 1490 is at  -5.316299 -0.004794 -0.416796
      ESP Fit Center 1491 is at  -5.240639 -0.421717 -0.416796
      ESP Fit Center 1492 is at  -5.091750 -0.818429 -0.416796
      ESP Fit Center 1493 is at  -4.874418 -1.182182 -0.416796
      ESP Fit Center 1494 is at  -4.595629 -1.501282 -0.416796
      ESP Fit Center 1495 is at  -4.264342 -1.765475 -0.416796
      ESP Fit Center 1496 is at  -3.891205 -1.966268 -0.416796
      ESP Fit Center 1497 is at  -3.488212 -2.097208 -0.416796
      ESP Fit Center 1498 is at  -2.025406  2.258530 -0.820889
      ESP Fit Center 1499 is at  -2.430577  2.398762 -0.820889
      ESP Fit Center 1500 is at  -2.854966  2.459779 -0.820889
      ESP Fit Center 1501 is at  -3.283233  2.439379 -0.820889
      ESP Fit Center 1502 is at  -3.699899  2.338296 -0.820889
      ESP Fit Center 1503 is at  -4.089907  2.160186 -0.820889
      ESP Fit Center 1504 is at  -4.439158  1.911485 -0.820889
      ESP Fit Center 1505 is at  -4.735031  1.601182 -0.820889
      ESP Fit Center 1506 is at  -4.966832  1.240493 -0.820889
      ESP Fit Center 1507 is at  -5.126184  0.842452 -0.820889
      ESP Fit Center 1508 is at  -5.207326  0.421448 -0.820889
      ESP Fit Center 1509 is at  -5.207326 -0.007305 -0.820889
      ESP Fit Center 1510 is at  -5.126184 -0.428309 -0.820889
      ESP Fit Center 1511 is at  -4.966832 -0.826349 -0.820889
      ESP Fit Center 1512 is at  -4.735031 -1.187039 -0.820889
      ESP Fit Center 1513 is at  -4.439158 -1.497342 -0.820889
      ESP Fit Center 1514 is at  -4.089907 -1.746043 -0.820889
      ESP Fit Center 1515 is at  -3.699899 -1.924153 -0.820889
      ESP Fit Center 1516 is at  -3.283233 -2.025235 -0.820889
      ESP Fit Center 1517 is at  -1.862844  1.970946 -1.200040
      ESP Fit Center 1518 is at  -2.240415  2.156153 -1.200040
      ESP Fit Center 1519 is at  -2.647539  2.261564 -1.200040
      ESP Fit Center 1520 is at  -3.067548  2.282865 -1.200040
      ESP Fit Center 1521 is at  -3.483247  2.219182 -1.200040
      ESP Fit Center 1522 is at  -3.877617  2.073123 -1.200040
      ESP Fit Center 1523 is at  -4.234514  1.850668 -1.200040
      ESP Fit Center 1524 is at  -4.539325  1.560924 -1.200040
      ESP Fit Center 1525 is at  -4.779571  1.215753 -1.200040
      ESP Fit Center 1526 is at  -4.945417  0.829286 -1.200040
      ESP Fit Center 1527 is at  -5.030072  0.417346 -1.200040
      ESP Fit Center 1528 is at  -5.030072 -0.003203 -1.200040
      ESP Fit Center 1529 is at  -4.945417 -0.415143 -1.200040
      ESP Fit Center 1530 is at  -4.779571 -0.801610 -1.200040
      ESP Fit Center 1531 is at  -4.539325 -1.146781 -1.200040
      ESP Fit Center 1532 is at  -4.234514 -1.436525 -1.200040
      ESP Fit Center 1533 is at  -3.877617 -1.658980 -1.200040
      ESP Fit Center 1534 is at  -3.483247 -1.805039 -1.200040
      ESP Fit Center 1535 is at  -3.067548 -1.868722 -1.200040
      ESP Fit Center 1536 is at  -1.864395  1.681780 -1.542731
      ESP Fit Center 1537 is at  -2.234080  1.895218 -1.542731
      ESP Fit Center 1538 is at  -2.643022  2.017647 -1.542731
      ESP Fit Center 1539 is at  -3.069175  2.042468 -1.542731
      ESP Fit Center 1540 is at  -3.489565  1.968342 -1.542731
      ESP Fit Center 1541 is at  -3.881529  1.799265 -1.542731
      ESP Fit Center 1542 is at  -4.223935  1.544353 -1.542731
      ESP Fit Center 1543 is at  -4.498325  1.217347 -1.542731
      ESP Fit Center 1544 is at  -4.689907  0.835878 -1.542731
      ESP Fit Center 1545 is at  -4.788351  0.420509 -1.542731
      ESP Fit Center 1546 is at  -4.788351 -0.006366 -1.542731
      ESP Fit Center 1547 is at  -4.689907 -0.421735 -1.542731
      ESP Fit Center 1548 is at  -4.498325 -0.803204 -1.542731
      ESP Fit Center 1549 is at  -4.223935 -1.130210 -1.542731
      ESP Fit Center 1550 is at  -3.881529 -1.385122 -1.542731
      ESP Fit Center 1551 is at  -3.489565 -1.554199 -1.542731
      ESP Fit Center 1552 is at  -3.069175 -1.628325 -1.542731
      ESP Fit Center 1553 is at  -2.252538  1.576803 -1.838547
      ESP Fit Center 1554 is at  -2.648406  1.717495 -1.838547
      ESP Fit Center 1555 is at  -3.067552  1.746165 -1.838547
      ESP Fit Center 1556 is at  -3.478891  1.660688 -1.838547
      ESP Fit Center 1557 is at  -3.851915  1.467403 -1.838547
      ESP Fit Center 1558 is at  -4.158958  1.180645 -1.838547
      ESP Fit Center 1559 is at  -4.377248  0.821681 -1.838547
      ESP Fit Center 1560 is at  -4.490597  0.417135 -1.838547
      ESP Fit Center 1561 is at  -4.490597 -0.002991 -1.838547
      ESP Fit Center 1562 is at  -4.377248 -0.407538 -1.838547
      ESP Fit Center 1563 is at  -4.158958 -0.766502 -1.838547
      ESP Fit Center 1564 is at  -3.851915 -1.053260 -1.838547
      ESP Fit Center 1565 is at  -3.478891 -1.246545 -1.838547
      ESP Fit Center 1566 is at  -3.067552 -1.332022 -1.838547
      ESP Fit Center 1567 is at  -2.362275  1.246302 -2.078501
      ESP Fit Center 1568 is at  -2.753898  1.388841 -2.078501
      ESP Fit Center 1569 is at  -3.170653  1.388841 -2.078501
      ESP Fit Center 1570 is at  -3.562275  1.246302 -2.078501
      ESP Fit Center 1571 is at  -3.881529  0.978417 -2.078501
      ESP Fit Center 1572 is at  -4.089907  0.617496 -2.078501
      ESP Fit Center 1573 is at  -4.162275  0.207072 -2.078501
      ESP Fit Center 1574 is at  -4.089907 -0.203353 -2.078501
      ESP Fit Center 1575 is at  -3.881529 -0.564274 -2.078501
      ESP Fit Center 1576 is at  -3.562275 -0.832159 -2.078501
      ESP Fit Center 1577 is at  -3.170653 -0.974698 -2.078501
      ESP Fit Center 1578 is at  -2.753898 -0.974698 -2.078501
      ESP Fit Center 1579 is at  -2.251400  0.617496 -2.255303
      ESP Fit Center 1580 is at  -2.551851  0.917947 -2.255303
      ESP Fit Center 1581 is at  -2.962275  1.027920 -2.255303
      ESP Fit Center 1582 is at  -3.372700  0.917947 -2.255303
      ESP Fit Center 1583 is at  -3.673151  0.617496 -2.255303
      ESP Fit Center 1584 is at  -3.783124  0.207072 -2.255303
      ESP Fit Center 1585 is at  -3.673151 -0.203353 -2.255303
      ESP Fit Center 1586 is at  -3.372700 -0.503804 -2.255303
      ESP Fit Center 1587 is at  -2.962275 -0.613777 -2.255303
      ESP Fit Center 1588 is at  -2.545520  0.207072 -2.363579
      ESP Fit Center 1589 is at  -2.753898  0.567993 -2.363579
      ESP Fit Center 1590 is at  -3.170653  0.567993 -2.363579
      ESP Fit Center 1591 is at  -3.379031  0.207072 -2.363579
      ESP Fit Center 1592 is at  -3.170653 -0.153849 -2.363579
      ESP Fit Center 1593 is at  -2.753898 -0.153849 -2.363579
      ESP Fit Center 1594 is at  -2.962275  0.207072 -2.400040
      ESP Fit Center 1595 is at  -1.123240 -2.911486 -0.453173
      ESP Fit Center 1596 is at  -0.727598 -3.049927 -0.453173
      ESP Fit Center 1597 is at  -0.311070 -3.096858 -0.453173
      ESP Fit Center 1598 is at   0.105458 -3.049927 -0.453173
      ESP Fit Center 1599 is at   0.501100 -2.911486 -0.453173
      ESP Fit Center 1600 is at   0.856017 -2.688477 -0.453173
      ESP Fit Center 1601 is at   1.152410 -2.392083 -0.453173
      ESP Fit Center 1602 is at  -1.704981 -2.545380 -0.880414
      ESP Fit Center 1603 is at  -1.388549 -2.814160 -0.880414
      ESP Fit Center 1604 is at  -1.021735 -3.008632 -0.880414
      ESP Fit Center 1605 is at  -0.621692 -3.119704 -0.880414
      ESP Fit Center 1606 is at  -0.207123 -3.142181 -0.880414
      ESP Fit Center 1607 is at   0.202584 -3.075013 -0.880414
      ESP Fit Center 1608 is at   0.588274 -2.921340 -0.880414
      ESP Fit Center 1609 is at   0.931912 -2.688348 -0.880414
      ESP Fit Center 1610 is at   1.217429 -2.386931 -0.880414
      ESP Fit Center 1611 is at   1.431475 -2.031184 -0.880414
      ESP Fit Center 1612 is at  -1.774550 -2.392083 -1.307654
      ESP Fit Center 1613 is at  -1.478157 -2.688477 -1.307654
      ESP Fit Center 1614 is at  -1.123240 -2.911486 -1.307654
      ESP Fit Center 1615 is at  -0.727598 -3.049927 -1.307654
      ESP Fit Center 1616 is at  -0.311070 -3.096858 -1.307654
      ESP Fit Center 1617 is at   0.105458 -3.049927 -1.307654
      ESP Fit Center 1618 is at   0.501100 -2.911486 -1.307654
      ESP Fit Center 1619 is at   0.856017 -2.688477 -1.307654
      ESP Fit Center 1620 is at   1.152410 -2.392083 -1.307654
      ESP Fit Center 1621 is at   1.375419 -2.037167 -1.307654
      ESP Fit Center 1622 is at  -1.842785 -2.028903 -1.713470
      ESP Fit Center 1623 is at  -1.605889 -2.372106 -1.713470
      ESP Fit Center 1624 is at  -1.293743 -2.648644 -1.713470
      ESP Fit Center 1625 is at  -0.924487 -2.842444 -1.713470
      ESP Fit Center 1626 is at  -0.519582 -2.942244 -1.713470
      ESP Fit Center 1627 is at  -0.102558 -2.942244 -1.713470
      ESP Fit Center 1628 is at   0.302347 -2.842444 -1.713470
      ESP Fit Center 1629 is at   0.671603 -2.648644 -1.713470
      ESP Fit Center 1630 is at   0.983749 -2.372106 -1.713470
      ESP Fit Center 1631 is at   1.220645 -2.028903 -1.713470
      ESP Fit Center 1632 is at   1.368524 -1.638979 -1.713470
      ESP Fit Center 1633 is at   1.190046 -1.224997 -2.077514
      ESP Fit Center 1634 is at   1.129241 -0.802083 -2.077514
      ESP Fit Center 1635 is at  -1.751381 -1.647910 -2.077514
      ESP Fit Center 1636 is at  -1.573890 -2.036562 -2.077514
      ESP Fit Center 1637 is at  -1.294092 -2.359465 -2.077514
      ESP Fit Center 1638 is at  -0.934656 -2.590460 -2.077514
      ESP Fit Center 1639 is at  -0.524701 -2.710834 -2.077514
      ESP Fit Center 1640 is at  -0.097439 -2.710834 -2.077514
      ESP Fit Center 1641 is at   0.312516 -2.590460 -2.077514
      ESP Fit Center 1642 is at   0.671952 -2.359465 -2.077514
      ESP Fit Center 1643 is at   0.951749 -2.036562 -2.077514
      ESP Fit Center 1644 is at   1.129241 -1.647910 -2.077514
      ESP Fit Center 1645 is at   0.886030 -1.224997 -2.381530
      ESP Fit Center 1646 is at   0.813836 -0.815564 -2.381530
      ESP Fit Center 1647 is at   0.605962 -0.455515 -2.381530
      ESP Fit Center 1648 is at   0.287480 -0.188277 -2.381530
      ESP Fit Center 1649 is at  -0.103196 -0.046083 -2.381530
      ESP Fit Center 1650 is at  -0.518944 -0.046083 -2.381530
      ESP Fit Center 1651 is at  -0.909620 -0.188277 -2.381530
      ESP Fit Center 1652 is at  -1.228102 -0.455515 -2.381530
      ESP Fit Center 1653 is at  -1.435977 -0.815564 -2.381530
      ESP Fit Center 1654 is at  -1.508171 -1.224997 -2.381530
      ESP Fit Center 1655 is at  -1.435977 -1.634429 -2.381530
      ESP Fit Center 1656 is at  -1.228102 -1.994478 -2.381530
      ESP Fit Center 1657 is at  -0.909620 -2.261716 -2.381530
      ESP Fit Center 1658 is at  -0.518944 -2.403910 -2.381530
      ESP Fit Center 1659 is at  -0.103196 -2.403910 -2.381530
      ESP Fit Center 1660 is at   0.287480 -2.261716 -2.381530
      ESP Fit Center 1661 is at   0.605962 -1.994478 -2.381530
      ESP Fit Center 1662 is at   0.813836 -1.634429 -2.381530
      ESP Fit Center 1663 is at   0.521987 -1.224997 -2.610274
      ESP Fit Center 1664 is at   0.410378 -0.808468 -2.610274
      ESP Fit Center 1665 is at   0.105458 -0.503548 -2.610274
      ESP Fit Center 1666 is at  -0.311070 -0.391940 -2.610274
      ESP Fit Center 1667 is at  -0.727598 -0.503548 -2.610274
      ESP Fit Center 1668 is at  -1.032518 -0.808468 -2.610274
      ESP Fit Center 1669 is at  -1.144127 -1.224997 -2.610274
      ESP Fit Center 1670 is at  -1.032518 -1.641525 -2.610274
      ESP Fit Center 1671 is at  -0.727598 -1.946445 -2.610274
      ESP Fit Center 1672 is at  -0.311070 -2.058053 -2.610274
      ESP Fit Center 1673 is at   0.105458 -1.946445 -2.610274
      ESP Fit Center 1674 is at   0.410378 -1.641525 -2.610274
      ESP Fit Center 1675 is at   0.116170 -1.224997 -2.752275
      ESP Fit Center 1676 is at  -0.097450 -0.854996 -2.752275
      ESP Fit Center 1677 is at  -0.524690 -0.854996 -2.752275
      ESP Fit Center 1678 is at  -0.738310 -1.224997 -2.752275
      ESP Fit Center 1679 is at  -0.524690 -1.594998 -2.752275
      ESP Fit Center 1680 is at  -0.097450 -1.594998 -2.752275
      ESP Fit Center 1681 is at  -0.311070 -1.224997 -2.800414
      ESP Fit Center 1682 is at  -0.311173 -1.224899  2.800601
      ESP Fit Center 1683 is at   0.116067 -1.224899  2.752463
      ESP Fit Center 1684 is at  -0.097553 -0.854898  2.752463
      ESP Fit Center 1685 is at  -0.524793 -0.854898  2.752463
      ESP Fit Center 1686 is at  -0.738413 -1.224899  2.752463
      ESP Fit Center 1687 is at  -0.524793 -1.594900  2.752463
      ESP Fit Center 1688 is at  -0.097553 -1.594900  2.752463
      ESP Fit Center 1689 is at   0.521884 -1.224899  2.610462
      ESP Fit Center 1690 is at   0.410275 -0.808370  2.610462
      ESP Fit Center 1691 is at   0.105355 -0.503450  2.610462
      ESP Fit Center 1692 is at  -0.311173 -0.391842  2.610462
      ESP Fit Center 1693 is at  -0.727702 -0.503450  2.610462
      ESP Fit Center 1694 is at  -1.032621 -0.808370  2.610462
      ESP Fit Center 1695 is at  -1.144230 -1.224899  2.610462
      ESP Fit Center 1696 is at  -1.032621 -1.641427  2.610462
      ESP Fit Center 1697 is at  -0.727702 -1.946347  2.610462
      ESP Fit Center 1698 is at  -0.311173 -2.057956  2.610462
      ESP Fit Center 1699 is at   0.105355 -1.946347  2.610462
      ESP Fit Center 1700 is at   0.410275 -1.641427  2.610462
      ESP Fit Center 1701 is at   0.885927 -1.224899  2.381718
      ESP Fit Center 1702 is at   0.813733 -0.815466  2.381718
      ESP Fit Center 1703 is at   0.605859 -0.455417  2.381718
      ESP Fit Center 1704 is at   0.287377 -0.188179  2.381718
      ESP Fit Center 1705 is at  -0.103299 -0.045985  2.381718
      ESP Fit Center 1706 is at  -0.519047 -0.045985  2.381718
      ESP Fit Center 1707 is at  -0.909723 -0.188179  2.381718
      ESP Fit Center 1708 is at  -1.228205 -0.455417  2.381718
      ESP Fit Center 1709 is at  -1.436080 -0.815466  2.381718
      ESP Fit Center 1710 is at  -1.508274 -1.224899  2.381718
      ESP Fit Center 1711 is at  -1.436080 -1.634331  2.381718
      ESP Fit Center 1712 is at  -1.228205 -1.994380  2.381718
      ESP Fit Center 1713 is at  -0.909723 -2.261618  2.381718
      ESP Fit Center 1714 is at  -0.519047 -2.403813  2.381718
      ESP Fit Center 1715 is at  -0.103299 -2.403813  2.381718
      ESP Fit Center 1716 is at   0.287377 -2.261618  2.381718
      ESP Fit Center 1717 is at   0.605859 -1.994380  2.381718
      ESP Fit Center 1718 is at   0.813733 -1.634331  2.381718
      ESP Fit Center 1719 is at   1.189943 -1.224899  2.077702
      ESP Fit Center 1720 is at   1.129138 -0.801985  2.077702
      ESP Fit Center 1721 is at  -1.751484 -1.647812  2.077702
      ESP Fit Center 1722 is at  -1.573993 -2.036464  2.077702
      ESP Fit Center 1723 is at  -1.294195 -2.359367  2.077702
      ESP Fit Center 1724 is at  -0.934759 -2.590362  2.077702
      ESP Fit Center 1725 is at  -0.524804 -2.710736  2.077702
      ESP Fit Center 1726 is at  -0.097542 -2.710736  2.077702
      ESP Fit Center 1727 is at   0.312413 -2.590362  2.077702
      ESP Fit Center 1728 is at   0.671849 -2.359367  2.077702
      ESP Fit Center 1729 is at   0.951646 -2.036464  2.077702
      ESP Fit Center 1730 is at   1.129138 -1.647812  2.077702
      ESP Fit Center 1731 is at  -1.842888 -2.028805  1.713658
      ESP Fit Center 1732 is at  -1.605992 -2.372008  1.713658
      ESP Fit Center 1733 is at  -1.293846 -2.648546  1.713658
      ESP Fit Center 1734 is at  -0.924590 -2.842346  1.713658
      ESP Fit Center 1735 is at  -0.519685 -2.942146  1.713658
      ESP Fit Center 1736 is at  -0.102662 -2.942146  1.713658
      ESP Fit Center 1737 is at   0.302244 -2.842346  1.713658
      ESP Fit Center 1738 is at   0.671499 -2.648546  1.713658
      ESP Fit Center 1739 is at   0.983646 -2.372008  1.713658
      ESP Fit Center 1740 is at   1.220542 -2.028805  1.713658
      ESP Fit Center 1741 is at   1.368420 -1.638881  1.713658
      ESP Fit Center 1742 is at  -1.774653 -2.391985  1.307842
      ESP Fit Center 1743 is at  -1.478260 -2.688379  1.307842
      ESP Fit Center 1744 is at  -1.123343 -2.911388  1.307842
      ESP Fit Center 1745 is at  -0.727702 -3.049829  1.307842
      ESP Fit Center 1746 is at  -0.311173 -3.096760  1.307842
      ESP Fit Center 1747 is at   0.105355 -3.049829  1.307842
      ESP Fit Center 1748 is at   0.500997 -2.911388  1.307842
      ESP Fit Center 1749 is at   0.855913 -2.688379  1.307842
      ESP Fit Center 1750 is at   1.152307 -2.391985  1.307842
      ESP Fit Center 1751 is at   1.375316 -2.037069  1.307842
      ESP Fit Center 1752 is at  -1.705084 -2.545282  0.880601
      ESP Fit Center 1753 is at  -1.388652 -2.814062  0.880601
      ESP Fit Center 1754 is at  -1.021838 -3.008534  0.880601
      ESP Fit Center 1755 is at  -0.621795 -3.119606  0.880601
      ESP Fit Center 1756 is at  -0.207226 -3.142083  0.880601
      ESP Fit Center 1757 is at   0.202481 -3.074915  0.880601
      ESP Fit Center 1758 is at   0.588171 -2.921242  0.880601
      ESP Fit Center 1759 is at   0.931809 -2.688250  0.880601
      ESP Fit Center 1760 is at   1.217326 -2.386833  0.880601
      ESP Fit Center 1761 is at   1.431372 -2.031086  0.880601
      ESP Fit Center 1762 is at  -1.123343 -2.911388  0.453361
      ESP Fit Center 1763 is at  -0.727702 -3.049829  0.453361
      ESP Fit Center 1764 is at  -0.311173 -3.096760  0.453361
      ESP Fit Center 1765 is at   0.105355 -3.049829  0.453361
      ESP Fit Center 1766 is at   0.500997 -2.911388  0.453361
      ESP Fit Center 1767 is at   0.855913 -2.688379  0.453361
      ESP Fit Center 1768 is at   1.152307 -2.391985  0.453361
      ESP Fit Center 1769 is at   1.123321  2.911610 -0.453193
      ESP Fit Center 1770 is at   0.727680  3.050051 -0.453193
      ESP Fit Center 1771 is at   0.311151  3.096982 -0.453193
      ESP Fit Center 1772 is at  -0.105377  3.050051 -0.453193
      ESP Fit Center 1773 is at  -0.501019  2.911610 -0.453193
      ESP Fit Center 1774 is at  -0.855935  2.688601 -0.453193
      ESP Fit Center 1775 is at  -1.152329  2.392207 -0.453193
      ESP Fit Center 1776 is at   1.554133  2.688472 -0.880433
      ESP Fit Center 1777 is at   1.210495  2.921464 -0.880433
      ESP Fit Center 1778 is at   0.824806  3.075137 -0.880433
      ESP Fit Center 1779 is at   0.415098  3.142305 -0.880433
      ESP Fit Center 1780 is at   0.000530  3.119828 -0.880433
      ESP Fit Center 1781 is at  -0.399514  3.008756 -0.880433
      ESP Fit Center 1782 is at  -0.766328  2.814284 -0.880433
      ESP Fit Center 1783 is at  -1.082760  2.545504 -0.880433
      ESP Fit Center 1784 is at  -1.334015  2.214984 -0.880433
      ESP Fit Center 1785 is at   1.774631  2.392207 -1.307673
      ESP Fit Center 1786 is at   1.478238  2.688601 -1.307673
      ESP Fit Center 1787 is at   1.123321  2.911610 -1.307673
      ESP Fit Center 1788 is at   0.727680  3.050051 -1.307673
      ESP Fit Center 1789 is at   0.311151  3.096982 -1.307673
      ESP Fit Center 1790 is at  -0.105377  3.050051 -1.307673
      ESP Fit Center 1791 is at  -0.501019  2.911610 -1.307673
      ESP Fit Center 1792 is at  -0.855935  2.688601 -1.307673
      ESP Fit Center 1793 is at  -1.152329  2.392207 -1.307673
      ESP Fit Center 1794 is at  -1.375338  2.037291 -1.307673
      ESP Fit Center 1795 is at   1.842866  2.029027 -1.713490
      ESP Fit Center 1796 is at   1.605970  2.372230 -1.713490
      ESP Fit Center 1797 is at   1.293824  2.648768 -1.713490
      ESP Fit Center 1798 is at   0.924568  2.842568 -1.713490
      ESP Fit Center 1799 is at   0.519663  2.942368 -1.713490
      ESP Fit Center 1800 is at   0.102640  2.942368 -1.713490
      ESP Fit Center 1801 is at  -0.302266  2.842568 -1.713490
      ESP Fit Center 1802 is at  -0.671521  2.648768 -1.713490
      ESP Fit Center 1803 is at  -0.983668  2.372230 -1.713490
      ESP Fit Center 1804 is at  -1.220564  2.029027 -1.713490
      ESP Fit Center 1805 is at  -1.368443  1.639103 -1.713490
      ESP Fit Center 1806 is at   1.751462  1.648034 -2.077534
      ESP Fit Center 1807 is at   1.573971  2.036685 -2.077534
      ESP Fit Center 1808 is at   1.294173  2.359589 -2.077534
      ESP Fit Center 1809 is at   0.934737  2.590584 -2.077534
      ESP Fit Center 1810 is at   0.524782  2.710958 -2.077534
      ESP Fit Center 1811 is at   0.097520  2.710958 -2.077534
      ESP Fit Center 1812 is at  -0.312435  2.590584 -2.077534
      ESP Fit Center 1813 is at  -0.671871  2.359589 -2.077534
      ESP Fit Center 1814 is at  -0.951668  2.036685 -2.077534
      ESP Fit Center 1815 is at  -1.129160  1.648034 -2.077534
      ESP Fit Center 1816 is at  -1.189965  1.225121 -2.077534
      ESP Fit Center 1817 is at  -1.129160  0.802207 -2.077534
      ESP Fit Center 1818 is at   1.508252  1.225121 -2.381550
      ESP Fit Center 1819 is at   1.436058  1.634553 -2.381550
      ESP Fit Center 1820 is at   1.228183  1.994602 -2.381550
      ESP Fit Center 1821 is at   0.909701  2.261840 -2.381550
      ESP Fit Center 1822 is at   0.519025  2.404034 -2.381550
      ESP Fit Center 1823 is at   0.103277  2.404034 -2.381550
      ESP Fit Center 1824 is at  -0.287399  2.261840 -2.381550
      ESP Fit Center 1825 is at  -0.605881  1.994602 -2.381550
      ESP Fit Center 1826 is at  -0.813755  1.634553 -2.381550
      ESP Fit Center 1827 is at  -0.885949  1.225121 -2.381550
      ESP Fit Center 1828 is at  -0.813755  0.815688 -2.381550
      ESP Fit Center 1829 is at  -0.605881  0.455639 -2.381550
      ESP Fit Center 1830 is at  -0.287399  0.188401 -2.381550
      ESP Fit Center 1831 is at   0.103277  0.046207 -2.381550
      ESP Fit Center 1832 is at   0.519025  0.046207 -2.381550
      ESP Fit Center 1833 is at   0.909701  0.188401 -2.381550
      ESP Fit Center 1834 is at   1.228183  0.455639 -2.381550
      ESP Fit Center 1835 is at   1.436058  0.815688 -2.381550
      ESP Fit Center 1836 is at   1.144208  1.225121 -2.610293
      ESP Fit Center 1837 is at   1.032599  1.641649 -2.610293
      ESP Fit Center 1838 is at   0.727680  1.946569 -2.610293
      ESP Fit Center 1839 is at   0.311151  2.058177 -2.610293
      ESP Fit Center 1840 is at  -0.105377  1.946569 -2.610293
      ESP Fit Center 1841 is at  -0.410297  1.641649 -2.610293
      ESP Fit Center 1842 is at  -0.521906  1.225121 -2.610293
      ESP Fit Center 1843 is at  -0.410297  0.808592 -2.610293
      ESP Fit Center 1844 is at  -0.105377  0.503672 -2.610293
      ESP Fit Center 1845 is at   0.311151  0.392064 -2.610293
      ESP Fit Center 1846 is at   0.727680  0.503672 -2.610293
      ESP Fit Center 1847 is at   1.032599  0.808592 -2.610293
      ESP Fit Center 1848 is at   0.738391  1.225121 -2.752295
      ESP Fit Center 1849 is at   0.524771  1.595122 -2.752295
      ESP Fit Center 1850 is at   0.097531  1.595122 -2.752295
      ESP Fit Center 1851 is at  -0.116089  1.225121 -2.752295
      ESP Fit Center 1852 is at   0.097531  0.855120 -2.752295
      ESP Fit Center 1853 is at   0.524771  0.855120 -2.752295
      ESP Fit Center 1854 is at   0.311151  1.225121 -2.800433
      ESP Fit Center 1855 is at   0.311201  1.225065  2.800576
      ESP Fit Center 1856 is at   0.738441  1.225065  2.752437
      ESP Fit Center 1857 is at   0.524821  1.595066  2.752437
      ESP Fit Center 1858 is at   0.097581  1.595066  2.752437
      ESP Fit Center 1859 is at  -0.116039  1.225065  2.752437
      ESP Fit Center 1860 is at   0.097581  0.855064  2.752437
      ESP Fit Center 1861 is at   0.524821  0.855064  2.752437
      ESP Fit Center 1862 is at   1.144258  1.225065  2.610436
      ESP Fit Center 1863 is at   1.032650  1.641594  2.610436
      ESP Fit Center 1864 is at   0.727730  1.946514  2.610436
      ESP Fit Center 1865 is at   0.311201  2.058122  2.610436
      ESP Fit Center 1866 is at  -0.105327  1.946514  2.610436
      ESP Fit Center 1867 is at  -0.410247  1.641594  2.610436
      ESP Fit Center 1868 is at  -0.521856  1.225065  2.610436
      ESP Fit Center 1869 is at  -0.410247  0.808537  2.610436
      ESP Fit Center 1870 is at  -0.105327  0.503617  2.610436
      ESP Fit Center 1871 is at   0.311201  0.392009  2.610436
      ESP Fit Center 1872 is at   0.727730  0.503617  2.610436
      ESP Fit Center 1873 is at   1.032650  0.808537  2.610436
      ESP Fit Center 1874 is at   1.508302  1.225065  2.381692
      ESP Fit Center 1875 is at   1.436108  1.634498  2.381692
      ESP Fit Center 1876 is at   1.228233  1.994547  2.381692
      ESP Fit Center 1877 is at   0.909751  2.261785  2.381692
      ESP Fit Center 1878 is at   0.519076  2.403979  2.381692
      ESP Fit Center 1879 is at   0.103327  2.403979  2.381692
      ESP Fit Center 1880 is at  -0.287349  2.261785  2.381692
      ESP Fit Center 1881 is at  -0.605831  1.994547  2.381692
      ESP Fit Center 1882 is at  -0.813705  1.634498  2.381692
      ESP Fit Center 1883 is at  -0.885899  1.225065  2.381692
      ESP Fit Center 1884 is at  -0.813705  0.815633  2.381692
      ESP Fit Center 1885 is at  -0.605831  0.455584  2.381692
      ESP Fit Center 1886 is at  -0.287349  0.188346  2.381692
      ESP Fit Center 1887 is at   0.103327  0.046152  2.381692
      ESP Fit Center 1888 is at   0.519076  0.046152  2.381692
      ESP Fit Center 1889 is at   0.909751  0.188346  2.381692
      ESP Fit Center 1890 is at   1.228233  0.455584  2.381692
      ESP Fit Center 1891 is at   1.436108  0.815633  2.381692
      ESP Fit Center 1892 is at   1.751512  1.647979  2.077676
      ESP Fit Center 1893 is at   1.574021  2.036630  2.077676
      ESP Fit Center 1894 is at   1.294223  2.359533  2.077676
      ESP Fit Center 1895 is at   0.934788  2.590529  2.077676
      ESP Fit Center 1896 is at   0.524832  2.710903  2.077676
      ESP Fit Center 1897 is at   0.097570  2.710903  2.077676
      ESP Fit Center 1898 is at  -0.312385  2.590529  2.077676
      ESP Fit Center 1899 is at  -0.671821  2.359533  2.077676
      ESP Fit Center 1900 is at  -0.951618  2.036630  2.077676
      ESP Fit Center 1901 is at  -1.129109  1.647979  2.077676
      ESP Fit Center 1902 is at  -1.189915  1.225065  2.077676
      ESP Fit Center 1903 is at  -1.129109  0.802152  2.077676
      ESP Fit Center 1904 is at   1.842916  2.028971  1.713632
      ESP Fit Center 1905 is at   1.606020  2.372175  1.713632
      ESP Fit Center 1906 is at   1.293874  2.648712  1.713632
      ESP Fit Center 1907 is at   0.924618  2.842513  1.713632
      ESP Fit Center 1908 is at   0.519713  2.942313  1.713632
      ESP Fit Center 1909 is at   0.102690  2.942313  1.713632
      ESP Fit Center 1910 is at  -0.302216  2.842513  1.713632
      ESP Fit Center 1911 is at  -0.671471  2.648712  1.713632
      ESP Fit Center 1912 is at  -0.983618  2.372175  1.713632
      ESP Fit Center 1913 is at  -1.220514  2.028971  1.713632
      ESP Fit Center 1914 is at  -1.368392  1.639048  1.713632
      ESP Fit Center 1915 is at   1.774682  2.392152  1.307816
      ESP Fit Center 1916 is at   1.478288  2.688546  1.307816
      ESP Fit Center 1917 is at   1.123372  2.911554  1.307816
      ESP Fit Center 1918 is at   0.727730  3.049995  1.307816
      ESP Fit Center 1919 is at   0.311201  3.096927  1.307816
      ESP Fit Center 1920 is at  -0.105327  3.049995  1.307816
      ESP Fit Center 1921 is at  -0.500969  2.911554  1.307816
      ESP Fit Center 1922 is at  -0.855885  2.688546  1.307816
      ESP Fit Center 1923 is at  -1.152279  2.392152  1.307816
      ESP Fit Center 1924 is at  -1.375288  2.037236  1.307816
      ESP Fit Center 1925 is at   1.554183  2.688416  0.880576
      ESP Fit Center 1926 is at   1.210545  2.921408  0.880576
      ESP Fit Center 1927 is at   0.824856  3.075081  0.880576
      ESP Fit Center 1928 is at   0.415148  3.142249  0.880576
      ESP Fit Center 1929 is at   0.000580  3.119772  0.880576
      ESP Fit Center 1930 is at  -0.399464  3.008701  0.880576
      ESP Fit Center 1931 is at  -0.766278  2.814228  0.880576
      ESP Fit Center 1932 is at  -1.082710  2.545448  0.880576
      ESP Fit Center 1933 is at  -1.333965  2.214929  0.880576
      ESP Fit Center 1934 is at   1.123372  2.911554  0.453336
      ESP Fit Center 1935 is at   0.727730  3.049995  0.453336
      ESP Fit Center 1936 is at   0.311201  3.096927  0.453336
      ESP Fit Center 1937 is at  -0.105327  3.049995  0.453336
      ESP Fit Center 1938 is at  -0.500969  2.911554  0.453336
      ESP Fit Center 1939 is at  -0.855885  2.688546  0.453336
      ESP Fit Center 1940 is at  -1.152279  2.392152  0.453336
      ESP Fit Center 1941 is at   2.962202 -0.207255  2.699954
      ESP Fit Center 1942 is at   3.384575 -0.207255  2.666713
      ESP Fit Center 1943 is at   3.173389  0.158531  2.666713
      ESP Fit Center 1944 is at   2.751016  0.158531  2.666713
      ESP Fit Center 1945 is at   2.539829 -0.207255  2.666713
      ESP Fit Center 1946 is at   2.751016 -0.573041  2.666713
      ESP Fit Center 1947 is at   3.173389 -0.573041  2.666713
      ESP Fit Center 1948 is at   3.796548 -0.207255  2.567807
      ESP Fit Center 1949 is at   3.684767  0.209918  2.567807
      ESP Fit Center 1950 is at   3.379375  0.515310  2.567807
      ESP Fit Center 1951 is at   2.962202  0.627091  2.567807
      ESP Fit Center 1952 is at   2.239637 -0.624428  2.567807
      ESP Fit Center 1953 is at   2.545029 -0.929820  2.567807
      ESP Fit Center 1954 is at   2.962202 -1.041601  2.567807
      ESP Fit Center 1955 is at   3.379375 -0.929820  2.567807
      ESP Fit Center 1956 is at   3.684767 -0.624428  2.567807
      ESP Fit Center 1957 is at   4.187976 -0.207255  2.405672
      ESP Fit Center 1958 is at   4.114053  0.211984  2.405672
      ESP Fit Center 1959 is at   3.901200  0.580658  2.405672
      ESP Fit Center 1960 is at   3.575089  0.854297  2.405672
      ESP Fit Center 1961 is at   3.175056  0.999897  2.405672
      ESP Fit Center 1962 is at   2.349315 -1.268807  2.405672
      ESP Fit Center 1963 is at   2.749349 -1.414407  2.405672
      ESP Fit Center 1964 is at   3.175056 -1.414407  2.405672
      ESP Fit Center 1965 is at   3.575089 -1.268807  2.405672
      ESP Fit Center 1966 is at   3.901200 -0.995168  2.405672
      ESP Fit Center 1967 is at   4.114053 -0.626495  2.405672
      ESP Fit Center 1968 is at   4.549222 -0.207255  2.184300
      ESP Fit Center 1969 is at   4.495146  0.203496  2.184300
      ESP Fit Center 1970 is at   4.336602  0.586255  2.184300
      ESP Fit Center 1971 is at   4.084395  0.914938  2.184300
      ESP Fit Center 1972 is at   3.755712  1.167145  2.184300
      ESP Fit Center 1973 is at   3.372953  1.325689  2.184300
      ESP Fit Center 1974 is at   2.962202  1.379765  2.184300
      ESP Fit Center 1975 is at   2.168692 -1.581655  2.184300
      ESP Fit Center 1976 is at   2.551451 -1.740199  2.184300
      ESP Fit Center 1977 is at   2.962202 -1.794275  2.184300
      ESP Fit Center 1978 is at   3.372953 -1.740199  2.184300
      ESP Fit Center 1979 is at   3.755712 -1.581655  2.184300
      ESP Fit Center 1980 is at   4.084395 -1.329448  2.184300
      ESP Fit Center 1981 is at   4.336602 -1.000765  2.184300
      ESP Fit Center 1982 is at   4.495146 -0.618006  2.184300
      ESP Fit Center 1983 is at   4.871390 -0.207255  1.909142
      ESP Fit Center 1984 is at   4.823523  0.217579  1.909142
      ESP Fit Center 1985 is at   4.682321  0.621111  1.909142
      ESP Fit Center 1986 is at   4.454866  0.983104  1.909142
      ESP Fit Center 1987 is at   4.152562  1.285408  1.909142
      ESP Fit Center 1988 is at   3.790568  1.512864  1.909142
      ESP Fit Center 1989 is at   3.387037  1.654066  1.909142
      ESP Fit Center 1990 is at   2.133836 -1.927374  1.909142
      ESP Fit Center 1991 is at   2.537368 -2.068576  1.909142
      ESP Fit Center 1992 is at   2.962202 -2.116443  1.909142
      ESP Fit Center 1993 is at   3.387037 -2.068576  1.909142
      ESP Fit Center 1994 is at   3.790568 -1.927374  1.909142
      ESP Fit Center 1995 is at   4.152562 -1.699919  1.909142
      ESP Fit Center 1996 is at   4.454866 -1.397614  1.909142
      ESP Fit Center 1997 is at   4.682321 -1.035621  1.909142
      ESP Fit Center 1998 is at   4.823523 -0.632089  1.909142
      ESP Fit Center 1999 is at   5.146548 -0.207255  1.586974
      ESP Fit Center 2000 is at   5.107074  0.206135  1.586974
      ESP Fit Center 2001 is at   4.990079  0.604584  1.586974
      ESP Fit Center 2002 is at   4.799791  0.973691  1.586974
      ESP Fit Center 2003 is at   4.543088  1.300116  1.586974
      ESP Fit Center 2004 is at   4.229247  1.572061  1.586974
      ESP Fit Center 2005 is at   3.869612  1.779696  1.586974
      ESP Fit Center 2006 is at   3.477181  1.915518  1.586974
      ESP Fit Center 2007 is at   1.870029 -2.098954  1.586974
      ESP Fit Center 2008 is at   2.247773 -2.271464  1.586974
      ESP Fit Center 2009 is at   2.651337 -2.369367  1.586974
      ESP Fit Center 2010 is at   3.066138 -2.389127  1.586974
      ESP Fit Center 2011 is at   3.477181 -2.330028  1.586974
      ESP Fit Center 2012 is at   3.869612 -2.194206  1.586974
      ESP Fit Center 2013 is at   4.229247 -1.986571  1.586974
      ESP Fit Center 2014 is at   4.543088 -1.714626  1.586974
      ESP Fit Center 2015 is at   4.799791 -1.388202  1.586974
      ESP Fit Center 2016 is at   4.990079 -1.019094  1.586974
      ESP Fit Center 2017 is at   5.107074 -0.620645  1.586974
      ESP Fit Center 2018 is at   5.367920 -0.207255  1.225728
      ESP Fit Center 2019 is at   5.331372  0.210493  1.225728
      ESP Fit Center 2020 is at   5.222837  0.615549  1.225728
      ESP Fit Center 2021 is at   5.045615  0.995604  1.225728
      ESP Fit Center 2022 is at   4.805089  1.339110  1.225728
      ESP Fit Center 2023 is at   4.508568  1.635632  1.225728
      ESP Fit Center 2024 is at   4.165061  1.876158  1.225728
      ESP Fit Center 2025 is at   3.785006  2.053380  1.225728
      ESP Fit Center 2026 is at   3.379951  2.161914  1.225728
      ESP Fit Center 2027 is at   1.759343 -2.290668  1.225728
      ESP Fit Center 2028 is at   2.139398 -2.467890  1.225728
      ESP Fit Center 2029 is at   2.544454 -2.576424  1.225728
      ESP Fit Center 2030 is at   2.962202 -2.612973  1.225728
      ESP Fit Center 2031 is at   3.379951 -2.576424  1.225728
      ESP Fit Center 2032 is at   3.785006 -2.467890  1.225728
      ESP Fit Center 2033 is at   4.165061 -2.290668  1.225728
      ESP Fit Center 2034 is at   4.508568 -2.050142  1.225728
      ESP Fit Center 2035 is at   4.805089 -1.753621  1.225728
      ESP Fit Center 2036 is at   5.045615 -1.410114  1.225728
      ESP Fit Center 2037 is at   5.222837 -1.030059  1.225728
      ESP Fit Center 2038 is at   5.331372 -0.625004  1.225728
      ESP Fit Center 2039 is at   5.530055 -0.207255  0.834300
      ESP Fit Center 2040 is at   5.495033  0.215400  0.834300
      ESP Fit Center 2041 is at   5.390921  0.626525  0.834300
      ESP Fit Center 2042 is at   5.220561  1.014908  0.834300
      ESP Fit Center 2043 is at   4.988599  1.369953  0.834300
      ESP Fit Center 2044 is at   4.701361  1.681975  0.834300
      ESP Fit Center 2045 is at   4.366684  1.942465  0.834300
      ESP Fit Center 2046 is at   3.993697  2.144316  0.834300
      ESP Fit Center 2047 is at   3.592573  2.282022  0.834300
      ESP Fit Center 2048 is at   1.930708 -2.558826  0.834300
      ESP Fit Center 2049 is at   2.331832 -2.696532  0.834300
      ESP Fit Center 2050 is at   2.750151 -2.766337  0.834300
      ESP Fit Center 2051 is at   3.174254 -2.766337  0.834300
      ESP Fit Center 2052 is at   3.592573 -2.696532  0.834300
      ESP Fit Center 2053 is at   3.993697 -2.558826  0.834300
      ESP Fit Center 2054 is at   4.366684 -2.356975  0.834300
      ESP Fit Center 2055 is at   4.701361 -2.096486  0.834300
      ESP Fit Center 2056 is at   4.988599 -1.784463  0.834300
      ESP Fit Center 2057 is at   5.220561 -1.429418  0.834300
      ESP Fit Center 2058 is at   5.390921 -1.041035  0.834300
      ESP Fit Center 2059 is at   5.495033 -0.629910  0.834300
      ESP Fit Center 2060 is at   5.628961 -0.207255  0.422327
      ESP Fit Center 2061 is at   5.596128  0.209918  0.422327
      ESP Fit Center 2062 is at   5.498440  0.616819  0.422327
      ESP Fit Center 2063 is at   5.338301  1.003428  0.422327
      ESP Fit Center 2064 is at   5.119655  1.360226  0.422327
      ESP Fit Center 2065 is at   4.847885  1.678428  0.422327
      ESP Fit Center 2066 is at   4.529683  1.950198  0.422327
      ESP Fit Center 2067 is at   4.172885  2.168844  0.422327
      ESP Fit Center 2068 is at   3.786276  2.328983  0.422327
      ESP Fit Center 2069 is at   3.379375  2.426671  0.422327
      ESP Fit Center 2070 is at   1.751519 -2.583354  0.422327
      ESP Fit Center 2071 is at   2.138128 -2.743493  0.422327
      ESP Fit Center 2072 is at   2.545029 -2.841181  0.422327
      ESP Fit Center 2073 is at   2.962202 -2.874014  0.422327
      ESP Fit Center 2074 is at   3.379375 -2.841181  0.422327
      ESP Fit Center 2075 is at   3.786276 -2.743493  0.422327
      ESP Fit Center 2076 is at   4.172885 -2.583354  0.422327
      ESP Fit Center 2077 is at   4.529683 -2.364708  0.422327
      ESP Fit Center 2078 is at   4.847885 -2.092938  0.422327
      ESP Fit Center 2079 is at   5.119655 -1.774736  0.422327
      ESP Fit Center 2080 is at   5.338301 -1.417938  0.422327
      ESP Fit Center 2081 is at   5.498440 -1.031329  0.422327
      ESP Fit Center 2082 is at   5.596128 -0.624428  0.422327
      ESP Fit Center 2083 is at   5.662202 -0.207255 -0.000046
      ESP Fit Center 2084 is at   5.630559  0.204898 -0.000046
      ESP Fit Center 2085 is at   5.536372  0.607391 -0.000046
      ESP Fit Center 2086 is at   5.381849  0.990789 -0.000046
      ESP Fit Center 2087 is at   5.170611  1.346105 -0.000046
      ESP Fit Center 2088 is at   4.907610  1.665013 -0.000046
      ESP Fit Center 2089 is at   4.599011  1.940036 -0.000046
      ESP Fit Center 2090 is at   4.252046  2.164728 -0.000046
      ESP Fit Center 2091 is at   3.874848  2.333823 -0.000046
      ESP Fit Center 2092 is at   3.476258  2.443357 -0.000046
      ESP Fit Center 2093 is at   1.857717 -2.671015 -0.000046
      ESP Fit Center 2094 is at   2.246752 -2.810739 -0.000046
      ESP Fit Center 2095 is at   2.652557 -2.889441 -0.000046
      ESP Fit Center 2096 is at   3.065620 -2.905274 -0.000046
      ESP Fit Center 2097 is at   3.476258 -2.857868 -0.000046
      ESP Fit Center 2098 is at   3.874848 -2.748333 -0.000046
      ESP Fit Center 2099 is at   4.252046 -2.579238 -0.000046
      ESP Fit Center 2100 is at   4.599011 -2.354546 -0.000046
      ESP Fit Center 2101 is at   4.907610 -2.079523 -0.000046
      ESP Fit Center 2102 is at   5.170611 -1.760615 -0.000046
      ESP Fit Center 2103 is at   5.381849 -1.405299 -0.000046
      ESP Fit Center 2104 is at   5.536372 -1.021901 -0.000046
      ESP Fit Center 2105 is at   5.630559 -0.619408 -0.000046
      ESP Fit Center 2106 is at   5.628961 -0.207255 -0.422419
      ESP Fit Center 2107 is at   5.596128  0.209918 -0.422419
      ESP Fit Center 2108 is at   5.498440  0.616819 -0.422419
      ESP Fit Center 2109 is at   5.338301  1.003428 -0.422419
      ESP Fit Center 2110 is at   5.119655  1.360226 -0.422419
      ESP Fit Center 2111 is at   4.847885  1.678428 -0.422419
      ESP Fit Center 2112 is at   4.529683  1.950198 -0.422419
      ESP Fit Center 2113 is at   4.172885  2.168844 -0.422419
      ESP Fit Center 2114 is at   3.786276  2.328983 -0.422419
      ESP Fit Center 2115 is at   3.379375  2.426671 -0.422419
      ESP Fit Center 2116 is at   1.751519 -2.583354 -0.422419
      ESP Fit Center 2117 is at   2.138128 -2.743493 -0.422419
      ESP Fit Center 2118 is at   2.545029 -2.841181 -0.422419
      ESP Fit Center 2119 is at   2.962202 -2.874014 -0.422419
      ESP Fit Center 2120 is at   3.379375 -2.841181 -0.422419
      ESP Fit Center 2121 is at   3.786276 -2.743493 -0.422419
      ESP Fit Center 2122 is at   4.172885 -2.583354 -0.422419
      ESP Fit Center 2123 is at   4.529683 -2.364708 -0.422419
      ESP Fit Center 2124 is at   4.847885 -2.092938 -0.422419
      ESP Fit Center 2125 is at   5.119655 -1.774736 -0.422419
      ESP Fit Center 2126 is at   5.338301 -1.417938 -0.422419
      ESP Fit Center 2127 is at   5.498440 -1.031329 -0.422419
      ESP Fit Center 2128 is at   5.596128 -0.624428 -0.422419
      ESP Fit Center 2129 is at   5.530055 -0.207255 -0.834392
      ESP Fit Center 2130 is at   5.495033  0.215400 -0.834392
      ESP Fit Center 2131 is at   5.390921  0.626525 -0.834392
      ESP Fit Center 2132 is at   5.220561  1.014908 -0.834392
      ESP Fit Center 2133 is at   4.988599  1.369953 -0.834392
      ESP Fit Center 2134 is at   4.701361  1.681975 -0.834392
      ESP Fit Center 2135 is at   4.366684  1.942465 -0.834392
      ESP Fit Center 2136 is at   3.993697  2.144316 -0.834392
      ESP Fit Center 2137 is at   3.592573  2.282022 -0.834392
      ESP Fit Center 2138 is at   1.930708 -2.558826 -0.834392
      ESP Fit Center 2139 is at   2.331832 -2.696532 -0.834392
      ESP Fit Center 2140 is at   2.750151 -2.766337 -0.834392
      ESP Fit Center 2141 is at   3.174254 -2.766337 -0.834392
      ESP Fit Center 2142 is at   3.592573 -2.696532 -0.834392
      ESP Fit Center 2143 is at   3.993697 -2.558826 -0.834392
      ESP Fit Center 2144 is at   4.366684 -2.356975 -0.834392
      ESP Fit Center 2145 is at   4.701361 -2.096486 -0.834392
      ESP Fit Center 2146 is at   4.988599 -1.784463 -0.834392
      ESP Fit Center 2147 is at   5.220561 -1.429418 -0.834392
      ESP Fit Center 2148 is at   5.390921 -1.041035 -0.834392
      ESP Fit Center 2149 is at   5.495033 -0.629910 -0.834392
      ESP Fit Center 2150 is at   5.367920 -0.207255 -1.225820
      ESP Fit Center 2151 is at   5.331372  0.210493 -1.225820
      ESP Fit Center 2152 is at   5.222837  0.615549 -1.225820
      ESP Fit Center 2153 is at   5.045615  0.995604 -1.225820
      ESP Fit Center 2154 is at   4.805089  1.339110 -1.225820
      ESP Fit Center 2155 is at   4.508568  1.635632 -1.225820
      ESP Fit Center 2156 is at   4.165061  1.876158 -1.225820
      ESP Fit Center 2157 is at   3.785006  2.053380 -1.225820
      ESP Fit Center 2158 is at   3.379951  2.161914 -1.225820
      ESP Fit Center 2159 is at   1.759343 -2.290668 -1.225820
      ESP Fit Center 2160 is at   2.139398 -2.467890 -1.225820
      ESP Fit Center 2161 is at   2.544454 -2.576424 -1.225820
      ESP Fit Center 2162 is at   2.962202 -2.612973 -1.225820
      ESP Fit Center 2163 is at   3.379951 -2.576424 -1.225820
      ESP Fit Center 2164 is at   3.785006 -2.467890 -1.225820
      ESP Fit Center 2165 is at   4.165061 -2.290668 -1.225820
      ESP Fit Center 2166 is at   4.508568 -2.050142 -1.225820
      ESP Fit Center 2167 is at   4.805089 -1.753621 -1.225820
      ESP Fit Center 2168 is at   5.045615 -1.410114 -1.225820
      ESP Fit Center 2169 is at   5.222837 -1.030059 -1.225820
      ESP Fit Center 2170 is at   5.331372 -0.625004 -1.225820
      ESP Fit Center 2171 is at   5.146548 -0.207255 -1.587066
      ESP Fit Center 2172 is at   5.107074  0.206135 -1.587066
      ESP Fit Center 2173 is at   4.990079  0.604584 -1.587066
      ESP Fit Center 2174 is at   4.799791  0.973691 -1.587066
      ESP Fit Center 2175 is at   4.543088  1.300116 -1.587066
      ESP Fit Center 2176 is at   4.229247  1.572061 -1.587066
      ESP Fit Center 2177 is at   3.869612  1.779696 -1.587066
      ESP Fit Center 2178 is at   3.477181  1.915518 -1.587066
      ESP Fit Center 2179 is at   1.870029 -2.098954 -1.587066
      ESP Fit Center 2180 is at   2.247773 -2.271464 -1.587066
      ESP Fit Center 2181 is at   2.651337 -2.369367 -1.587066
      ESP Fit Center 2182 is at   3.066138 -2.389127 -1.587066
      ESP Fit Center 2183 is at   3.477181 -2.330028 -1.587066
      ESP Fit Center 2184 is at   3.869612 -2.194206 -1.587066
      ESP Fit Center 2185 is at   4.229247 -1.986571 -1.587066
      ESP Fit Center 2186 is at   4.543088 -1.714626 -1.587066
      ESP Fit Center 2187 is at   4.799791 -1.388202 -1.587066
      ESP Fit Center 2188 is at   4.990079 -1.019094 -1.587066
      ESP Fit Center 2189 is at   5.107074 -0.620645 -1.587066
      ESP Fit Center 2190 is at   4.871390 -0.207255 -1.909234
      ESP Fit Center 2191 is at   4.823523  0.217579 -1.909234
      ESP Fit Center 2192 is at   4.682321  0.621111 -1.909234
      ESP Fit Center 2193 is at   4.454866  0.983104 -1.909234
      ESP Fit Center 2194 is at   4.152562  1.285408 -1.909234
      ESP Fit Center 2195 is at   3.790568  1.512864 -1.909234
      ESP Fit Center 2196 is at   3.387037  1.654066 -1.909234
      ESP Fit Center 2197 is at   2.133836 -1.927374 -1.909234
      ESP Fit Center 2198 is at   2.537368 -2.068576 -1.909234
      ESP Fit Center 2199 is at   2.962202 -2.116443 -1.909234
      ESP Fit Center 2200 is at   3.387037 -2.068576 -1.909234
      ESP Fit Center 2201 is at   3.790568 -1.927374 -1.909234
      ESP Fit Center 2202 is at   4.152562 -1.699919 -1.909234
      ESP Fit Center 2203 is at   4.454866 -1.397614 -1.909234
      ESP Fit Center 2204 is at   4.682321 -1.035621 -1.909234
      ESP Fit Center 2205 is at   4.823523 -0.632089 -1.909234
      ESP Fit Center 2206 is at   4.549222 -0.207255 -2.184392
      ESP Fit Center 2207 is at   4.495146  0.203496 -2.184392
      ESP Fit Center 2208 is at   4.336602  0.586255 -2.184392
      ESP Fit Center 2209 is at   4.084395  0.914938 -2.184392
      ESP Fit Center 2210 is at   3.755712  1.167145 -2.184392
      ESP Fit Center 2211 is at   3.372953  1.325689 -2.184392
      ESP Fit Center 2212 is at   2.962202  1.379765 -2.184392
      ESP Fit Center 2213 is at   2.168692 -1.581655 -2.184392
      ESP Fit Center 2214 is at   2.551451 -1.740199 -2.184392
      ESP Fit Center 2215 is at   2.962202 -1.794275 -2.184392
      ESP Fit Center 2216 is at   3.372953 -1.740199 -2.184392
      ESP Fit Center 2217 is at   3.755712 -1.581655 -2.184392
      ESP Fit Center 2218 is at   4.084395 -1.329448 -2.184392
      ESP Fit Center 2219 is at   4.336602 -1.000765 -2.184392
      ESP Fit Center 2220 is at   4.495146 -0.618006 -2.184392
      ESP Fit Center 2221 is at   4.187976 -0.207255 -2.405764
      ESP Fit Center 2222 is at   4.114053  0.211984 -2.405764
      ESP Fit Center 2223 is at   3.901200  0.580658 -2.405764
      ESP Fit Center 2224 is at   3.575089  0.854297 -2.405764
      ESP Fit Center 2225 is at   3.175056  0.999897 -2.405764
      ESP Fit Center 2226 is at   2.349315 -1.268807 -2.405764
      ESP Fit Center 2227 is at   2.749349 -1.414407 -2.405764
      ESP Fit Center 2228 is at   3.175056 -1.414407 -2.405764
      ESP Fit Center 2229 is at   3.575089 -1.268807 -2.405764
      ESP Fit Center 2230 is at   3.901200 -0.995168 -2.405764
      ESP Fit Center 2231 is at   4.114053 -0.626495 -2.405764
      ESP Fit Center 2232 is at   3.796548 -0.207255 -2.567899
      ESP Fit Center 2233 is at   3.684767  0.209918 -2.567899
      ESP Fit Center 2234 is at   3.379375  0.515310 -2.567899
      ESP Fit Center 2235 is at   2.962202  0.627091 -2.567899
      ESP Fit Center 2236 is at   2.239637 -0.624428 -2.567899
      ESP Fit Center 2237 is at   2.545029 -0.929820 -2.567899
      ESP Fit Center 2238 is at   2.962202 -1.041601 -2.567899
      ESP Fit Center 2239 is at   3.379375 -0.929820 -2.567899
      ESP Fit Center 2240 is at   3.684767 -0.624428 -2.567899
      ESP Fit Center 2241 is at   3.384575 -0.207255 -2.666804
      ESP Fit Center 2242 is at   3.173389  0.158531 -2.666804
      ESP Fit Center 2243 is at   2.751016  0.158531 -2.666804
      ESP Fit Center 2244 is at   2.539829 -0.207255 -2.666804
      ESP Fit Center 2245 is at   2.751016 -0.573041 -2.666804
      ESP Fit Center 2246 is at   3.173389 -0.573041 -2.666804
      ESP Fit Center 2247 is at   2.962202 -0.207255 -2.700046
      ESP Fit Center 2248 is at   1.873045  0.159713  2.699980
      ESP Fit Center 2249 is at   2.295419  0.159713  2.666739
      ESP Fit Center 2250 is at   2.084232  0.525499  2.666739
      ESP Fit Center 2251 is at   1.661859  0.525499  2.666739
      ESP Fit Center 2252 is at   1.450672  0.159713  2.666739
      ESP Fit Center 2253 is at   1.661859 -0.206072  2.666739
      ESP Fit Center 2254 is at   2.084232 -0.206072  2.666739
      ESP Fit Center 2255 is at   2.595610  0.576886  2.567833
      ESP Fit Center 2256 is at   2.290218  0.882278  2.567833
      ESP Fit Center 2257 is at   1.873045  0.994059  2.567833
      ESP Fit Center 2258 is at   1.150481 -0.257460  2.567833
      ESP Fit Center 2259 is at   1.455873 -0.562851  2.567833
      ESP Fit Center 2260 is at   1.873045 -0.674633  2.567833
      ESP Fit Center 2261 is at   2.485933  1.221265  2.405698
      ESP Fit Center 2262 is at   2.085899  1.366865  2.405698
      ESP Fit Center 2263 is at   1.260158 -0.901838  2.405698
      ESP Fit Center 2264 is at   1.660192 -1.047439  2.405698
      ESP Fit Center 2265 is at   2.666556  1.534113  2.184326
      ESP Fit Center 2266 is at   2.283797  1.692657  2.184326
      ESP Fit Center 2267 is at   1.462294 -1.373230  2.184326
      ESP Fit Center 2268 is at   1.873045 -1.427307  2.184326
      ESP Fit Center 2269 is at   2.701411  1.879833  1.909169
      ESP Fit Center 2270 is at   2.297880  2.021034  1.909169
      ESP Fit Center 2271 is at   2.780456  2.146664  1.587000
      ESP Fit Center 2272 is at   2.388025  2.282486  1.587000
      ESP Fit Center 2273 is at   3.075904  2.243126  1.225755
      ESP Fit Center 2274 is at   2.695849  2.420348  1.225755
      ESP Fit Center 2275 is at   2.290794  2.528883  1.225755
      ESP Fit Center 2276 is at   2.904540  2.511284  0.834326
      ESP Fit Center 2277 is at   2.503416  2.648990  0.834326
      ESP Fit Center 2278 is at   2.085097  2.718795  0.834326
      ESP Fit Center 2279 is at   3.083729  2.535813  0.422353
      ESP Fit Center 2280 is at   2.697119  2.695951  0.422353
      ESP Fit Center 2281 is at   2.290218  2.793640  0.422353
      ESP Fit Center 2282 is at   1.455873 -2.474213  0.422353
      ESP Fit Center 2283 is at   3.162889  2.531696 -0.000020
      ESP Fit Center 2284 is at   2.785691  2.700791 -0.000020
      ESP Fit Center 2285 is at   2.387101  2.810326 -0.000020
      ESP Fit Center 2286 is at   1.976463  2.857732 -0.000020
      ESP Fit Center 2287 is at   1.563400 -2.522472 -0.000020
      ESP Fit Center 2288 is at   3.083729  2.535813 -0.422393
      ESP Fit Center 2289 is at   2.697119  2.695951 -0.422393
      ESP Fit Center 2290 is at   2.290218  2.793640 -0.422393
      ESP Fit Center 2291 is at   1.455873 -2.474213 -0.422393
      ESP Fit Center 2292 is at   2.904540  2.511284 -0.834366
      ESP Fit Center 2293 is at   2.503416  2.648990 -0.834366
      ESP Fit Center 2294 is at   2.085097  2.718795 -0.834366
      ESP Fit Center 2295 is at   3.075904  2.243126 -1.225794
      ESP Fit Center 2296 is at   2.695849  2.420348 -1.225794
      ESP Fit Center 2297 is at   2.290794  2.528883 -1.225794
      ESP Fit Center 2298 is at   2.780456  2.146664 -1.587040
      ESP Fit Center 2299 is at   2.388025  2.282486 -1.587040
      ESP Fit Center 2300 is at   2.701411  1.879833 -1.909208
      ESP Fit Center 2301 is at   2.297880  2.021034 -1.909208
      ESP Fit Center 2302 is at   2.666556  1.534113 -2.184366
      ESP Fit Center 2303 is at   2.283797  1.692657 -2.184366
      ESP Fit Center 2304 is at   1.462294 -1.373230 -2.184366
      ESP Fit Center 2305 is at   1.873045 -1.427307 -2.184366
      ESP Fit Center 2306 is at   2.485933  1.221265 -2.405737
      ESP Fit Center 2307 is at   2.085899  1.366865 -2.405737
      ESP Fit Center 2308 is at   1.260158 -0.901838 -2.405737
      ESP Fit Center 2309 is at   1.660192 -1.047439 -2.405737
      ESP Fit Center 2310 is at   2.595610  0.576886 -2.567872
      ESP Fit Center 2311 is at   2.290218  0.882278 -2.567872
      ESP Fit Center 2312 is at   1.873045  0.994059 -2.567872
      ESP Fit Center 2313 is at   1.150481 -0.257460 -2.567872
      ESP Fit Center 2314 is at   1.455873 -0.562851 -2.567872
      ESP Fit Center 2315 is at   1.873045 -0.674633 -2.567872
      ESP Fit Center 2316 is at   2.295419  0.159713 -2.666778
      ESP Fit Center 2317 is at   2.084232  0.525499 -2.666778
      ESP Fit Center 2318 is at   1.661859  0.525499 -2.666778
      ESP Fit Center 2319 is at   1.450672  0.159713 -2.666778
      ESP Fit Center 2320 is at   1.661859 -0.206072 -2.666778
      ESP Fit Center 2321 is at   2.084232 -0.206072 -2.666778
      ESP Fit Center 2322 is at   1.873045  0.159713 -2.700020
      ESP Fit Center 2323 is at   0.898979 -0.121050  2.567902
      ESP Fit Center 2324 is at   1.886289  2.751235  0.834396
      ESP Fit Center 2325 is at   1.692489  2.977614  0.422423
      ESP Fit Center 2326 is at   1.305880  3.137753  0.422423
      ESP Fit Center 2327 is at  -1.403877  2.487198  0.422423
      ESP Fit Center 2328 is at   1.771650  2.973498  0.000050
      ESP Fit Center 2329 is at   1.394452  3.142593  0.000050
      ESP Fit Center 2330 is at   0.995862  3.252127  0.000050
      ESP Fit Center 2331 is at   0.585224  3.299534  0.000050
      ESP Fit Center 2332 is at   0.172161  3.283700  0.000050
      ESP Fit Center 2333 is at  -0.233644  3.204999  0.000050
      ESP Fit Center 2334 is at  -0.622679  3.065275  0.000050
      ESP Fit Center 2335 is at  -0.985826  2.867801  0.000050
      ESP Fit Center 2336 is at  -1.314573  2.617209  0.000050
      ESP Fit Center 2337 is at   1.692489  2.977614 -0.422323
      ESP Fit Center 2338 is at   1.305880  3.137753 -0.422323
      ESP Fit Center 2339 is at  -1.403877  2.487198 -0.422323
      ESP Fit Center 2340 is at   1.886289  2.751235 -0.834296
      ESP Fit Center 2341 is at   0.898979 -0.121050 -2.567803
      ESP Fit Center 2342 is at  -0.898910  0.121197  2.567904
      ESP Fit Center 2343 is at  -1.886220 -2.751088  0.834397
      ESP Fit Center 2344 is at  -1.692421 -2.977467  0.422424
      ESP Fit Center 2345 is at  -1.305811 -3.137606  0.422424
      ESP Fit Center 2346 is at   1.403946 -2.487051  0.422424
      ESP Fit Center 2347 is at  -1.949370 -2.867654  0.000051
      ESP Fit Center 2348 is at  -1.586223 -3.065128  0.000051
      ESP Fit Center 2349 is at  -1.197188 -3.204852  0.000051
      ESP Fit Center 2350 is at  -0.791383 -3.283553  0.000051
      ESP Fit Center 2351 is at  -0.378320 -3.299386  0.000051
      ESP Fit Center 2352 is at   0.032319 -3.251980  0.000051
      ESP Fit Center 2353 is at   0.430908 -3.142446  0.000051
      ESP Fit Center 2354 is at   0.808106 -2.973351  0.000051
      ESP Fit Center 2355 is at   1.155071 -2.748659  0.000051
      ESP Fit Center 2356 is at  -1.692421 -2.977467 -0.422322
      ESP Fit Center 2357 is at  -1.305811 -3.137606 -0.422322
      ESP Fit Center 2358 is at   1.403946 -2.487051 -0.422322
      ESP Fit Center 2359 is at  -1.886220 -2.751088 -0.834295
      ESP Fit Center 2360 is at  -0.898910  0.121197 -2.567801
      ESP Fit Center 2361 is at  -1.873047 -0.159695  2.699964
      ESP Fit Center 2362 is at  -1.450674 -0.159695  2.666723
      ESP Fit Center 2363 is at  -1.661860  0.206091  2.666723
      ESP Fit Center 2364 is at  -2.084234  0.206091  2.666723
      ESP Fit Center 2365 is at  -2.295420 -0.159695  2.666723
      ESP Fit Center 2366 is at  -2.084234 -0.525481  2.666723
      ESP Fit Center 2367 is at  -1.661860 -0.525481  2.666723
      ESP Fit Center 2368 is at  -1.150482  0.257478  2.567817
      ESP Fit Center 2369 is at  -1.455874  0.562870  2.567817
      ESP Fit Center 2370 is at  -1.873047  0.674651  2.567817
      ESP Fit Center 2371 is at  -2.595612 -0.576868  2.567817
      ESP Fit Center 2372 is at  -2.290220 -0.882259  2.567817
      ESP Fit Center 2373 is at  -1.873047 -0.994041  2.567817
      ESP Fit Center 2374 is at  -1.260160  0.901857  2.405682
      ESP Fit Center 2375 is at  -1.660194  1.047457  2.405682
      ESP Fit Center 2376 is at  -2.485934 -1.221246  2.405682
      ESP Fit Center 2377 is at  -2.085900 -1.366847  2.405682
      ESP Fit Center 2378 is at  -1.462296  1.373249  2.184310
      ESP Fit Center 2379 is at  -1.873047  1.427325  2.184310
      ESP Fit Center 2380 is at  -2.666557 -1.534094  2.184310
      ESP Fit Center 2381 is at  -2.283798 -1.692638  2.184310
      ESP Fit Center 2382 is at  -2.701413 -1.879814  1.909153
      ESP Fit Center 2383 is at  -2.297881 -2.021016  1.909153
      ESP Fit Center 2384 is at  -2.965220 -2.051394  1.586984
      ESP Fit Center 2385 is at  -2.587477 -2.223903  1.586984
      ESP Fit Center 2386 is at  -2.183912 -2.321807  1.586984
      ESP Fit Center 2387 is at  -3.075906 -2.243107  1.225739
      ESP Fit Center 2388 is at  -2.695851 -2.420330  1.225739
      ESP Fit Center 2389 is at  -2.290795 -2.528864  1.225739
      ESP Fit Center 2390 is at  -2.904542 -2.511266  0.834310
      ESP Fit Center 2391 is at  -2.503418 -2.648972  0.834310
      ESP Fit Center 2392 is at  -2.085099 -2.718777  0.834310
      ESP Fit Center 2393 is at  -1.455874  2.474232  0.422337
      ESP Fit Center 2394 is at  -3.083730 -2.535794  0.422337
      ESP Fit Center 2395 is at  -2.697121 -2.695933  0.422337
      ESP Fit Center 2396 is at  -2.290220 -2.793621  0.422337
      ESP Fit Center 2397 is at  -2.977532 -2.623454 -0.000036
      ESP Fit Center 2398 is at  -2.588497 -2.763179 -0.000036
      ESP Fit Center 2399 is at  -2.182692 -2.841880 -0.000036
      ESP Fit Center 2400 is at  -1.455874  2.474232 -0.422409
      ESP Fit Center 2401 is at  -3.083730 -2.535794 -0.422409
      ESP Fit Center 2402 is at  -2.697121 -2.695933 -0.422409
      ESP Fit Center 2403 is at  -2.290220 -2.793621 -0.422409
      ESP Fit Center 2404 is at  -2.904542 -2.511266 -0.834382
      ESP Fit Center 2405 is at  -2.503418 -2.648972 -0.834382
      ESP Fit Center 2406 is at  -2.085099 -2.718777 -0.834382
      ESP Fit Center 2407 is at  -3.075906 -2.243107 -1.225810
      ESP Fit Center 2408 is at  -2.695851 -2.420330 -1.225810
      ESP Fit Center 2409 is at  -2.290795 -2.528864 -1.225810
      ESP Fit Center 2410 is at  -2.965220 -2.051394 -1.587056
      ESP Fit Center 2411 is at  -2.587477 -2.223903 -1.587056
      ESP Fit Center 2412 is at  -2.183912 -2.321807 -1.587056
      ESP Fit Center 2413 is at  -2.701413 -1.879814 -1.909224
      ESP Fit Center 2414 is at  -2.297881 -2.021016 -1.909224
      ESP Fit Center 2415 is at  -1.462296  1.373249 -2.184382
      ESP Fit Center 2416 is at  -1.873047  1.427325 -2.184382
      ESP Fit Center 2417 is at  -2.666557 -1.534094 -2.184382
      ESP Fit Center 2418 is at  -2.283798 -1.692638 -2.184382
      ESP Fit Center 2419 is at  -1.260160  0.901857 -2.405753
      ESP Fit Center 2420 is at  -1.660194  1.047457 -2.405753
      ESP Fit Center 2421 is at  -2.485934 -1.221246 -2.405753
      ESP Fit Center 2422 is at  -2.085900 -1.366847 -2.405753
      ESP Fit Center 2423 is at  -1.150482  0.257478 -2.567888
      ESP Fit Center 2424 is at  -1.455874  0.562870 -2.567888
      ESP Fit Center 2425 is at  -1.873047  0.674651 -2.567888
      ESP Fit Center 2426 is at  -2.595612 -0.576868 -2.567888
      ESP Fit Center 2427 is at  -2.290220 -0.882259 -2.567888
      ESP Fit Center 2428 is at  -1.873047 -0.994041 -2.567888
      ESP Fit Center 2429 is at  -1.450674 -0.159695 -2.666794
      ESP Fit Center 2430 is at  -1.661860  0.206091 -2.666794
      ESP Fit Center 2431 is at  -2.084234  0.206091 -2.666794
      ESP Fit Center 2432 is at  -2.295420 -0.159695 -2.666794
      ESP Fit Center 2433 is at  -2.084234 -0.525481 -2.666794
      ESP Fit Center 2434 is at  -1.661860 -0.525481 -2.666794
      ESP Fit Center 2435 is at  -1.873047 -0.159695 -2.700036
      ESP Fit Center 2436 is at  -2.962275  0.207072  2.699960
      ESP Fit Center 2437 is at  -2.539902  0.207072  2.666718
      ESP Fit Center 2438 is at  -2.751089  0.572857  2.666718
      ESP Fit Center 2439 is at  -3.173462  0.572857  2.666718
      ESP Fit Center 2440 is at  -3.384648  0.207072  2.666718
      ESP Fit Center 2441 is at  -3.173462 -0.158714  2.666718
      ESP Fit Center 2442 is at  -2.751089 -0.158714  2.666718
      ESP Fit Center 2443 is at  -2.239711  0.624245  2.567812
      ESP Fit Center 2444 is at  -2.545102  0.929636  2.567812
      ESP Fit Center 2445 is at  -2.962275  1.041417  2.567812
      ESP Fit Center 2446 is at  -3.379448  0.929636  2.567812
      ESP Fit Center 2447 is at  -3.684840  0.624245  2.567812
      ESP Fit Center 2448 is at  -3.796621  0.207072  2.567812
      ESP Fit Center 2449 is at  -3.684840 -0.210101  2.567812
      ESP Fit Center 2450 is at  -3.379448 -0.515493  2.567812
      ESP Fit Center 2451 is at  -2.962275 -0.627274  2.567812
      ESP Fit Center 2452 is at  -2.349388  1.268623  2.405677
      ESP Fit Center 2453 is at  -2.749422  1.414224  2.405677
      ESP Fit Center 2454 is at  -3.175129  1.414224  2.405677
      ESP Fit Center 2455 is at  -3.575163  1.268623  2.405677
      ESP Fit Center 2456 is at  -3.901273  0.994984  2.405677
      ESP Fit Center 2457 is at  -4.114127  0.626311  2.405677
      ESP Fit Center 2458 is at  -4.188050  0.207072  2.405677
      ESP Fit Center 2459 is at  -4.114127 -0.212168  2.405677
      ESP Fit Center 2460 is at  -3.901273 -0.580841  2.405677
      ESP Fit Center 2461 is at  -3.575163 -0.854480  2.405677
      ESP Fit Center 2462 is at  -3.175129 -1.000081  2.405677
      ESP Fit Center 2463 is at  -2.168765  1.581471  2.184305
      ESP Fit Center 2464 is at  -2.551524  1.740015  2.184305
      ESP Fit Center 2465 is at  -2.962275  1.794092  2.184305
      ESP Fit Center 2466 is at  -3.373026  1.740015  2.184305
      ESP Fit Center 2467 is at  -3.755786  1.581471  2.184305
      ESP Fit Center 2468 is at  -4.084468  1.329264  2.184305
      ESP Fit Center 2469 is at  -4.336675  1.000582  2.184305
      ESP Fit Center 2470 is at  -4.495219  0.617823  2.184305
      ESP Fit Center 2471 is at  -4.549296  0.207072  2.184305
      ESP Fit Center 2472 is at  -4.495219 -0.203679  2.184305
      ESP Fit Center 2473 is at  -4.336675 -0.586439  2.184305
      ESP Fit Center 2474 is at  -4.084468 -0.915121  2.184305
      ESP Fit Center 2475 is at  -3.755786 -1.167328  2.184305
      ESP Fit Center 2476 is at  -3.373026 -1.325872  2.184305
      ESP Fit Center 2477 is at  -2.962275 -1.379949  2.184305
      ESP Fit Center 2478 is at  -2.133910  1.927191  1.909148
      ESP Fit Center 2479 is at  -2.537441  2.068393  1.909148
      ESP Fit Center 2480 is at  -2.962275  2.116260  1.909148
      ESP Fit Center 2481 is at  -3.387110  2.068393  1.909148
      ESP Fit Center 2482 is at  -3.790641  1.927191  1.909148
      ESP Fit Center 2483 is at  -4.152635  1.699735  1.909148
      ESP Fit Center 2484 is at  -4.454939  1.397431  1.909148
      ESP Fit Center 2485 is at  -4.682395  1.035437  1.909148
      ESP Fit Center 2486 is at  -4.823596  0.631906  1.909148
      ESP Fit Center 2487 is at  -4.871464  0.207072  1.909148
      ESP Fit Center 2488 is at  -4.823596 -0.217763  1.909148
      ESP Fit Center 2489 is at  -4.682395 -0.621294  1.909148
      ESP Fit Center 2490 is at  -4.454939 -0.983288  1.909148
      ESP Fit Center 2491 is at  -4.152635 -1.285592  1.909148
      ESP Fit Center 2492 is at  -3.790641 -1.513048  1.909148
      ESP Fit Center 2493 is at  -3.387110 -1.654249  1.909148
      ESP Fit Center 2494 is at  -2.054865  2.194022  1.586980
      ESP Fit Center 2495 is at  -2.447296  2.329844  1.586980
      ESP Fit Center 2496 is at  -2.858340  2.388943  1.586980
      ESP Fit Center 2497 is at  -3.273140  2.369184  1.586980
      ESP Fit Center 2498 is at  -3.676705  2.271280  1.586980
      ESP Fit Center 2499 is at  -4.054448  2.098771  1.586980
      ESP Fit Center 2500 is at  -4.392718  1.857890  1.586980
      ESP Fit Center 2501 is at  -4.679287  1.557345  1.586980
      ESP Fit Center 2502 is at  -4.903799  1.207997  1.586980
      ESP Fit Center 2503 is at  -5.058140  0.822473  1.586980
      ESP Fit Center 2504 is at  -5.136730  0.414707  1.586980
      ESP Fit Center 2505 is at  -5.136730 -0.000564  1.586980
      ESP Fit Center 2506 is at  -5.058140 -0.408330  1.586980
      ESP Fit Center 2507 is at  -4.903799 -0.793854  1.586980
      ESP Fit Center 2508 is at  -4.679287 -1.143201  1.586980
      ESP Fit Center 2509 is at  -4.392718 -1.443747  1.586980
      ESP Fit Center 2510 is at  -4.054448 -1.684627  1.586980
      ESP Fit Center 2511 is at  -3.676705 -1.857137  1.586980
      ESP Fit Center 2512 is at  -3.273140 -1.955041  1.586980
      ESP Fit Center 2513 is at  -1.759417  2.290484  1.225734
      ESP Fit Center 2514 is at  -2.139472  2.467707  1.225734
      ESP Fit Center 2515 is at  -2.544527  2.576241  1.225734
      ESP Fit Center 2516 is at  -2.962275  2.612789  1.225734
      ESP Fit Center 2517 is at  -3.380024  2.576241  1.225734
      ESP Fit Center 2518 is at  -3.785079  2.467707  1.225734
      ESP Fit Center 2519 is at  -4.165134  2.290484  1.225734
      ESP Fit Center 2520 is at  -4.508641  2.049958  1.225734
      ESP Fit Center 2521 is at  -4.805162  1.753437  1.225734
      ESP Fit Center 2522 is at  -5.045688  1.409930  1.225734
      ESP Fit Center 2523 is at  -5.222911  1.029875  1.225734
      ESP Fit Center 2524 is at  -5.331445  0.624820  1.225734
      ESP Fit Center 2525 is at  -5.367993  0.207072  1.225734
      ESP Fit Center 2526 is at  -5.331445 -0.210677  1.225734
      ESP Fit Center 2527 is at  -5.222911 -0.615732  1.225734
      ESP Fit Center 2528 is at  -5.045688 -0.995787  1.225734
      ESP Fit Center 2529 is at  -4.805162 -1.339294  1.225734
      ESP Fit Center 2530 is at  -4.508641 -1.635815  1.225734
      ESP Fit Center 2531 is at  -4.165134 -1.876341  1.225734
      ESP Fit Center 2532 is at  -3.785079 -2.053564  1.225734
      ESP Fit Center 2533 is at  -3.380024 -2.162098  1.225734
      ESP Fit Center 2534 is at  -1.930781  2.558642  0.834305
      ESP Fit Center 2535 is at  -2.331905  2.696349  0.834305
      ESP Fit Center 2536 is at  -2.750224  2.766154  0.834305
      ESP Fit Center 2537 is at  -3.174327  2.766154  0.834305
      ESP Fit Center 2538 is at  -3.592646  2.696349  0.834305
      ESP Fit Center 2539 is at  -3.993770  2.558642  0.834305
      ESP Fit Center 2540 is at  -4.366758  2.356792  0.834305
      ESP Fit Center 2541 is at  -4.701435  2.096302  0.834305
      ESP Fit Center 2542 is at  -4.988672  1.784279  0.834305
      ESP Fit Center 2543 is at  -5.220634  1.429234  0.834305
      ESP Fit Center 2544 is at  -5.390995  1.040852  0.834305
      ESP Fit Center 2545 is at  -5.495106  0.629726  0.834305
      ESP Fit Center 2546 is at  -5.530128  0.207072  0.834305
      ESP Fit Center 2547 is at  -5.495106 -0.215583  0.834305
      ESP Fit Center 2548 is at  -5.390995 -0.626709  0.834305
      ESP Fit Center 2549 is at  -5.220634 -1.015091  0.834305
      ESP Fit Center 2550 is at  -4.988672 -1.370136  0.834305
      ESP Fit Center 2551 is at  -4.701435 -1.682159  0.834305
      ESP Fit Center 2552 is at  -4.366758 -1.942649  0.834305
      ESP Fit Center 2553 is at  -3.993770 -2.144499  0.834305
      ESP Fit Center 2554 is at  -3.592646 -2.282205  0.834305
      ESP Fit Center 2555 is at  -1.751592  2.583171  0.422333
      ESP Fit Center 2556 is at  -2.138202  2.743310  0.422333
      ESP Fit Center 2557 is at  -2.545102  2.840998  0.422333
      ESP Fit Center 2558 is at  -2.962275  2.873830  0.422333
      ESP Fit Center 2559 is at  -3.379448  2.840998  0.422333
      ESP Fit Center 2560 is at  -3.786349  2.743310  0.422333
      ESP Fit Center 2561 is at  -4.172958  2.583171  0.422333
      ESP Fit Center 2562 is at  -4.529757  2.364525  0.422333
      ESP Fit Center 2563 is at  -4.847958  2.092755  0.422333
      ESP Fit Center 2564 is at  -5.119728  1.774553  0.422333
      ESP Fit Center 2565 is at  -5.338375  1.417755  0.422333
      ESP Fit Center 2566 is at  -5.498513  1.031145  0.422333
      ESP Fit Center 2567 is at  -5.596202  0.624245  0.422333
      ESP Fit Center 2568 is at  -5.629034  0.207072  0.422333
      ESP Fit Center 2569 is at  -5.596202 -0.210101  0.422333
      ESP Fit Center 2570 is at  -5.498513 -0.617002  0.422333
      ESP Fit Center 2571 is at  -5.338375 -1.003611  0.422333
      ESP Fit Center 2572 is at  -5.119728 -1.360410  0.422333
      ESP Fit Center 2573 is at  -4.847958 -1.678611  0.422333
      ESP Fit Center 2574 is at  -4.529757 -1.950381  0.422333
      ESP Fit Center 2575 is at  -4.172958 -2.169028  0.422333
      ESP Fit Center 2576 is at  -3.786349 -2.329166  0.422333
      ESP Fit Center 2577 is at  -3.379448 -2.426855  0.422333
      ESP Fit Center 2578 is at  -1.672432  2.579055 -0.000040
      ESP Fit Center 2579 is at  -2.049630  2.748150 -0.000040
      ESP Fit Center 2580 is at  -2.448219  2.857684 -0.000040
      ESP Fit Center 2581 is at  -2.858858  2.905090 -0.000040
      ESP Fit Center 2582 is at  -3.271921  2.889257 -0.000040
      ESP Fit Center 2583 is at  -3.677725  2.810556 -0.000040
      ESP Fit Center 2584 is at  -4.066761  2.670831 -0.000040
      ESP Fit Center 2585 is at  -4.429908  2.473358 -0.000040
      ESP Fit Center 2586 is at  -4.758655  2.222765 -0.000040
      ESP Fit Center 2587 is at  -5.045296  1.924926 -0.000040
      ESP Fit Center 2588 is at  -5.283113  1.586822 -0.000040
      ESP Fit Center 2589 is at  -5.466532  1.216378 -0.000040
      ESP Fit Center 2590 is at  -5.591253  0.822276 -0.000040
      ESP Fit Center 2591 is at  -5.654353  0.413755 -0.000040
      ESP Fit Center 2592 is at  -5.654353  0.000389 -0.000040
      ESP Fit Center 2593 is at  -5.591253 -0.408133 -0.000040
      ESP Fit Center 2594 is at  -5.466532 -0.802235 -0.000040
      ESP Fit Center 2595 is at  -5.283113 -1.172679 -0.000040
      ESP Fit Center 2596 is at  -5.045296 -1.510783 -0.000040
      ESP Fit Center 2597 is at  -4.758655 -1.808622 -0.000040
      ESP Fit Center 2598 is at  -4.429908 -2.059215 -0.000040
      ESP Fit Center 2599 is at  -4.066761 -2.256688 -0.000040
      ESP Fit Center 2600 is at  -3.677725 -2.396413 -0.000040
      ESP Fit Center 2601 is at  -3.271921 -2.475114 -0.000040
      ESP Fit Center 2602 is at  -1.751592  2.583171 -0.422413
      ESP Fit Center 2603 is at  -2.138202  2.743310 -0.422413
      ESP Fit Center 2604 is at  -2.545102  2.840998 -0.422413
      ESP Fit Center 2605 is at  -2.962275  2.873830 -0.422413
      ESP Fit Center 2606 is at  -3.379448  2.840998 -0.422413
      ESP Fit Center 2607 is at  -3.786349  2.743310 -0.422413
      ESP Fit Center 2608 is at  -4.172958  2.583171 -0.422413
      ESP Fit Center 2609 is at  -4.529757  2.364525 -0.422413
      ESP Fit Center 2610 is at  -4.847958  2.092755 -0.422413
      ESP Fit Center 2611 is at  -5.119728  1.774553 -0.422413
      ESP Fit Center 2612 is at  -5.338375  1.417755 -0.422413
      ESP Fit Center 2613 is at  -5.498513  1.031145 -0.422413
      ESP Fit Center 2614 is at  -5.596202  0.624245 -0.422413
      ESP Fit Center 2615 is at  -5.629034  0.207072 -0.422413
      ESP Fit Center 2616 is at  -5.596202 -0.210101 -0.422413
      ESP Fit Center 2617 is at  -5.498513 -0.617002 -0.422413
      ESP Fit Center 2618 is at  -5.338375 -1.003611 -0.422413
      ESP Fit Center 2619 is at  -5.119728 -1.360410 -0.422413
      ESP Fit Center 2620 is at  -4.847958 -1.678611 -0.422413
      ESP Fit Center 2621 is at  -4.529757 -1.950381 -0.422413
      ESP Fit Center 2622 is at  -4.172958 -2.169028 -0.422413
      ESP Fit Center 2623 is at  -3.786349 -2.329166 -0.422413
      ESP Fit Center 2624 is at  -3.379448 -2.426855 -0.422413
      ESP Fit Center 2625 is at  -1.930781  2.558642 -0.834386
      ESP Fit Center 2626 is at  -2.331905  2.696349 -0.834386
      ESP Fit Center 2627 is at  -2.750224  2.766154 -0.834386
      ESP Fit Center 2628 is at  -3.174327  2.766154 -0.834386
      ESP Fit Center 2629 is at  -3.592646  2.696349 -0.834386
      ESP Fit Center 2630 is at  -3.993770  2.558642 -0.834386
      ESP Fit Center 2631 is at  -4.366758  2.356792 -0.834386
      ESP Fit Center 2632 is at  -4.701435  2.096302 -0.834386
      ESP Fit Center 2633 is at  -4.988672  1.784279 -0.834386
      ESP Fit Center 2634 is at  -5.220634  1.429234 -0.834386
      ESP Fit Center 2635 is at  -5.390995  1.040852 -0.834386
      ESP Fit Center 2636 is at  -5.495106  0.629726 -0.834386
      ESP Fit Center 2637 is at  -5.530128  0.207072 -0.834386
      ESP Fit Center 2638 is at  -5.495106 -0.215583 -0.834386
      ESP Fit Center 2639 is at  -5.390995 -0.626709 -0.834386
      ESP Fit Center 2640 is at  -5.220634 -1.015091 -0.834386
      ESP Fit Center 2641 is at  -4.988672 -1.370136 -0.834386
      ESP Fit Center 2642 is at  -4.701435 -1.682159 -0.834386
      ESP Fit Center 2643 is at  -4.366758 -1.942649 -0.834386
      ESP Fit Center 2644 is at  -3.993770 -2.144499 -0.834386
      ESP Fit Center 2645 is at  -3.592646 -2.282205 -0.834386
      ESP Fit Center 2646 is at  -1.759417  2.290484 -1.225815
      ESP Fit Center 2647 is at  -2.139472  2.467707 -1.225815
      ESP Fit Center 2648 is at  -2.544527  2.576241 -1.225815
      ESP Fit Center 2649 is at  -2.962275  2.612789 -1.225815
      ESP Fit Center 2650 is at  -3.380024  2.576241 -1.225815
      ESP Fit Center 2651 is at  -3.785079  2.467707 -1.225815
      ESP Fit Center 2652 is at  -4.165134  2.290484 -1.225815
      ESP Fit Center 2653 is at  -4.508641  2.049958 -1.225815
      ESP Fit Center 2654 is at  -4.805162  1.753437 -1.225815
      ESP Fit Center 2655 is at  -5.045688  1.409930 -1.225815
      ESP Fit Center 2656 is at  -5.222911  1.029875 -1.225815
      ESP Fit Center 2657 is at  -5.331445  0.624820 -1.225815
      ESP Fit Center 2658 is at  -5.367993  0.207072 -1.225815
      ESP Fit Center 2659 is at  -5.331445 -0.210677 -1.225815
      ESP Fit Center 2660 is at  -5.222911 -0.615732 -1.225815
      ESP Fit Center 2661 is at  -5.045688 -0.995787 -1.225815
      ESP Fit Center 2662 is at  -4.805162 -1.339294 -1.225815
      ESP Fit Center 2663 is at  -4.508641 -1.635815 -1.225815
      ESP Fit Center 2664 is at  -4.165134 -1.876341 -1.225815
      ESP Fit Center 2665 is at  -3.785079 -2.053564 -1.225815
      ESP Fit Center 2666 is at  -3.380024 -2.162098 -1.225815
      ESP Fit Center 2667 is at  -2.054865  2.194022 -1.587061
      ESP Fit Center 2668 is at  -2.447296  2.329844 -1.587061
      ESP Fit Center 2669 is at  -2.858340  2.388943 -1.587061
      ESP Fit Center 2670 is at  -3.273140  2.369184 -1.587061
      ESP Fit Center 2671 is at  -3.676705  2.271280 -1.587061
      ESP Fit Center 2672 is at  -4.054448  2.098771 -1.587061
      ESP Fit Center 2673 is at  -4.392718  1.857890 -1.587061
      ESP Fit Center 2674 is at  -4.679287  1.557345 -1.587061
      ESP Fit Center 2675 is at  -4.903799  1.207997 -1.587061
      ESP Fit Center 2676 is at  -5.058140  0.822473 -1.587061
      ESP Fit Center 2677 is at  -5.136730  0.414707 -1.587061
      ESP Fit Center 2678 is at  -5.136730 -0.000564 -1.587061
      ESP Fit Center 2679 is at  -5.058140 -0.408330 -1.587061
      ESP Fit Center 2680 is at  -4.903799 -0.793854 -1.587061
      ESP Fit Center 2681 is at  -4.679287 -1.143201 -1.587061
      ESP Fit Center 2682 is at  -4.392718 -1.443747 -1.587061
      ESP Fit Center 2683 is at  -4.054448 -1.684627 -1.587061
      ESP Fit Center 2684 is at  -3.676705 -1.857137 -1.587061
      ESP Fit Center 2685 is at  -3.273140 -1.955041 -1.587061
      ESP Fit Center 2686 is at  -2.133910  1.927191 -1.909229
      ESP Fit Center 2687 is at  -2.537441  2.068393 -1.909229
      ESP Fit Center 2688 is at  -2.962275  2.116260 -1.909229
      ESP Fit Center 2689 is at  -3.387110  2.068393 -1.909229
      ESP Fit Center 2690 is at  -3.790641  1.927191 -1.909229
      ESP Fit Center 2691 is at  -4.152635  1.699735 -1.909229
      ESP Fit Center 2692 is at  -4.454939  1.397431 -1.909229
      ESP Fit Center 2693 is at  -4.682395  1.035437 -1.909229
      ESP Fit Center 2694 is at  -4.823596  0.631906 -1.909229
      ESP Fit Center 2695 is at  -4.871464  0.207072 -1.909229
      ESP Fit Center 2696 is at  -4.823596 -0.217763 -1.909229
      ESP Fit Center 2697 is at  -4.682395 -0.621294 -1.909229
      ESP Fit Center 2698 is at  -4.454939 -0.983288 -1.909229
      ESP Fit Center 2699 is at  -4.152635 -1.285592 -1.909229
      ESP Fit Center 2700 is at  -3.790641 -1.513048 -1.909229
      ESP Fit Center 2701 is at  -3.387110 -1.654249 -1.909229
      ESP Fit Center 2702 is at  -2.168765  1.581471 -2.184386
      ESP Fit Center 2703 is at  -2.551524  1.740015 -2.184386
      ESP Fit Center 2704 is at  -2.962275  1.794092 -2.184386
      ESP Fit Center 2705 is at  -3.373026  1.740015 -2.184386
      ESP Fit Center 2706 is at  -3.755786  1.581471 -2.184386
      ESP Fit Center 2707 is at  -4.084468  1.329264 -2.184386
      ESP Fit Center 2708 is at  -4.336675  1.000582 -2.184386
      ESP Fit Center 2709 is at  -4.495219  0.617823 -2.184386
      ESP Fit Center 2710 is at  -4.549296  0.207072 -2.184386
      ESP Fit Center 2711 is at  -4.495219 -0.203679 -2.184386
      ESP Fit Center 2712 is at  -4.336675 -0.586439 -2.184386
      ESP Fit Center 2713 is at  -4.084468 -0.915121 -2.184386
      ESP Fit Center 2714 is at  -3.755786 -1.167328 -2.184386
      ESP Fit Center 2715 is at  -3.373026 -1.325872 -2.184386
      ESP Fit Center 2716 is at  -2.962275 -1.379949 -2.184386
      ESP Fit Center 2717 is at  -2.349388  1.268623 -2.405758
      ESP Fit Center 2718 is at  -2.749422  1.414224 -2.405758
      ESP Fit Center 2719 is at  -3.175129  1.414224 -2.405758
      ESP Fit Center 2720 is at  -3.575163  1.268623 -2.405758
      ESP Fit Center 2721 is at  -3.901273  0.994984 -2.405758
      ESP Fit Center 2722 is at  -4.114127  0.626311 -2.405758
      ESP Fit Center 2723 is at  -4.188050  0.207072 -2.405758
      ESP Fit Center 2724 is at  -4.114127 -0.212168 -2.405758
      ESP Fit Center 2725 is at  -3.901273 -0.580841 -2.405758
      ESP Fit Center 2726 is at  -3.575163 -0.854480 -2.405758
      ESP Fit Center 2727 is at  -3.175129 -1.000081 -2.405758
      ESP Fit Center 2728 is at  -2.239711  0.624245 -2.567893
      ESP Fit Center 2729 is at  -2.545102  0.929636 -2.567893
      ESP Fit Center 2730 is at  -2.962275  1.041417 -2.567893
      ESP Fit Center 2731 is at  -3.379448  0.929636 -2.567893
      ESP Fit Center 2732 is at  -3.684840  0.624245 -2.567893
      ESP Fit Center 2733 is at  -3.796621  0.207072 -2.567893
      ESP Fit Center 2734 is at  -3.684840 -0.210101 -2.567893
      ESP Fit Center 2735 is at  -3.379448 -0.515493 -2.567893
      ESP Fit Center 2736 is at  -2.962275 -0.627274 -2.567893
      ESP Fit Center 2737 is at  -2.539902  0.207072 -2.666799
      ESP Fit Center 2738 is at  -2.751089  0.572857 -2.666799
      ESP Fit Center 2739 is at  -3.173462  0.572857 -2.666799
      ESP Fit Center 2740 is at  -3.384648  0.207072 -2.666799
      ESP Fit Center 2741 is at  -3.173462 -0.158714 -2.666799
      ESP Fit Center 2742 is at  -2.751089 -0.158714 -2.666799
      ESP Fit Center 2743 is at  -2.962275  0.207072 -2.700040
      ESP Fit Center 2744 is at  -0.724368 -3.302787 -0.459018
      ESP Fit Center 2745 is at  -0.311070 -3.343493 -0.459018
      ESP Fit Center 2746 is at   0.102228 -3.302787 -0.459018
      ESP Fit Center 2747 is at   0.499643 -3.182232 -0.459018
      ESP Fit Center 2748 is at   0.865903 -2.986462 -0.459018
      ESP Fit Center 2749 is at   1.186933 -2.723000 -0.459018
      ESP Fit Center 2750 is at  -1.725569 -2.857416 -0.880414
      ESP Fit Center 2751 is at  -1.391070 -3.095612 -0.880414
      ESP Fit Center 2752 is at  -1.017537 -3.266198 -0.880414
      ESP Fit Center 2753 is at  -0.618470 -3.363011 -0.880414
      ESP Fit Center 2754 is at  -0.208293 -3.382550 -0.880414
      ESP Fit Center 2755 is at   0.198169 -3.324110 -0.880414
      ESP Fit Center 2756 is at   0.586226 -3.189802 -0.880414
      ESP Fit Center 2757 is at   0.941853 -2.984481 -0.880414
      ESP Fit Center 2758 is at   1.252195 -2.715567 -0.880414
      ESP Fit Center 2759 is at   1.506038 -2.392781 -0.880414
      ESP Fit Center 2760 is at  -1.809073 -2.723000 -1.301809
      ESP Fit Center 2761 is at  -1.488044 -2.986462 -1.301809
      ESP Fit Center 2762 is at  -1.121783 -3.182232 -1.301809
      ESP Fit Center 2763 is at  -0.724368 -3.302787 -1.301809
      ESP Fit Center 2764 is at  -0.311070 -3.343493 -1.301809
      ESP Fit Center 2765 is at   0.102228 -3.302787 -1.301809
      ESP Fit Center 2766 is at   0.499643 -3.182232 -1.301809
      ESP Fit Center 2767 is at   0.865903 -2.986462 -1.301809
      ESP Fit Center 2768 is at   1.186933 -2.723000 -1.301809
      ESP Fit Center 2769 is at   1.450395 -2.401970 -1.301809
      ESP Fit Center 2770 is at  -1.925528 -2.397969 -1.707010
      ESP Fit Center 2771 is at  -1.646374 -2.708001 -1.707010
      ESP Fit Center 2772 is at  -1.308860 -2.953219 -1.707010
      ESP Fit Center 2773 is at  -0.927738 -3.122906 -1.707010
      ESP Fit Center 2774 is at  -0.519665 -3.209644 -1.707010
      ESP Fit Center 2775 is at  -0.102475 -3.209644 -1.707010
      ESP Fit Center 2776 is at   0.305598 -3.122906 -1.707010
      ESP Fit Center 2777 is at   0.686720 -2.953219 -1.707010
      ESP Fit Center 2778 is at   1.024233 -2.708001 -1.707010
      ESP Fit Center 2779 is at   1.303388 -2.397969 -1.707010
      ESP Fit Center 2780 is at   1.511983 -2.036672 -1.707010
      ESP Fit Center 2781 is at  -1.811585 -2.211901 -2.080445
      ESP Fit Center 2782 is at  -1.543542 -2.531341 -2.080445
      ESP Fit Center 2783 is at  -1.209057 -2.780356 -2.080445
      ESP Fit Center 2784 is at  -0.826161 -2.945521 -2.080445
      ESP Fit Center 2785 is at  -0.415497 -3.017933 -2.080445
      ESP Fit Center 2786 is at   0.000798 -2.993686 -2.080445
      ESP Fit Center 2787 is at   0.400279 -2.874089 -2.080445
      ESP Fit Center 2788 is at   0.761411 -2.665589 -2.080445
      ESP Fit Center 2789 is at   1.064726 -2.379427 -2.080445
      ESP Fit Center 2790 is at   1.293871 -2.031029 -2.080445
      ESP Fit Center 2791 is at   1.436494 -1.639177 -2.080445
      ESP Fit Center 2792 is at   1.216281 -1.224997 -2.407764
      ESP Fit Center 2793 is at  -1.824195 -1.432971 -2.407764
      ESP Fit Center 2794 is at  -1.711973 -1.833495 -2.407764
      ESP Fit Center 2795 is at  -1.495853 -2.188889 -2.407764
      ESP Fit Center 2796 is at  -1.191863 -2.472796 -2.407764
      ESP Fit Center 2797 is at  -0.822549 -2.664160 -2.407764
      ESP Fit Center 2798 is at  -0.415300 -2.748787 -2.407764
      ESP Fit Center 2799 is at  -0.000321 -2.720401 -2.407764
      ESP Fit Center 2800 is at   0.391611 -2.581109 -2.407764
      ESP Fit Center 2801 is at   0.731428 -2.341239 -2.407764
      ESP Fit Center 2802 is at   0.993928 -2.018584 -2.407764
      ESP Fit Center 2803 is at   1.159642 -1.637071 -2.407764
      ESP Fit Center 2804 is at   0.888962 -1.224997 -2.676388
      ESP Fit Center 2805 is at   0.816591 -0.814562 -2.676388
      ESP Fit Center 2806 is at   0.608208 -0.453631 -2.676388
      ESP Fit Center 2807 is at   0.288946 -0.185739 -2.676388
      ESP Fit Center 2808 is at  -0.102687 -0.043196 -2.676388
      ESP Fit Center 2809 is at  -0.519453 -0.043196 -2.676388
      ESP Fit Center 2810 is at  -0.911086 -0.185739 -2.676388
      ESP Fit Center 2811 is at  -1.230348 -0.453631 -2.676388
      ESP Fit Center 2812 is at  -1.438731 -0.814562 -2.676388
      ESP Fit Center 2813 is at  -1.511102 -1.224997 -2.676388
      ESP Fit Center 2814 is at  -1.438731 -1.635432 -2.676388
      ESP Fit Center 2815 is at  -1.230348 -1.996362 -2.676388
      ESP Fit Center 2816 is at  -0.911086 -2.264255 -2.676388
      ESP Fit Center 2817 is at  -0.519453 -2.406797 -2.676388
      ESP Fit Center 2818 is at  -0.102687 -2.406797 -2.676388
      ESP Fit Center 2819 is at   0.288946 -2.264255 -2.676388
      ESP Fit Center 2820 is at   0.608208 -1.996362 -2.676388
      ESP Fit Center 2821 is at   0.816591 -1.635432 -2.676388
      ESP Fit Center 2822 is at   0.515526 -1.224997 -2.875993
      ESP Fit Center 2823 is at   0.404783 -0.811699 -2.875993
      ESP Fit Center 2824 is at   0.102228 -0.509143 -2.875993
      ESP Fit Center 2825 is at  -0.311070 -0.398400 -2.875993
      ESP Fit Center 2826 is at  -0.724368 -0.509143 -2.875993
      ESP Fit Center 2827 is at  -1.026923 -0.811699 -2.875993
      ESP Fit Center 2828 is at  -1.137666 -1.224997 -2.875993
      ESP Fit Center 2829 is at  -1.026923 -1.638295 -2.875993
      ESP Fit Center 2830 is at  -0.724368 -1.940850 -2.875993
      ESP Fit Center 2831 is at  -0.311070 -2.051593 -2.875993
      ESP Fit Center 2832 is at   0.102228 -1.940850 -2.875993
      ESP Fit Center 2833 is at   0.404783 -1.638295 -2.875993
      ESP Fit Center 2834 is at   0.110325 -1.224997 -2.998910
      ESP Fit Center 2835 is at  -0.100373 -0.860058 -2.998910
      ESP Fit Center 2836 is at  -0.521768 -0.860058 -2.998910
      ESP Fit Center 2837 is at  -0.732465 -1.224997 -2.998910
      ESP Fit Center 2838 is at  -0.521768 -1.589936 -2.998910
      ESP Fit Center 2839 is at  -0.100373 -1.589936 -2.998910
      ESP Fit Center 2840 is at  -0.311070 -1.224997 -3.040414
      ESP Fit Center 2841 is at  -0.311173 -1.224899  3.040601
      ESP Fit Center 2842 is at   0.110222 -1.224899  2.999098
      ESP Fit Center 2843 is at  -0.100476 -0.859960  2.999098
      ESP Fit Center 2844 is at  -0.521871 -0.859960  2.999098
      ESP Fit Center 2845 is at  -0.732568 -1.224899  2.999098
      ESP Fit Center 2846 is at  -0.521871 -1.589838  2.999098
      ESP Fit Center 2847 is at  -0.100476 -1.589838  2.999098
      ESP Fit Center 2848 is at   0.515423 -1.224899  2.876181
      ESP Fit Center 2849 is at   0.404680 -0.811601  2.876181
      ESP Fit Center 2850 is at   0.102125 -0.509045  2.876181
      ESP Fit Center 2851 is at  -0.311173 -0.398303  2.876181
      ESP Fit Center 2852 is at  -0.724471 -0.509045  2.876181
      ESP Fit Center 2853 is at  -1.027026 -0.811601  2.876181
      ESP Fit Center 2854 is at  -1.137769 -1.224899  2.876181
      ESP Fit Center 2855 is at  -1.027026 -1.638197  2.876181
      ESP Fit Center 2856 is at  -0.724471 -1.940752  2.876181
      ESP Fit Center 2857 is at  -0.311173 -2.051495  2.876181
      ESP Fit Center 2858 is at   0.102125 -1.940752  2.876181
      ESP Fit Center 2859 is at   0.404680 -1.638197  2.876181
      ESP Fit Center 2860 is at   0.888859 -1.224899  2.676576
      ESP Fit Center 2861 is at   0.816488 -0.814464  2.676576
      ESP Fit Center 2862 is at   0.608104 -0.453533  2.676576
      ESP Fit Center 2863 is at   0.288843 -0.185641  2.676576
      ESP Fit Center 2864 is at  -0.102790 -0.043098  2.676576
      ESP Fit Center 2865 is at  -0.519556 -0.043098  2.676576
      ESP Fit Center 2866 is at  -0.911189 -0.185641  2.676576
      ESP Fit Center 2867 is at  -1.230451 -0.453533  2.676576
      ESP Fit Center 2868 is at  -1.438834 -0.814464  2.676576
      ESP Fit Center 2869 is at  -1.511205 -1.224899  2.676576
      ESP Fit Center 2870 is at  -1.438834 -1.635334  2.676576
      ESP Fit Center 2871 is at  -1.230451 -1.996264  2.676576
      ESP Fit Center 2872 is at  -0.911189 -2.264157  2.676576
      ESP Fit Center 2873 is at  -0.519556 -2.406699  2.676576
      ESP Fit Center 2874 is at  -0.102790 -2.406699  2.676576
      ESP Fit Center 2875 is at   0.288843 -2.264157  2.676576
      ESP Fit Center 2876 is at   0.608104 -1.996264  2.676576
      ESP Fit Center 2877 is at   0.816488 -1.635334  2.676576
      ESP Fit Center 2878 is at   1.216177 -1.224899  2.407952
      ESP Fit Center 2879 is at  -1.824298 -1.432873  2.407952
      ESP Fit Center 2880 is at  -1.712076 -1.833397  2.407952
      ESP Fit Center 2881 is at  -1.495956 -2.188791  2.407952
      ESP Fit Center 2882 is at  -1.191966 -2.472698  2.407952
      ESP Fit Center 2883 is at  -0.822652 -2.664062  2.407952
      ESP Fit Center 2884 is at  -0.415403 -2.748689  2.407952
      ESP Fit Center 2885 is at  -0.000424 -2.720304  2.407952
      ESP Fit Center 2886 is at   0.391507 -2.581011  2.407952
      ESP Fit Center 2887 is at   0.731325 -2.341142  2.407952
      ESP Fit Center 2888 is at   0.993825 -2.018486  2.407952
      ESP Fit Center 2889 is at   1.159539 -1.636973  2.407952
      ESP Fit Center 2890 is at  -1.811688 -2.211803  2.080633
      ESP Fit Center 2891 is at  -1.543646 -2.531243  2.080633
      ESP Fit Center 2892 is at  -1.209160 -2.780258  2.080633
      ESP Fit Center 2893 is at  -0.826264 -2.945423  2.080633
      ESP Fit Center 2894 is at  -0.415600 -3.017835  2.080633
      ESP Fit Center 2895 is at   0.000695 -2.993588  2.080633
      ESP Fit Center 2896 is at   0.400176 -2.873991  2.080633
      ESP Fit Center 2897 is at   0.761308 -2.665491  2.080633
      ESP Fit Center 2898 is at   1.064623 -2.379329  2.080633
      ESP Fit Center 2899 is at   1.293768 -2.030931  2.080633
      ESP Fit Center 2900 is at   1.436390 -1.639079  2.080633
      ESP Fit Center 2901 is at  -1.925631 -2.397871  1.707198
      ESP Fit Center 2902 is at  -1.646477 -2.707904  1.707198
      ESP Fit Center 2903 is at  -1.308963 -2.953122  1.707198
      ESP Fit Center 2904 is at  -0.927841 -3.122808  1.707198
      ESP Fit Center 2905 is at  -0.519768 -3.209547  1.707198
      ESP Fit Center 2906 is at  -0.102578 -3.209547  1.707198
      ESP Fit Center 2907 is at   0.305495 -3.122808  1.707198
      ESP Fit Center 2908 is at   0.686617 -2.953122  1.707198
      ESP Fit Center 2909 is at   1.024130 -2.707904  1.707198
      ESP Fit Center 2910 is at   1.303285 -2.397871  1.707198
      ESP Fit Center 2911 is at   1.511880 -2.036574  1.707198
      ESP Fit Center 2912 is at  -1.809176 -2.722902  1.301996
      ESP Fit Center 2913 is at  -1.488147 -2.986364  1.301996
      ESP Fit Center 2914 is at  -1.121887 -3.182134  1.301996
      ESP Fit Center 2915 is at  -0.724471 -3.302689  1.301996
      ESP Fit Center 2916 is at  -0.311173 -3.343395  1.301996
      ESP Fit Center 2917 is at   0.102125 -3.302689  1.301996
      ESP Fit Center 2918 is at   0.499540 -3.182134  1.301996
      ESP Fit Center 2919 is at   0.865800 -2.986364  1.301996
      ESP Fit Center 2920 is at   1.186830 -2.722902  1.301996
      ESP Fit Center 2921 is at   1.450292 -2.401872  1.301996
      ESP Fit Center 2922 is at  -1.725672 -2.857318  0.880601
      ESP Fit Center 2923 is at  -1.391173 -3.095514  0.880601
      ESP Fit Center 2924 is at  -1.017640 -3.266101  0.880601
      ESP Fit Center 2925 is at  -0.618573 -3.362913  0.880601
      ESP Fit Center 2926 is at  -0.208396 -3.382452  0.880601
      ESP Fit Center 2927 is at   0.198066 -3.324012  0.880601
      ESP Fit Center 2928 is at   0.586123 -3.189704  0.880601
      ESP Fit Center 2929 is at   0.941750 -2.984383  0.880601
      ESP Fit Center 2930 is at   1.252092 -2.715469  0.880601
      ESP Fit Center 2931 is at   1.505934 -2.392683  0.880601
      ESP Fit Center 2932 is at  -0.724471 -3.302689  0.459206
      ESP Fit Center 2933 is at  -0.311173 -3.343395  0.459206
      ESP Fit Center 2934 is at   0.102125 -3.302689  0.459206
      ESP Fit Center 2935 is at   0.499540 -3.182134  0.459206
      ESP Fit Center 2936 is at   0.865800 -2.986364  0.459206
      ESP Fit Center 2937 is at   1.186830 -2.722902  0.459206
      ESP Fit Center 2938 is at   0.724449  3.302911 -0.459038
      ESP Fit Center 2939 is at   0.311151  3.343617 -0.459038
      ESP Fit Center 2940 is at  -0.102147  3.302911 -0.459038
      ESP Fit Center 2941 is at  -0.499562  3.182356 -0.459038
      ESP Fit Center 2942 is at  -0.865822  2.986586 -0.459038
      ESP Fit Center 2943 is at  -1.186852  2.723124 -0.459038
      ESP Fit Center 2944 is at   1.564074  2.984605 -0.880433
      ESP Fit Center 2945 is at   1.208448  3.189926 -0.880433
      ESP Fit Center 2946 is at   0.820390  3.324234 -0.880433
      ESP Fit Center 2947 is at   0.413928  3.382674 -0.880433
      ESP Fit Center 2948 is at   0.003751  3.363135 -0.880433
      ESP Fit Center 2949 is at  -0.395316  3.266322 -0.880433
      ESP Fit Center 2950 is at  -0.768849  3.095736 -0.880433
      ESP Fit Center 2951 is at  -1.103348  2.857540 -0.880433
      ESP Fit Center 2952 is at  -1.386724  2.560344 -0.880433
      ESP Fit Center 2953 is at   1.809154  2.723124 -1.301828
      ESP Fit Center 2954 is at   1.488125  2.986586 -1.301828
      ESP Fit Center 2955 is at   1.121865  3.182356 -1.301828
      ESP Fit Center 2956 is at   0.724449  3.302911 -1.301828
      ESP Fit Center 2957 is at   0.311151  3.343617 -1.301828
      ESP Fit Center 2958 is at  -0.102147  3.302911 -1.301828
      ESP Fit Center 2959 is at  -0.499562  3.182356 -1.301828
      ESP Fit Center 2960 is at  -0.865822  2.986586 -1.301828
      ESP Fit Center 2961 is at  -1.186852  2.723124 -1.301828
      ESP Fit Center 2962 is at  -1.450314  2.402094 -1.301828
      ESP Fit Center 2963 is at   1.925609  2.398093 -1.707029
      ESP Fit Center 2964 is at   1.646455  2.708125 -1.707029
      ESP Fit Center 2965 is at   1.308941  2.953343 -1.707029
      ESP Fit Center 2966 is at   0.927819  3.123030 -1.707029
      ESP Fit Center 2967 is at   0.519746  3.209768 -1.707029
      ESP Fit Center 2968 is at   0.102556  3.209768 -1.707029
      ESP Fit Center 2969 is at  -0.305517  3.123030 -1.707029
      ESP Fit Center 2970 is at  -0.686639  2.953343 -1.707029
      ESP Fit Center 2971 is at  -1.024152  2.708125 -1.707029
      ESP Fit Center 2972 is at  -1.303307  2.398093 -1.707029
      ESP Fit Center 2973 is at  -1.511902  2.036796 -1.707029
      ESP Fit Center 2974 is at   1.916092  2.031152 -2.080465
      ESP Fit Center 2975 is at   1.686947  2.379551 -2.080465
      ESP Fit Center 2976 is at   1.383633  2.665713 -2.080465
      ESP Fit Center 2977 is at   1.022500  2.874213 -2.080465
      ESP Fit Center 2978 is at   0.623019  2.993810 -2.080465
      ESP Fit Center 2979 is at   0.206724  3.018057 -2.080465
      ESP Fit Center 2980 is at  -0.203940  2.945645 -2.080465
      ESP Fit Center 2981 is at  -0.586836  2.780480 -2.080465
      ESP Fit Center 2982 is at  -0.921321  2.531465 -2.080465
      ESP Fit Center 2983 is at  -1.189364  2.212025 -2.080465
      ESP Fit Center 2984 is at  -1.376513  1.839380 -2.080465
      ESP Fit Center 2985 is at   1.781863  1.637195 -2.407784
      ESP Fit Center 2986 is at   1.616149  2.018708 -2.407784
      ESP Fit Center 2987 is at   1.353649  2.341363 -2.407784
      ESP Fit Center 2988 is at   1.013832  2.581233 -2.407784
      ESP Fit Center 2989 is at   0.621900  2.720525 -2.407784
      ESP Fit Center 2990 is at   0.206921  2.748911 -2.407784
      ESP Fit Center 2991 is at  -0.200327  2.664284 -2.407784
      ESP Fit Center 2992 is at  -0.569642  2.472920 -2.407784
      ESP Fit Center 2993 is at  -0.873632  2.189013 -2.407784
      ESP Fit Center 2994 is at  -1.089752  1.833619 -2.407784
      ESP Fit Center 2995 is at  -1.201974  1.433095 -2.407784
      ESP Fit Center 2996 is at  -1.201974  1.017146 -2.407784
      ESP Fit Center 2997 is at   1.511183  1.225121 -2.676407
      ESP Fit Center 2998 is at   1.438812  1.635556 -2.676407
      ESP Fit Center 2999 is at   1.230429  1.996486 -2.676407
      ESP Fit Center 3000 is at   0.911167  2.264379 -2.676407
      ESP Fit Center 3001 is at   0.519534  2.406921 -2.676407
      ESP Fit Center 3002 is at   0.102768  2.406921 -2.676407
      ESP Fit Center 3003 is at  -0.288865  2.264379 -2.676407
      ESP Fit Center 3004 is at  -0.608126  1.996486 -2.676407
      ESP Fit Center 3005 is at  -0.816510  1.635556 -2.676407
      ESP Fit Center 3006 is at  -0.888881  1.225121 -2.676407
      ESP Fit Center 3007 is at  -0.816510  0.814686 -2.676407
      ESP Fit Center 3008 is at  -0.608126  0.453755 -2.676407
      ESP Fit Center 3009 is at  -0.288865  0.185863 -2.676407
      ESP Fit Center 3010 is at   0.102768  0.043320 -2.676407
      ESP Fit Center 3011 is at   0.519534  0.043320 -2.676407
      ESP Fit Center 3012 is at   0.911167  0.185863 -2.676407
      ESP Fit Center 3013 is at   1.230429  0.453755 -2.676407
      ESP Fit Center 3014 is at   1.438812  0.814686 -2.676407
      ESP Fit Center 3015 is at   1.137747  1.225121 -2.876013
      ESP Fit Center 3016 is at   1.027004  1.638419 -2.876013
      ESP Fit Center 3017 is at   0.724449  1.940974 -2.876013
      ESP Fit Center 3018 is at   0.311151  2.051717 -2.876013
      ESP Fit Center 3019 is at  -0.102147  1.940974 -2.876013
      ESP Fit Center 3020 is at  -0.404702  1.638419 -2.876013
      ESP Fit Center 3021 is at  -0.515445  1.225121 -2.876013
      ESP Fit Center 3022 is at  -0.404702  0.811823 -2.876013
      ESP Fit Center 3023 is at  -0.102147  0.509267 -2.876013
      ESP Fit Center 3024 is at   0.311151  0.398524 -2.876013
      ESP Fit Center 3025 is at   0.724449  0.509267 -2.876013
      ESP Fit Center 3026 is at   1.027004  0.811823 -2.876013
      ESP Fit Center 3027 is at   0.732546  1.225121 -2.998929
      ESP Fit Center 3028 is at   0.521849  1.590060 -2.998929
      ESP Fit Center 3029 is at   0.100454  1.590060 -2.998929
      ESP Fit Center 3030 is at  -0.110244  1.225121 -2.998929
      ESP Fit Center 3031 is at   0.100454  0.860182 -2.998929
      ESP Fit Center 3032 is at   0.521849  0.860182 -2.998929
      ESP Fit Center 3033 is at   0.311151  1.225121 -3.040433
      ESP Fit Center 3034 is at   0.311201  1.225065  3.040576
      ESP Fit Center 3035 is at   0.732596  1.225065  2.999072
      ESP Fit Center 3036 is at   0.521899  1.590004  2.999072
      ESP Fit Center 3037 is at   0.100504  1.590004  2.999072
      ESP Fit Center 3038 is at  -0.110194  1.225065  2.999072
      ESP Fit Center 3039 is at   0.100504  0.860126  2.999072
      ESP Fit Center 3040 is at   0.521899  0.860126  2.999072
      ESP Fit Center 3041 is at   1.137797  1.225065  2.876155
      ESP Fit Center 3042 is at   1.027055  1.638363  2.876155
      ESP Fit Center 3043 is at   0.724499  1.940919  2.876155
      ESP Fit Center 3044 is at   0.311201  2.051662  2.876155
      ESP Fit Center 3045 is at  -0.102097  1.940919  2.876155
      ESP Fit Center 3046 is at  -0.404652  1.638363  2.876155
      ESP Fit Center 3047 is at  -0.515395  1.225065  2.876155
      ESP Fit Center 3048 is at  -0.404652  0.811767  2.876155
      ESP Fit Center 3049 is at  -0.102097  0.509212  2.876155
      ESP Fit Center 3050 is at   0.311201  0.398469  2.876155
      ESP Fit Center 3051 is at   0.724499  0.509212  2.876155
      ESP Fit Center 3052 is at   1.027055  0.811767  2.876155
      ESP Fit Center 3053 is at   1.511233  1.225065  2.676550
      ESP Fit Center 3054 is at   1.438862  1.635500  2.676550
      ESP Fit Center 3055 is at   1.230479  1.996431  2.676550
      ESP Fit Center 3056 is at   0.911217  2.264323  2.676550
      ESP Fit Center 3057 is at   0.519585  2.406866  2.676550
      ESP Fit Center 3058 is at   0.102818  2.406866  2.676550
      ESP Fit Center 3059 is at  -0.288815  2.264323  2.676550
      ESP Fit Center 3060 is at  -0.608076  1.996431  2.676550
      ESP Fit Center 3061 is at  -0.816460  1.635500  2.676550
      ESP Fit Center 3062 is at  -0.888830  1.225065  2.676550
      ESP Fit Center 3063 is at  -0.816460  0.814630  2.676550
      ESP Fit Center 3064 is at  -0.608076  0.453700  2.676550
      ESP Fit Center 3065 is at  -0.288815  0.185807  2.676550
      ESP Fit Center 3066 is at   0.102818  0.043265  2.676550
      ESP Fit Center 3067 is at   0.519585  0.043265  2.676550
      ESP Fit Center 3068 is at   0.911217  0.185807  2.676550
      ESP Fit Center 3069 is at   1.230479  0.453700  2.676550
      ESP Fit Center 3070 is at   1.438862  0.814630  2.676550
      ESP Fit Center 3071 is at   1.781914  1.637140  2.407926
      ESP Fit Center 3072 is at   1.616199  2.018652  2.407926
      ESP Fit Center 3073 is at   1.353699  2.341308  2.407926
      ESP Fit Center 3074 is at   1.013882  2.581177  2.407926
      ESP Fit Center 3075 is at   0.621950  2.720470  2.407926
      ESP Fit Center 3076 is at   0.206971  2.748855  2.407926
      ESP Fit Center 3077 is at  -0.200277  2.664228  2.407926
      ESP Fit Center 3078 is at  -0.569592  2.472865  2.407926
      ESP Fit Center 3079 is at  -0.873582  2.188958  2.407926
      ESP Fit Center 3080 is at  -1.089702  1.833563  2.407926
      ESP Fit Center 3081 is at  -1.201924  1.433040  2.407926
      ESP Fit Center 3082 is at  -1.201924  1.017091  2.407926
      ESP Fit Center 3083 is at   1.916143  2.031097  2.080607
      ESP Fit Center 3084 is at   1.686997  2.379495  2.080607
      ESP Fit Center 3085 is at   1.383683  2.665658  2.080607
      ESP Fit Center 3086 is at   1.022550  2.874158  2.080607
      ESP Fit Center 3087 is at   0.623069  2.993755  2.080607
      ESP Fit Center 3088 is at   0.206775  3.018001  2.080607
      ESP Fit Center 3089 is at  -0.203890  2.945590  2.080607
      ESP Fit Center 3090 is at  -0.586786  2.780425  2.080607
      ESP Fit Center 3091 is at  -0.921271  2.531410  2.080607
      ESP Fit Center 3092 is at  -1.189313  2.211969  2.080607
      ESP Fit Center 3093 is at  -1.376463  1.839325  2.080607
      ESP Fit Center 3094 is at   1.925659  2.398038  1.707172
      ESP Fit Center 3095 is at   1.646505  2.708070  1.707172
      ESP Fit Center 3096 is at   1.308991  2.953288  1.707172
      ESP Fit Center 3097 is at   0.927869  3.122974  1.707172
      ESP Fit Center 3098 is at   0.519796  3.209713  1.707172
      ESP Fit Center 3099 is at   0.102606  3.209713  1.707172
      ESP Fit Center 3100 is at  -0.305467  3.122974  1.707172
      ESP Fit Center 3101 is at  -0.686589  2.953288  1.707172
      ESP Fit Center 3102 is at  -1.024102  2.708070  1.707172
      ESP Fit Center 3103 is at  -1.303257  2.398038  1.707172
      ESP Fit Center 3104 is at  -1.511852  2.036741  1.707172
      ESP Fit Center 3105 is at   1.809204  2.723068  1.301971
      ESP Fit Center 3106 is at   1.488175  2.986531  1.301971
      ESP Fit Center 3107 is at   1.121915  3.182301  1.301971
      ESP Fit Center 3108 is at   0.724499  3.302855  1.301971
      ESP Fit Center 3109 is at   0.311201  3.343561  1.301971
      ESP Fit Center 3110 is at  -0.102097  3.302855  1.301971
      ESP Fit Center 3111 is at  -0.499512  3.182301  1.301971
      ESP Fit Center 3112 is at  -0.865772  2.986531  1.301971
      ESP Fit Center 3113 is at  -1.186802  2.723068  1.301971
      ESP Fit Center 3114 is at  -1.450264  2.402039  1.301971
      ESP Fit Center 3115 is at   1.564124  2.984549  0.880576
      ESP Fit Center 3116 is at   1.208498  3.189870  0.880576
      ESP Fit Center 3117 is at   0.820441  3.324178  0.880576
      ESP Fit Center 3118 is at   0.413978  3.382619  0.880576
      ESP Fit Center 3119 is at   0.003801  3.363080  0.880576
      ESP Fit Center 3120 is at  -0.395266  3.266267  0.880576
      ESP Fit Center 3121 is at  -0.768799  3.095680  0.880576
      ESP Fit Center 3122 is at  -1.103298  2.857484  0.880576
      ESP Fit Center 3123 is at  -1.386673  2.560289  0.880576
      ESP Fit Center 3124 is at   0.724499  3.302855  0.459181
      ESP Fit Center 3125 is at   0.311201  3.343561  0.459181
      ESP Fit Center 3126 is at  -0.102097  3.302855  0.459181
      ESP Fit Center 3127 is at  -0.499512  3.182301  0.459181
      ESP Fit Center 3128 is at  -0.865772  2.986531  0.459181
      ESP Fit Center 3129 is at  -1.186802  2.723068  0.459181
      ESP Fit Center 3130 is at   2.962202 -0.207255  2.999954
      ESP Fit Center 3131 is at   3.370702 -0.207255  2.972012
      ESP Fit Center 3132 is at   3.166452  0.146516  2.972012
      ESP Fit Center 3133 is at   2.757952  0.146516  2.972012
      ESP Fit Center 3134 is at   2.553702 -0.207255  2.972012
      ESP Fit Center 3135 is at   2.757952 -0.561026  2.972012
      ESP Fit Center 3136 is at   3.166452 -0.561026  2.972012
      ESP Fit Center 3137 is at   3.771592 -0.207255  2.888706
      ESP Fit Center 3138 is at   3.663155  0.197440  2.888706
      ESP Fit Center 3139 is at   3.366897  0.493698  2.888706
      ESP Fit Center 3140 is at   2.962202  0.602135  2.888706
      ESP Fit Center 3141 is at   2.261250 -0.611950  2.888706
      ESP Fit Center 3142 is at   2.557507 -0.908208  2.888706
      ESP Fit Center 3143 is at   2.962202 -1.016645  2.888706
      ESP Fit Center 3144 is at   3.366897 -0.908208  2.888706
      ESP Fit Center 3145 is at   3.663155 -0.611950  2.888706
      ESP Fit Center 3146 is at   4.157405 -0.207255  2.751588
      ESP Fit Center 3147 is at   4.085326  0.201529  2.751588
      ESP Fit Center 3148 is at   3.877781  0.561007  2.751588
      ESP Fit Center 3149 is at   3.559804  0.827821  2.751588
      ESP Fit Center 3150 is at   3.169747  0.969790  2.751588
      ESP Fit Center 3151 is at   2.754657  0.969790  2.751588
      ESP Fit Center 3152 is at   2.364601 -1.242331  2.751588
      ESP Fit Center 3153 is at   2.754657 -1.384301  2.751588
      ESP Fit Center 3154 is at   3.169747 -1.384301  2.751588
      ESP Fit Center 3155 is at   3.559804 -1.242331  2.751588
      ESP Fit Center 3156 is at   3.877781 -0.975517  2.751588
      ESP Fit Center 3157 is at   4.085326 -0.616039  2.751588
      ESP Fit Center 3158 is at   4.520954 -0.207255  2.563212
      ESP Fit Center 3159 is at   4.463151  0.213291  2.563212
      ESP Fit Center 3160 is at   4.294030  0.602647  2.563212
      ESP Fit Center 3161 is at   4.026133  0.931937  2.563212
      ESP Fit Center 3162 is at   3.679329  1.176738  2.563212
      ESP Fit Center 3163 is at   3.279340  1.318894  2.563212
      ESP Fit Center 3164 is at   2.063301 -1.480708  2.563212
      ESP Fit Center 3165 is at   2.440208 -1.676006  2.563212
      ESP Fit Center 3166 is at   2.855829 -1.762373  2.563212
      ESP Fit Center 3167 is at   3.279340 -1.733404  2.563212
      ESP Fit Center 3168 is at   3.679329 -1.591248  2.563212
      ESP Fit Center 3169 is at   4.026133 -1.346447  2.563212
      ESP Fit Center 3170 is at   4.294030 -1.017158  2.563212
      ESP Fit Center 3171 is at   4.463151 -0.627801  2.563212
      ESP Fit Center 3172 is at   4.855466 -0.207255  2.327088
      ESP Fit Center 3173 is at   4.811203  0.199741  2.327088
      ESP Fit Center 3174 is at   4.680482  0.587706  2.327088
      ESP Fit Center 3175 is at   4.469416  0.938499  2.327088
      ESP Fit Center 3176 is at   4.187875  1.235719  2.327088
      ESP Fit Center 3177 is at   3.849023  1.465466  2.327088
      ESP Fit Center 3178 is at   3.468704  1.616999  2.327088
      ESP Fit Center 3179 is at   3.064701  1.683232  2.327088
      ESP Fit Center 3180 is at   1.899727 -1.774289  2.327088
      ESP Fit Center 3181 is at   2.261433 -1.966053  2.327088
      ESP Fit Center 3182 is at   2.655906 -2.075578  2.327088
      ESP Fit Center 3183 is at   3.064701 -2.097742  2.327088
      ESP Fit Center 3184 is at   3.468704 -2.031509  2.327088
      ESP Fit Center 3185 is at   3.849023 -1.879976  2.327088
      ESP Fit Center 3186 is at   4.187875 -1.650229  2.327088
      ESP Fit Center 3187 is at   4.469416 -1.353010  2.327088
      ESP Fit Center 3188 is at   4.680482 -1.002216  2.327088
      ESP Fit Center 3189 is at   4.811203 -0.614251  2.327088
      ESP Fit Center 3190 is at   5.154710 -0.207255  2.047613
      ESP Fit Center 3191 is at   5.115089  0.207680  2.047613
      ESP Fit Center 3192 is at   4.997656  0.607618  2.047613
      ESP Fit Center 3193 is at   4.806657  0.978104  2.047613
      ESP Fit Center 3194 is at   4.548995  1.305749  2.047613
      ESP Fit Center 3195 is at   4.233982  1.578709  2.047613
      ESP Fit Center 3196 is at   3.873003  1.787120  2.047613
      ESP Fit Center 3197 is at   3.479105  1.923449  2.047613
      ESP Fit Center 3198 is at   1.865948 -2.106023  2.047613
      ESP Fit Center 3199 is at   2.245103 -2.279177  2.047613
      ESP Fit Center 3200 is at   2.650176 -2.377446  2.047613
      ESP Fit Center 3201 is at   3.066526 -2.397280  2.047613
      ESP Fit Center 3202 is at   3.479105 -2.337960  2.047613
      ESP Fit Center 3203 is at   3.873003 -2.201630  2.047613
      ESP Fit Center 3204 is at   4.233982 -1.993219  2.047613
      ESP Fit Center 3205 is at   4.548995 -1.720259  2.047613
      ESP Fit Center 3206 is at   4.806657 -1.392614  2.047613
      ESP Fit Center 3207 is at   4.997656 -1.022128  2.047613
      ESP Fit Center 3208 is at   5.115089 -0.622190  2.047613
      ESP Fit Center 3209 is at   5.413112 -0.207255  1.729995
      ESP Fit Center 3210 is at   5.377858  0.206951  1.729995
      ESP Fit Center 3211 is at   5.273110  0.609240  1.729995
      ESP Fit Center 3212 is at   5.101881  0.988041  1.729995
      ESP Fit Center 3213 is at   4.869098  1.332455  1.729995
      ESP Fit Center 3214 is at   4.581456  1.632575  1.729995
      ESP Fit Center 3215 is at   4.247232  1.879766  1.729995
      ESP Fit Center 3216 is at   3.876040  2.066917  1.729995
      ESP Fit Center 3217 is at   3.478558  2.188645  1.729995
      ESP Fit Center 3218 is at   1.858793 -2.395736  1.729995
      ESP Fit Center 3219 is at   2.244520 -2.550733  1.729995
      ESP Fit Center 3220 is at   2.650893 -2.638313  1.729995
      ESP Fit Center 3221 is at   3.066222 -2.655956  1.729995
      ESP Fit Center 3222 is at   3.478558 -2.603155  1.729995
      ESP Fit Center 3223 is at   3.876040 -2.481427  1.729995
      ESP Fit Center 3224 is at   4.247232 -2.294276  1.729995
      ESP Fit Center 3225 is at   4.581456 -2.047085  1.729995
      ESP Fit Center 3226 is at   4.869098 -1.746966  1.729995
      ESP Fit Center 3227 is at   5.101881 -1.402551  1.729995
      ESP Fit Center 3228 is at   5.273110 -1.023751  1.729995
      ESP Fit Center 3229 is at   5.377858 -0.621461  1.729995
      ESP Fit Center 3230 is at   5.625858 -0.207255  1.380149
      ESP Fit Center 3231 is at   5.593064  0.209432  1.380149
      ESP Fit Center 3232 is at   5.495489  0.615860  1.380149
      ESP Fit Center 3233 is at   5.335537  1.002019  1.380149
      ESP Fit Center 3234 is at   5.117145  1.358402  1.380149
      ESP Fit Center 3235 is at   4.845691  1.676234  1.380149
      ESP Fit Center 3236 is at   4.527860  1.947688  1.380149
      ESP Fit Center 3237 is at   4.171477  2.166080  1.380149
      ESP Fit Center 3238 is at   3.785317  2.326032  1.380149
      ESP Fit Center 3239 is at   3.378890  2.423607  1.380149
      ESP Fit Center 3240 is at   1.752928 -2.580590  1.380149
      ESP Fit Center 3241 is at   2.139087 -2.740542  1.380149
      ESP Fit Center 3242 is at   2.545515 -2.838117  1.380149
      ESP Fit Center 3243 is at   2.962202 -2.870911  1.380149
      ESP Fit Center 3244 is at   3.378890 -2.838117  1.380149
      ESP Fit Center 3245 is at   3.785317 -2.740542  1.380149
      ESP Fit Center 3246 is at   4.171477 -2.580590  1.380149
      ESP Fit Center 3247 is at   4.527860 -2.362198  1.380149
      ESP Fit Center 3248 is at   4.845691 -2.090744  1.380149
      ESP Fit Center 3249 is at   5.117145 -1.772913  1.380149
      ESP Fit Center 3250 is at   5.335537 -1.416529  1.380149
      ESP Fit Center 3251 is at   5.495489 -1.030370  1.380149
      ESP Fit Center 3252 is at   5.593064 -0.623943  1.380149
      ESP Fit Center 3253 is at   5.788985 -0.207255  1.004593
      ESP Fit Center 3254 is at   5.758861  0.204328  1.004593
      ESP Fit Center 3255 is at   5.669131  0.607139  1.004593
      ESP Fit Center 3256 is at   5.521708  0.992592  1.004593
      ESP Fit Center 3257 is at   5.319733  1.352472  1.004593
      ESP Fit Center 3258 is at   5.067511  1.679110  1.004593
      ESP Fit Center 3259 is at   4.770419  1.965543  1.004593
      ESP Fit Center 3260 is at   4.434787  2.205667  1.004593
      ESP Fit Center 3261 is at   4.067770  2.394364  1.004593
      ESP Fit Center 3262 is at   3.677190  2.527611  1.004593
      ESP Fit Center 3263 is at   1.669677 -2.721232  1.004593
      ESP Fit Center 3264 is at   2.049489 -2.882635  1.004593
      ESP Fit Center 3265 is at   2.448754 -2.987016  1.004593
      ESP Fit Center 3266 is at   2.858962 -3.032152  1.004593
      ESP Fit Center 3267 is at   3.271371 -3.017080  1.004593
      ESP Fit Center 3268 is at   3.677190 -2.942121  1.004593
      ESP Fit Center 3269 is at   4.067770 -2.808874  1.004593
      ESP Fit Center 3270 is at   4.434787 -2.620177  1.004593
      ESP Fit Center 3271 is at   4.770419 -2.380054  1.004593
      ESP Fit Center 3272 is at   5.067511 -2.093620  1.004593
      ESP Fit Center 3273 is at   5.319733 -1.766983  1.004593
      ESP Fit Center 3274 is at   5.521708 -1.407102  1.004593
      ESP Fit Center 3275 is at   5.669131 -1.021649  1.004593
      ESP Fit Center 3276 is at   5.758861 -0.618838  1.004593
      ESP Fit Center 3277 is at   5.899454 -0.207255  0.610322
      ESP Fit Center 3278 is at   5.870869  0.201531  0.610322
      ESP Fit Center 3279 is at   5.785670  0.602361  0.610322
      ESP Fit Center 3280 is at   5.645516  0.987433  0.610322
      ESP Fit Center 3281 is at   5.453133  1.349252  0.610322
      ESP Fit Center 3282 is at   5.212268  1.680774  0.610322
      ESP Fit Center 3283 is at   4.927608  1.975549  0.610322
      ESP Fit Center 3284 is at   4.604693  2.227837  0.610322
      ESP Fit Center 3285 is at   4.249809  2.432730  0.610322
      ESP Fit Center 3286 is at   3.869863  2.586238  0.610322
      ESP Fit Center 3287 is at   3.472251  2.685374  0.610322
      ESP Fit Center 3288 is at   1.861888 -2.930628  0.610322
      ESP Fit Center 3289 is at   2.251617 -3.057258  0.610322
      ESP Fit Center 3290 is at   2.655176 -3.128417  0.610322
      ESP Fit Center 3291 is at   3.064711 -3.142718  0.610322
      ESP Fit Center 3292 is at   3.472251 -3.099884  0.610322
      ESP Fit Center 3293 is at   3.869863 -3.000748  0.610322
      ESP Fit Center 3294 is at   4.249809 -2.847240  0.610322
      ESP Fit Center 3295 is at   4.604693 -2.642348  0.610322
      ESP Fit Center 3296 is at   4.927608 -2.390059  0.610322
      ESP Fit Center 3297 is at   5.212268 -2.095284  0.610322
      ESP Fit Center 3298 is at   5.453133 -1.763762  0.610322
      ESP Fit Center 3299 is at   5.645516 -1.401943  0.610322
      ESP Fit Center 3300 is at   5.785670 -1.016872  0.610322
      ESP Fit Center 3301 is at   5.870869 -0.616042  0.610322
      ESP Fit Center 3302 is at   5.955208 -0.207255  0.204681
      ESP Fit Center 3303 is at   5.926081  0.209291  0.204681
      ESP Fit Center 3304 is at   5.839264  0.617729  0.204681
      ESP Fit Center 3305 is at   5.696449  1.010110  0.204681
      ESP Fit Center 3306 is at   5.500415  1.378797  0.204681
      ESP Fit Center 3307 is at   5.254978  1.716612  0.204681
      ESP Fit Center 3308 is at   4.964914  2.016982  0.204681
      ESP Fit Center 3309 is at   4.635870  2.274060  0.204681
      ESP Fit Center 3310 is at   4.274250  2.482841  0.204681
      ESP Fit Center 3311 is at   3.887092  2.639263  0.204681
      ESP Fit Center 3312 is at   3.481932  2.740281  0.204681
      ESP Fit Center 3313 is at   1.841002 -2.982322  0.204681
      ESP Fit Center 3314 is at   2.238128 -3.111356  0.204681
      ESP Fit Center 3315 is at   2.649348 -3.183865  0.204681
      ESP Fit Center 3316 is at   3.066657 -3.198438  0.204681
      ESP Fit Center 3317 is at   3.481932 -3.154791  0.204681
      ESP Fit Center 3318 is at   3.887092 -3.053773  0.204681
      ESP Fit Center 3319 is at   4.274250 -2.897351  0.204681
      ESP Fit Center 3320 is at   4.635870 -2.688570  0.204681
      ESP Fit Center 3321 is at   4.964914 -2.431492  0.204681
      ESP Fit Center 3322 is at   5.254978 -2.131122  0.204681
      ESP Fit Center 3323 is at   5.500415 -1.793307  0.204681
      ESP Fit Center 3324 is at   5.696449 -1.424620  0.204681
      ESP Fit Center 3325 is at   5.839264 -1.032239  0.204681
      ESP Fit Center 3326 is at   5.926081 -0.623801  0.204681
      ESP Fit Center 3327 is at   5.955208 -0.207255 -0.204773
      ESP Fit Center 3328 is at   5.926081  0.209291 -0.204773
      ESP Fit Center 3329 is at   5.839264  0.617729 -0.204773
      ESP Fit Center 3330 is at   5.696449  1.010110 -0.204773
      ESP Fit Center 3331 is at   5.500415  1.378797 -0.204773
      ESP Fit Center 3332 is at   5.254978  1.716612 -0.204773
      ESP Fit Center 3333 is at   4.964914  2.016982 -0.204773
      ESP Fit Center 3334 is at   4.635870  2.274060 -0.204773
      ESP Fit Center 3335 is at   4.274250  2.482841 -0.204773
      ESP Fit Center 3336 is at   3.887092  2.639263 -0.204773
      ESP Fit Center 3337 is at   3.481932  2.740281 -0.204773
      ESP Fit Center 3338 is at   1.841002 -2.982322 -0.204773
      ESP Fit Center 3339 is at   2.238128 -3.111356 -0.204773
      ESP Fit Center 3340 is at   2.649348 -3.183865 -0.204773
      ESP Fit Center 3341 is at   3.066657 -3.198438 -0.204773
      ESP Fit Center 3342 is at   3.481932 -3.154791 -0.204773
      ESP Fit Center 3343 is at   3.887092 -3.053773 -0.204773
      ESP Fit Center 3344 is at   4.274250 -2.897351 -0.204773
      ESP Fit Center 3345 is at   4.635870 -2.688570 -0.204773
      ESP Fit Center 3346 is at   4.964914 -2.431492 -0.204773
      ESP Fit Center 3347 is at   5.254978 -2.131122 -0.204773
      ESP Fit Center 3348 is at   5.500415 -1.793307 -0.204773
      ESP Fit Center 3349 is at   5.696449 -1.424620 -0.204773
      ESP Fit Center 3350 is at   5.839264 -1.032239 -0.204773
      ESP Fit Center 3351 is at   5.926081 -0.623801 -0.204773
      ESP Fit Center 3352 is at   5.899454 -0.207255 -0.610414
      ESP Fit Center 3353 is at   5.870869  0.201531 -0.610414
      ESP Fit Center 3354 is at   5.785670  0.602361 -0.610414
      ESP Fit Center 3355 is at   5.645516  0.987433 -0.610414
      ESP Fit Center 3356 is at   5.453133  1.349252 -0.610414
      ESP Fit Center 3357 is at   5.212268  1.680774 -0.610414
      ESP Fit Center 3358 is at   4.927608  1.975549 -0.610414
      ESP Fit Center 3359 is at   4.604693  2.227837 -0.610414
      ESP Fit Center 3360 is at   4.249809  2.432730 -0.610414
      ESP Fit Center 3361 is at   3.869863  2.586238 -0.610414
      ESP Fit Center 3362 is at   3.472251  2.685374 -0.610414
      ESP Fit Center 3363 is at   1.861888 -2.930628 -0.610414
      ESP Fit Center 3364 is at   2.251617 -3.057258 -0.610414
      ESP Fit Center 3365 is at   2.655176 -3.128417 -0.610414
      ESP Fit Center 3366 is at   3.064711 -3.142718 -0.610414
      ESP Fit Center 3367 is at   3.472251 -3.099884 -0.610414
      ESP Fit Center 3368 is at   3.869863 -3.000748 -0.610414
      ESP Fit Center 3369 is at   4.249809 -2.847240 -0.610414
      ESP Fit Center 3370 is at   4.604693 -2.642348 -0.610414
      ESP Fit Center 3371 is at   4.927608 -2.390059 -0.610414
      ESP Fit Center 3372 is at   5.212268 -2.095284 -0.610414
      ESP Fit Center 3373 is at   5.453133 -1.763762 -0.610414
      ESP Fit Center 3374 is at   5.645516 -1.401943 -0.610414
      ESP Fit Center 3375 is at   5.785670 -1.016872 -0.610414
      ESP Fit Center 3376 is at   5.870869 -0.616042 -0.610414
      ESP Fit Center 3377 is at   5.788985 -0.207255 -1.004685
      ESP Fit Center 3378 is at   5.758861  0.204328 -1.004685
      ESP Fit Center 3379 is at   5.669131  0.607139 -1.004685
      ESP Fit Center 3380 is at   5.521708  0.992592 -1.004685
      ESP Fit Center 3381 is at   5.319733  1.352472 -1.004685
      ESP Fit Center 3382 is at   5.067511  1.679110 -1.004685
      ESP Fit Center 3383 is at   4.770419  1.965543 -1.004685
      ESP Fit Center 3384 is at   4.434787  2.205667 -1.004685
      ESP Fit Center 3385 is at   4.067770  2.394364 -1.004685
      ESP Fit Center 3386 is at   3.677190  2.527611 -1.004685
      ESP Fit Center 3387 is at   1.669677 -2.721232 -1.004685
      ESP Fit Center 3388 is at   2.049489 -2.882635 -1.004685
      ESP Fit Center 3389 is at   2.448754 -2.987016 -1.004685
      ESP Fit Center 3390 is at   2.858962 -3.032152 -1.004685
      ESP Fit Center 3391 is at   3.271371 -3.017080 -1.004685
      ESP Fit Center 3392 is at   3.677190 -2.942121 -1.004685
      ESP Fit Center 3393 is at   4.067770 -2.808874 -1.004685
      ESP Fit Center 3394 is at   4.434787 -2.620177 -1.004685
      ESP Fit Center 3395 is at   4.770419 -2.380054 -1.004685
      ESP Fit Center 3396 is at   5.067511 -2.093620 -1.004685
      ESP Fit Center 3397 is at   5.319733 -1.766983 -1.004685
      ESP Fit Center 3398 is at   5.521708 -1.407102 -1.004685
      ESP Fit Center 3399 is at   5.669131 -1.021649 -1.004685
      ESP Fit Center 3400 is at   5.758861 -0.618838 -1.004685
      ESP Fit Center 3401 is at   5.625858 -0.207255 -1.380241
      ESP Fit Center 3402 is at   5.593064  0.209432 -1.380241
      ESP Fit Center 3403 is at   5.495489  0.615860 -1.380241
      ESP Fit Center 3404 is at   5.335537  1.002019 -1.380241
      ESP Fit Center 3405 is at   5.117145  1.358402 -1.380241
      ESP Fit Center 3406 is at   4.845691  1.676234 -1.380241
      ESP Fit Center 3407 is at   4.527860  1.947688 -1.380241
      ESP Fit Center 3408 is at   4.171477  2.166080 -1.380241
      ESP Fit Center 3409 is at   3.785317  2.326032 -1.380241
      ESP Fit Center 3410 is at   3.378890  2.423607 -1.380241
      ESP Fit Center 3411 is at   1.752928 -2.580590 -1.380241
      ESP Fit Center 3412 is at   2.139087 -2.740542 -1.380241
      ESP Fit Center 3413 is at   2.545515 -2.838117 -1.380241
      ESP Fit Center 3414 is at   2.962202 -2.870911 -1.380241
      ESP Fit Center 3415 is at   3.378890 -2.838117 -1.380241
      ESP Fit Center 3416 is at   3.785317 -2.740542 -1.380241
      ESP Fit Center 3417 is at   4.171477 -2.580590 -1.380241
      ESP Fit Center 3418 is at   4.527860 -2.362198 -1.380241
      ESP Fit Center 3419 is at   4.845691 -2.090744 -1.380241
      ESP Fit Center 3420 is at   5.117145 -1.772913 -1.380241
      ESP Fit Center 3421 is at   5.335537 -1.416529 -1.380241
      ESP Fit Center 3422 is at   5.495489 -1.030370 -1.380241
      ESP Fit Center 3423 is at   5.593064 -0.623943 -1.380241
      ESP Fit Center 3424 is at   5.413112 -0.207255 -1.730087
      ESP Fit Center 3425 is at   5.377858  0.206951 -1.730087
      ESP Fit Center 3426 is at   5.273110  0.609240 -1.730087
      ESP Fit Center 3427 is at   5.101881  0.988041 -1.730087
      ESP Fit Center 3428 is at   4.869098  1.332455 -1.730087
      ESP Fit Center 3429 is at   4.581456  1.632575 -1.730087
      ESP Fit Center 3430 is at   4.247232  1.879766 -1.730087
      ESP Fit Center 3431 is at   3.876040  2.066917 -1.730087
      ESP Fit Center 3432 is at   3.478558  2.188645 -1.730087
      ESP Fit Center 3433 is at   1.858793 -2.395736 -1.730087
      ESP Fit Center 3434 is at   2.244520 -2.550733 -1.730087
      ESP Fit Center 3435 is at   2.650893 -2.638313 -1.730087
      ESP Fit Center 3436 is at   3.066222 -2.655956 -1.730087
      ESP Fit Center 3437 is at   3.478558 -2.603155 -1.730087
      ESP Fit Center 3438 is at   3.876040 -2.481427 -1.730087
      ESP Fit Center 3439 is at   4.247232 -2.294276 -1.730087
      ESP Fit Center 3440 is at   4.581456 -2.047085 -1.730087
      ESP Fit Center 3441 is at   4.869098 -1.746966 -1.730087
      ESP Fit Center 3442 is at   5.101881 -1.402551 -1.730087
      ESP Fit Center 3443 is at   5.273110 -1.023751 -1.730087
      ESP Fit Center 3444 is at   5.377858 -0.621461 -1.730087
      ESP Fit Center 3445 is at   5.154710 -0.207255 -2.047705
      ESP Fit Center 3446 is at   5.115089  0.207680 -2.047705
      ESP Fit Center 3447 is at   4.997656  0.607618 -2.047705
      ESP Fit Center 3448 is at   4.806657  0.978104 -2.047705
      ESP Fit Center 3449 is at   4.548995  1.305749 -2.047705
      ESP Fit Center 3450 is at   4.233982  1.578709 -2.047705
      ESP Fit Center 3451 is at   3.873003  1.787120 -2.047705
      ESP Fit Center 3452 is at   3.479105  1.923449 -2.047705
      ESP Fit Center 3453 is at   1.865948 -2.106023 -2.047705
      ESP Fit Center 3454 is at   2.245103 -2.279177 -2.047705
      ESP Fit Center 3455 is at   2.650176 -2.377446 -2.047705
      ESP Fit Center 3456 is at   3.066526 -2.397280 -2.047705
      ESP Fit Center 3457 is at   3.479105 -2.337960 -2.047705
      ESP Fit Center 3458 is at   3.873003 -2.201630 -2.047705
      ESP Fit Center 3459 is at   4.233982 -1.993219 -2.047705
      ESP Fit Center 3460 is at   4.548995 -1.720259 -2.047705
      ESP Fit Center 3461 is at   4.806657 -1.392614 -2.047705
      ESP Fit Center 3462 is at   4.997656 -1.022128 -2.047705
      ESP Fit Center 3463 is at   5.115089 -0.622190 -2.047705
      ESP Fit Center 3464 is at   4.855466 -0.207255 -2.327180
      ESP Fit Center 3465 is at   4.811203  0.199741 -2.327180
      ESP Fit Center 3466 is at   4.680482  0.587706 -2.327180
      ESP Fit Center 3467 is at   4.469416  0.938499 -2.327180
      ESP Fit Center 3468 is at   4.187875  1.235719 -2.327180
      ESP Fit Center 3469 is at   3.849023  1.465466 -2.327180
      ESP Fit Center 3470 is at   3.468704  1.616999 -2.327180
      ESP Fit Center 3471 is at   3.064701  1.683232 -2.327180
      ESP Fit Center 3472 is at   1.899727 -1.774289 -2.327180
      ESP Fit Center 3473 is at   2.261433 -1.966053 -2.327180
      ESP Fit Center 3474 is at   2.655906 -2.075578 -2.327180
      ESP Fit Center 3475 is at   3.064701 -2.097742 -2.327180
      ESP Fit Center 3476 is at   3.468704 -2.031509 -2.327180
      ESP Fit Center 3477 is at   3.849023 -1.879976 -2.327180
      ESP Fit Center 3478 is at   4.187875 -1.650229 -2.327180
      ESP Fit Center 3479 is at   4.469416 -1.353010 -2.327180
      ESP Fit Center 3480 is at   4.680482 -1.002216 -2.327180
      ESP Fit Center 3481 is at   4.811203 -0.614251 -2.327180
      ESP Fit Center 3482 is at   4.520954 -0.207255 -2.563304
      ESP Fit Center 3483 is at   4.463151  0.213291 -2.563304
      ESP Fit Center 3484 is at   4.294030  0.602647 -2.563304
      ESP Fit Center 3485 is at   4.026133  0.931937 -2.563304
      ESP Fit Center 3486 is at   3.679329  1.176738 -2.563304
      ESP Fit Center 3487 is at   3.279340  1.318894 -2.563304
      ESP Fit Center 3488 is at   2.063301 -1.480708 -2.563304
      ESP Fit Center 3489 is at   2.440208 -1.676006 -2.563304
      ESP Fit Center 3490 is at   2.855829 -1.762373 -2.563304
      ESP Fit Center 3491 is at   3.279340 -1.733404 -2.563304
      ESP Fit Center 3492 is at   3.679329 -1.591248 -2.563304
      ESP Fit Center 3493 is at   4.026133 -1.346447 -2.563304
      ESP Fit Center 3494 is at   4.294030 -1.017158 -2.563304
      ESP Fit Center 3495 is at   4.463151 -0.627801 -2.563304
      ESP Fit Center 3496 is at   4.157405 -0.207255 -2.751680
      ESP Fit Center 3497 is at   4.085326  0.201529 -2.751680
      ESP Fit Center 3498 is at   3.877781  0.561007 -2.751680
      ESP Fit Center 3499 is at   3.559804  0.827821 -2.751680
      ESP Fit Center 3500 is at   3.169747  0.969790 -2.751680
      ESP Fit Center 3501 is at   2.754657  0.969790 -2.751680
      ESP Fit Center 3502 is at   2.364601 -1.242331 -2.751680
      ESP Fit Center 3503 is at   2.754657 -1.384301 -2.751680
      ESP Fit Center 3504 is at   3.169747 -1.384301 -2.751680
      ESP Fit Center 3505 is at   3.559804 -1.242331 -2.751680
      ESP Fit Center 3506 is at   3.877781 -0.975517 -2.751680
      ESP Fit Center 3507 is at   4.085326 -0.616039 -2.751680
      ESP Fit Center 3508 is at   3.771592 -0.207255 -2.888798
      ESP Fit Center 3509 is at   3.663155  0.197440 -2.888798
      ESP Fit Center 3510 is at   3.366897  0.493698 -2.888798
      ESP Fit Center 3511 is at   2.962202  0.602135 -2.888798
      ESP Fit Center 3512 is at   2.261250 -0.611950 -2.888798
      ESP Fit Center 3513 is at   2.557507 -0.908208 -2.888798
      ESP Fit Center 3514 is at   2.962202 -1.016645 -2.888798
      ESP Fit Center 3515 is at   3.366897 -0.908208 -2.888798
      ESP Fit Center 3516 is at   3.663155 -0.611950 -2.888798
      ESP Fit Center 3517 is at   3.370702 -0.207255 -2.972104
      ESP Fit Center 3518 is at   3.166452  0.146516 -2.972104
      ESP Fit Center 3519 is at   2.757952  0.146516 -2.972104
      ESP Fit Center 3520 is at   2.553702 -0.207255 -2.972104
      ESP Fit Center 3521 is at   2.757952 -0.561026 -2.972104
      ESP Fit Center 3522 is at   3.166452 -0.561026 -2.972104
      ESP Fit Center 3523 is at   2.962202 -0.207255 -3.000046
      ESP Fit Center 3524 is at   1.873045  0.159713  2.999980
      ESP Fit Center 3525 is at   2.281545  0.159713  2.972038
      ESP Fit Center 3526 is at   2.077295  0.513485  2.972038
      ESP Fit Center 3527 is at   1.668796  0.513485  2.972038
      ESP Fit Center 3528 is at   1.464546  0.159713  2.972038
      ESP Fit Center 3529 is at   1.668796 -0.194058  2.972038
      ESP Fit Center 3530 is at   2.077295 -0.194058  2.972038
      ESP Fit Center 3531 is at   2.573998  0.564408  2.888732
      ESP Fit Center 3532 is at   2.277741  0.860666  2.888732
      ESP Fit Center 3533 is at   1.873045  0.969104  2.888732
      ESP Fit Center 3534 is at   1.172093 -0.244982  2.888732
      ESP Fit Center 3535 is at   1.468350 -0.541239  2.888732
      ESP Fit Center 3536 is at   1.873045 -0.649677  2.888732
      ESP Fit Center 3537 is at   2.470647  1.194790  2.751614
      ESP Fit Center 3538 is at   2.080590  1.336759  2.751614
      ESP Fit Center 3539 is at   1.275444 -0.875363  2.751614
      ESP Fit Center 3540 is at   1.665501 -1.017332  2.751614
      ESP Fit Center 3541 is at   2.080590 -1.017332  2.751614
      ESP Fit Center 3542 is at   2.590173  1.543706  2.563238
      ESP Fit Center 3543 is at   2.190183  1.685862  2.563238
      ESP Fit Center 3544 is at   1.766673 -1.395405  2.563238
      ESP Fit Center 3545 is at   2.759866  1.832435  2.327114
      ESP Fit Center 3546 is at   2.379547  1.983968  2.327114
      ESP Fit Center 3547 is at   1.566749 -1.708610  2.327114
      ESP Fit Center 3548 is at   2.783846  2.154089  2.047640
      ESP Fit Center 3549 is at   2.389949  2.290418  2.047640
      ESP Fit Center 3550 is at   3.158075  2.246734  1.730021
      ESP Fit Center 3551 is at   2.786883  2.433886  1.730021
      ESP Fit Center 3552 is at   2.389401  2.555613  1.730021
      ESP Fit Center 3553 is at   3.082320  2.533048  1.380175
      ESP Fit Center 3554 is at   2.696160  2.693000  1.380175
      ESP Fit Center 3555 is at   2.289733  2.790575  1.380175
      ESP Fit Center 3556 is at   2.978614  2.761332  1.004619
      ESP Fit Center 3557 is at   2.588033  2.894580  1.004619
      ESP Fit Center 3558 is at   2.182214  2.969538  1.004619
      ESP Fit Center 3559 is at   3.160652  2.799698  0.610348
      ESP Fit Center 3560 is at   2.780706  2.953206  0.610348
      ESP Fit Center 3561 is at   2.383094  3.052342  0.610348
      ESP Fit Center 3562 is at   3.185093  2.849810  0.204707
      ESP Fit Center 3563 is at   2.797935  3.006231  0.204707
      ESP Fit Center 3564 is at   2.392776  3.107249  0.204707
      ESP Fit Center 3565 is at   3.185093  2.849810 -0.204747
      ESP Fit Center 3566 is at   2.797935  3.006231 -0.204747
      ESP Fit Center 3567 is at   2.392776  3.107249 -0.204747
      ESP Fit Center 3568 is at   3.160652  2.799698 -0.610388
      ESP Fit Center 3569 is at   2.780706  2.953206 -0.610388
      ESP Fit Center 3570 is at   2.383094  3.052342 -0.610388
      ESP Fit Center 3571 is at   2.978614  2.761332 -1.004659
      ESP Fit Center 3572 is at   2.588033  2.894580 -1.004659
      ESP Fit Center 3573 is at   2.182214  2.969538 -1.004659
      ESP Fit Center 3574 is at   3.082320  2.533048 -1.380215
      ESP Fit Center 3575 is at   2.696160  2.693000 -1.380215
      ESP Fit Center 3576 is at   2.289733  2.790575 -1.380215
      ESP Fit Center 3577 is at   3.158075  2.246734 -1.730061
      ESP Fit Center 3578 is at   2.786883  2.433886 -1.730061
      ESP Fit Center 3579 is at   2.389401  2.555613 -1.730061
      ESP Fit Center 3580 is at   2.783846  2.154089 -2.047679
      ESP Fit Center 3581 is at   2.389949  2.290418 -2.047679
      ESP Fit Center 3582 is at   2.759866  1.832435 -2.327154
      ESP Fit Center 3583 is at   2.379547  1.983968 -2.327154
      ESP Fit Center 3584 is at   1.566749 -1.708610 -2.327154
      ESP Fit Center 3585 is at   2.590173  1.543706 -2.563278
      ESP Fit Center 3586 is at   2.190183  1.685862 -2.563278
      ESP Fit Center 3587 is at   1.766673 -1.395405 -2.563278
      ESP Fit Center 3588 is at   2.470647  1.194790 -2.751654
      ESP Fit Center 3589 is at   2.080590  1.336759 -2.751654
      ESP Fit Center 3590 is at   1.275444 -0.875363 -2.751654
      ESP Fit Center 3591 is at   1.665501 -1.017332 -2.751654
      ESP Fit Center 3592 is at   2.080590 -1.017332 -2.751654
      ESP Fit Center 3593 is at   2.573998  0.564408 -2.888772
      ESP Fit Center 3594 is at   2.277741  0.860666 -2.888772
      ESP Fit Center 3595 is at   1.873045  0.969104 -2.888772
      ESP Fit Center 3596 is at   1.172093 -0.244982 -2.888772
      ESP Fit Center 3597 is at   1.468350 -0.541239 -2.888772
      ESP Fit Center 3598 is at   1.873045 -0.649677 -2.888772
      ESP Fit Center 3599 is at   2.281545  0.159713 -2.972078
      ESP Fit Center 3600 is at   2.077295  0.513485 -2.972078
      ESP Fit Center 3601 is at   1.668796  0.513485 -2.972078
      ESP Fit Center 3602 is at   1.464546  0.159713 -2.972078
      ESP Fit Center 3603 is at   1.668796 -0.194058 -2.972078
      ESP Fit Center 3604 is at   2.077295 -0.194058 -2.972078
      ESP Fit Center 3605 is at   1.873045  0.159713 -3.000020
      ESP Fit Center 3606 is at   0.886501 -0.099438  2.888802
      ESP Fit Center 3607 is at   1.954391  3.014437  1.004689
      ESP Fit Center 3608 is at   1.769413  3.241500  0.610418
      ESP Fit Center 3609 is at   1.389467  3.395008  0.610418
      ESP Fit Center 3610 is at   1.793854  3.291611  0.204777
      ESP Fit Center 3611 is at   1.406696  3.448033  0.204777
      ESP Fit Center 3612 is at   1.001536  3.549051  0.204777
      ESP Fit Center 3613 is at   0.586261  3.592698  0.204777
      ESP Fit Center 3614 is at   0.168952  3.578125  0.204777
      ESP Fit Center 3615 is at  -0.242267  3.505616  0.204777
      ESP Fit Center 3616 is at  -0.639394  3.376582  0.204777
      ESP Fit Center 3617 is at  -1.014697  3.193534  0.204777
      ESP Fit Center 3618 is at  -1.360872  2.960036  0.204777
      ESP Fit Center 3619 is at   1.793854  3.291611 -0.204677
      ESP Fit Center 3620 is at   1.406696  3.448033 -0.204677
      ESP Fit Center 3621 is at   1.001536  3.549051 -0.204677
      ESP Fit Center 3622 is at   0.586261  3.592698 -0.204677
      ESP Fit Center 3623 is at   0.168952  3.578125 -0.204677
      ESP Fit Center 3624 is at  -0.242267  3.505616 -0.204677
      ESP Fit Center 3625 is at  -0.639394  3.376582 -0.204677
      ESP Fit Center 3626 is at  -1.014697  3.193534 -0.204677
      ESP Fit Center 3627 is at  -1.360872  2.960036 -0.204677
      ESP Fit Center 3628 is at   1.769413  3.241500 -0.610318
      ESP Fit Center 3629 is at   1.389467  3.395008 -0.610318
      ESP Fit Center 3630 is at   1.954391  3.014437 -1.004589
      ESP Fit Center 3631 is at   0.886501 -0.099438 -2.888702
      ESP Fit Center 3632 is at  -0.886433  0.099585  2.888803
      ESP Fit Center 3633 is at  -1.950364 -3.145103  0.610419
      ESP Fit Center 3634 is at  -1.582052 -3.324741  0.610419
      ESP Fit Center 3635 is at  -1.192323 -3.451371  0.610419
      ESP Fit Center 3636 is at  -1.978241 -3.193387  0.204779
      ESP Fit Center 3637 is at  -1.602937 -3.376435  0.204779
      ESP Fit Center 3638 is at  -1.205811 -3.505469  0.204779
      ESP Fit Center 3639 is at  -0.794592 -3.577978  0.204779
      ESP Fit Center 3640 is at  -0.377283 -3.592551  0.204779
      ESP Fit Center 3641 is at   0.037993 -3.548904  0.204779
      ESP Fit Center 3642 is at   0.443152 -3.447886  0.204779
      ESP Fit Center 3643 is at   0.830310 -3.291464  0.204779
      ESP Fit Center 3644 is at   1.191930 -3.082682  0.204779
      ESP Fit Center 3645 is at  -1.978241 -3.193387 -0.204676
      ESP Fit Center 3646 is at  -1.602937 -3.376435 -0.204676
      ESP Fit Center 3647 is at  -1.205811 -3.505469 -0.204676
      ESP Fit Center 3648 is at  -0.794592 -3.577978 -0.204676
      ESP Fit Center 3649 is at  -0.377283 -3.592551 -0.204676
      ESP Fit Center 3650 is at   0.037993 -3.548904 -0.204676
      ESP Fit Center 3651 is at   0.443152 -3.447886 -0.204676
      ESP Fit Center 3652 is at   0.830310 -3.291464 -0.204676
      ESP Fit Center 3653 is at   1.191930 -3.082682 -0.204676
      ESP Fit Center 3654 is at  -1.950364 -3.145103 -0.610317
      ESP Fit Center 3655 is at  -1.582052 -3.324741 -0.610317
      ESP Fit Center 3656 is at  -1.192323 -3.451371 -0.610317
      ESP Fit Center 3657 is at  -0.886433  0.099585 -2.888700
      ESP Fit Center 3658 is at  -1.873047 -0.159695  2.999964
      ESP Fit Center 3659 is at  -1.464547 -0.159695  2.972022
      ESP Fit Center 3660 is at  -1.668797  0.194077  2.972022
      ESP Fit Center 3661 is at  -2.077297  0.194077  2.972022
      ESP Fit Center 3662 is at  -2.281547 -0.159695  2.972022
      ESP Fit Center 3663 is at  -2.077297 -0.513466  2.972022
      ESP Fit Center 3664 is at  -1.668797 -0.513466  2.972022
      ESP Fit Center 3665 is at  -1.172094  0.245000  2.888716
      ESP Fit Center 3666 is at  -1.468352  0.541258  2.888716
      ESP Fit Center 3667 is at  -1.873047  0.649696  2.888716
      ESP Fit Center 3668 is at  -2.574000 -0.564390  2.888716
      ESP Fit Center 3669 is at  -2.277742 -0.860647  2.888716
      ESP Fit Center 3670 is at  -1.873047 -0.969085  2.888716
      ESP Fit Center 3671 is at  -1.275445  0.875382  2.751598
      ESP Fit Center 3672 is at  -1.665502  1.017351  2.751598
      ESP Fit Center 3673 is at  -2.080592  1.017351  2.751598
      ESP Fit Center 3674 is at  -2.470649 -1.194771  2.751598
      ESP Fit Center 3675 is at  -2.080592 -1.336740  2.751598
      ESP Fit Center 3676 is at  -1.555910  1.366454  2.563222
      ESP Fit Center 3677 is at  -2.771949 -1.433148  2.563222
      ESP Fit Center 3678 is at  -2.395041 -1.628446  2.563222
      ESP Fit Center 3679 is at  -1.979420 -1.714813  2.563222
      ESP Fit Center 3680 is at  -1.770548  1.730792  2.327098
      ESP Fit Center 3681 is at  -2.935522 -1.726728  2.327098
      ESP Fit Center 3682 is at  -2.573816 -1.918493  2.327098
      ESP Fit Center 3683 is at  -2.179343 -2.028018  2.327098
      ESP Fit Center 3684 is at  -2.969301 -2.058462  2.047624
      ESP Fit Center 3685 is at  -2.590146 -2.231616  2.047624
      ESP Fit Center 3686 is at  -2.185073 -2.329886  2.047624
      ESP Fit Center 3687 is at  -2.976456 -2.348175  1.730005
      ESP Fit Center 3688 is at  -2.590729 -2.503173  1.730005
      ESP Fit Center 3689 is at  -2.184356 -2.590753  1.730005
      ESP Fit Center 3690 is at  -3.082321 -2.533029  1.380159
      ESP Fit Center 3691 is at  -2.696162 -2.692982  1.380159
      ESP Fit Center 3692 is at  -2.289735 -2.790556  1.380159
      ESP Fit Center 3693 is at  -3.165572 -2.673672  1.004603
      ESP Fit Center 3694 is at  -2.785760 -2.835074  1.004603
      ESP Fit Center 3695 is at  -2.386495 -2.939456  1.004603
      ESP Fit Center 3696 is at  -2.973361 -2.883068  0.610332
      ESP Fit Center 3697 is at  -2.583633 -3.009698  0.610332
      ESP Fit Center 3698 is at  -2.180073 -3.080856  0.610332
      ESP Fit Center 3699 is at  -2.994247 -2.934762  0.204691
      ESP Fit Center 3700 is at  -2.597121 -3.063796  0.204691
      ESP Fit Center 3701 is at  -2.185901 -3.136305  0.204691
      ESP Fit Center 3702 is at  -2.994247 -2.934762 -0.204763
      ESP Fit Center 3703 is at  -2.597121 -3.063796 -0.204763
      ESP Fit Center 3704 is at  -2.185901 -3.136305 -0.204763
      ESP Fit Center 3705 is at  -2.973361 -2.883068 -0.610404
      ESP Fit Center 3706 is at  -2.583633 -3.009698 -0.610404
      ESP Fit Center 3707 is at  -2.180073 -3.080856 -0.610404
      ESP Fit Center 3708 is at  -3.165572 -2.673672 -1.004675
      ESP Fit Center 3709 is at  -2.785760 -2.835074 -1.004675
      ESP Fit Center 3710 is at  -2.386495 -2.939456 -1.004675
      ESP Fit Center 3711 is at  -3.082321 -2.533029 -1.380231
      ESP Fit Center 3712 is at  -2.696162 -2.692982 -1.380231
      ESP Fit Center 3713 is at  -2.289735 -2.790556 -1.380231
      ESP Fit Center 3714 is at  -2.976456 -2.348175 -1.730077
      ESP Fit Center 3715 is at  -2.590729 -2.503173 -1.730077
      ESP Fit Center 3716 is at  -2.184356 -2.590753 -1.730077
      ESP Fit Center 3717 is at  -2.969301 -2.058462 -2.047695
      ESP Fit Center 3718 is at  -2.590146 -2.231616 -2.047695
      ESP Fit Center 3719 is at  -2.185073 -2.329886 -2.047695
      ESP Fit Center 3720 is at  -1.770548  1.730792 -2.327170
      ESP Fit Center 3721 is at  -2.935522 -1.726728 -2.327170
      ESP Fit Center 3722 is at  -2.573816 -1.918493 -2.327170
      ESP Fit Center 3723 is at  -2.179343 -2.028018 -2.327170
      ESP Fit Center 3724 is at  -1.555910  1.366454 -2.563294
      ESP Fit Center 3725 is at  -2.771949 -1.433148 -2.563294
      ESP Fit Center 3726 is at  -2.395041 -1.628446 -2.563294
      ESP Fit Center 3727 is at  -1.979420 -1.714813 -2.563294
      ESP Fit Center 3728 is at  -1.275445  0.875382 -2.751670
      ESP Fit Center 3729 is at  -1.665502  1.017351 -2.751670
      ESP Fit Center 3730 is at  -2.080592  1.017351 -2.751670
      ESP Fit Center 3731 is at  -2.470649 -1.194771 -2.751670
      ESP Fit Center 3732 is at  -2.080592 -1.336740 -2.751670
      ESP Fit Center 3733 is at  -1.172094  0.245000 -2.888788
      ESP Fit Center 3734 is at  -1.468352  0.541258 -2.888788
      ESP Fit Center 3735 is at  -1.873047  0.649696 -2.888788
      ESP Fit Center 3736 is at  -2.574000 -0.564390 -2.888788
      ESP Fit Center 3737 is at  -2.277742 -0.860647 -2.888788
      ESP Fit Center 3738 is at  -1.873047 -0.969085 -2.888788
      ESP Fit Center 3739 is at  -1.464547 -0.159695 -2.972094
      ESP Fit Center 3740 is at  -1.668797  0.194077 -2.972094
      ESP Fit Center 3741 is at  -2.077297  0.194077 -2.972094
      ESP Fit Center 3742 is at  -2.281547 -0.159695 -2.972094
      ESP Fit Center 3743 is at  -2.077297 -0.513466 -2.972094
      ESP Fit Center 3744 is at  -1.668797 -0.513466 -2.972094
      ESP Fit Center 3745 is at  -1.873047 -0.159695 -3.000036
      ESP Fit Center 3746 is at  -2.962275  0.207072  2.999960
      ESP Fit Center 3747 is at  -2.553775  0.207072  2.972017
      ESP Fit Center 3748 is at  -2.758025  0.560843  2.972017
      ESP Fit Center 3749 is at  -3.166525  0.560843  2.972017
      ESP Fit Center 3750 is at  -3.370775  0.207072  2.972017
      ESP Fit Center 3751 is at  -3.166525 -0.146700  2.972017
      ESP Fit Center 3752 is at  -2.758025 -0.146700  2.972017
      ESP Fit Center 3753 is at  -2.261323  0.611767  2.888711
      ESP Fit Center 3754 is at  -2.557580  0.908024  2.888711
      ESP Fit Center 3755 is at  -2.962275  1.016462  2.888711
      ESP Fit Center 3756 is at  -3.366971  0.908024  2.888711
      ESP Fit Center 3757 is at  -3.663228  0.611767  2.888711
      ESP Fit Center 3758 is at  -3.771666  0.207072  2.888711
      ESP Fit Center 3759 is at  -3.663228 -0.197624  2.888711
      ESP Fit Center 3760 is at  -3.366971 -0.493881  2.888711
      ESP Fit Center 3761 is at  -2.962275 -0.602319  2.888711
      ESP Fit Center 3762 is at  -2.364674  1.242148  2.751594
      ESP Fit Center 3763 is at  -2.754731  1.384117  2.751594
      ESP Fit Center 3764 is at  -3.169820  1.384117  2.751594
      ESP Fit Center 3765 is at  -3.559877  1.242148  2.751594
      ESP Fit Center 3766 is at  -3.877854  0.975333  2.751594
      ESP Fit Center 3767 is at  -4.085399  0.615855  2.751594
      ESP Fit Center 3768 is at  -4.157479  0.207072  2.751594
      ESP Fit Center 3769 is at  -4.085399 -0.201712  2.751594
      ESP Fit Center 3770 is at  -3.877854 -0.561190  2.751594
      ESP Fit Center 3771 is at  -3.559877 -0.828005  2.751594
      ESP Fit Center 3772 is at  -3.169820 -0.969974  2.751594
      ESP Fit Center 3773 is at  -2.754731 -0.969974  2.751594
      ESP Fit Center 3774 is at  -2.245148  1.591064  2.563218
      ESP Fit Center 3775 is at  -2.645138  1.733221  2.563218
      ESP Fit Center 3776 is at  -3.068648  1.762190  2.563218
      ESP Fit Center 3777 is at  -3.484270  1.675823  2.563218
      ESP Fit Center 3778 is at  -3.861177  1.480525  2.563218
      ESP Fit Center 3779 is at  -4.171417  1.190781  2.563218
      ESP Fit Center 3780 is at  -4.391980  0.828080  2.563218
      ESP Fit Center 3781 is at  -4.506509  0.419322  2.563218
      ESP Fit Center 3782 is at  -4.506509 -0.005178  2.563218
      ESP Fit Center 3783 is at  -4.391980 -0.413937  2.563218
      ESP Fit Center 3784 is at  -4.171417 -0.776638  2.563218
      ESP Fit Center 3785 is at  -3.861177 -1.066382  2.563218
      ESP Fit Center 3786 is at  -3.484270 -1.261679  2.563218
      ESP Fit Center 3787 is at  -3.068648 -1.348046  2.563218
      ESP Fit Center 3788 is at  -2.075455  1.879793  2.327093
      ESP Fit Center 3789 is at  -2.455774  2.031326  2.327093
      ESP Fit Center 3790 is at  -2.859776  2.097559  2.327093
      ESP Fit Center 3791 is at  -3.268571  2.075395  2.327093
      ESP Fit Center 3792 is at  -3.663045  1.965870  2.327093
      ESP Fit Center 3793 is at  -4.024751  1.774105  2.327093
      ESP Fit Center 3794 is at  -4.336776  1.509068  2.327093
      ESP Fit Center 3795 is at  -4.584532  1.183151  2.327093
      ESP Fit Center 3796 is at  -4.756433  0.811594  2.327093
      ESP Fit Center 3797 is at  -4.844441  0.411769  2.327093
      ESP Fit Center 3798 is at  -4.844441  0.002374  2.327093
      ESP Fit Center 3799 is at  -4.756433 -0.397450  2.327093
      ESP Fit Center 3800 is at  -4.584532 -0.769008  2.327093
      ESP Fit Center 3801 is at  -4.336776 -1.094925  2.327093
      ESP Fit Center 3802 is at  -4.024751 -1.359962  2.327093
      ESP Fit Center 3803 is at  -3.663045 -1.551726  2.327093
      ESP Fit Center 3804 is at  -3.268571 -1.661251  2.327093
      ESP Fit Center 3805 is at  -2.051475  2.201447  2.047619
      ESP Fit Center 3806 is at  -2.445372  2.337776  2.047619
      ESP Fit Center 3807 is at  -2.857952  2.397096  2.047619
      ESP Fit Center 3808 is at  -3.274302  2.377263  2.047619
      ESP Fit Center 3809 is at  -3.679375  2.278993  2.047619
      ESP Fit Center 3810 is at  -4.058529  2.105839  2.047619
      ESP Fit Center 3811 is at  -4.398063  1.864058  2.047619
      ESP Fit Center 3812 is at  -4.685703  1.562390  2.047619
      ESP Fit Center 3813 is at  -4.911054  1.211737  2.047619
      ESP Fit Center 3814 is at  -5.065971  0.824772  2.047619
      ESP Fit Center 3815 is at  -5.144855  0.415483  2.047619
      ESP Fit Center 3816 is at  -5.144855 -0.001340  2.047619
      ESP Fit Center 3817 is at  -5.065971 -0.410629  2.047619
      ESP Fit Center 3818 is at  -4.911054 -0.797594  2.047619
      ESP Fit Center 3819 is at  -4.685703 -1.148247  2.047619
      ESP Fit Center 3820 is at  -4.398063 -1.449915  2.047619
      ESP Fit Center 3821 is at  -4.058529 -1.691696  2.047619
      ESP Fit Center 3822 is at  -3.679375 -1.864850  2.047619
      ESP Fit Center 3823 is at  -3.274302 -1.963120  2.047619
      ESP Fit Center 3824 is at  -1.677246  2.294093  1.730001
      ESP Fit Center 3825 is at  -2.048438  2.481244  1.730001
      ESP Fit Center 3826 is at  -2.445920  2.602971  1.730001
      ESP Fit Center 3827 is at  -2.858256  2.655773  1.730001
      ESP Fit Center 3828 is at  -3.273585  2.638130  1.730001
      ESP Fit Center 3829 is at  -3.679958  2.550550  1.730001
      ESP Fit Center 3830 is at  -4.065684  2.395552  1.730001
      ESP Fit Center 3831 is at  -4.419668  2.177596  1.730001
      ESP Fit Center 3832 is at  -4.731725  1.902951  1.730001
      ESP Fit Center 3833 is at  -4.992878  1.579519  1.730001
      ESP Fit Center 3834 is at  -5.195614  1.216604  1.730001
      ESP Fit Center 3835 is at  -5.334101  0.824647  1.730001
      ESP Fit Center 3836 is at  -5.404356  0.414923  1.730001
      ESP Fit Center 3837 is at  -5.404356 -0.000780  1.730001
      ESP Fit Center 3838 is at  -5.334101 -0.410504  1.730001
      ESP Fit Center 3839 is at  -5.195614 -0.802461  1.730001
      ESP Fit Center 3840 is at  -4.992878 -1.165376  1.730001
      ESP Fit Center 3841 is at  -4.731725 -1.488808  1.730001
      ESP Fit Center 3842 is at  -4.419668 -1.763453  1.730001
      ESP Fit Center 3843 is at  -4.065684 -1.981409  1.730001
      ESP Fit Center 3844 is at  -3.679958 -2.136407  1.730001
      ESP Fit Center 3845 is at  -3.273585 -2.223987  1.730001
      ESP Fit Center 3846 is at  -1.753001  2.580406  1.380155
      ESP Fit Center 3847 is at  -2.139161  2.740359  1.380155
      ESP Fit Center 3848 is at  -2.545588  2.837933  1.380155
      ESP Fit Center 3849 is at  -2.962275  2.870727  1.380155
      ESP Fit Center 3850 is at  -3.378963  2.837933  1.380155
      ESP Fit Center 3851 is at  -3.785390  2.740359  1.380155
      ESP Fit Center 3852 is at  -4.171550  2.580406  1.380155
      ESP Fit Center 3853 is at  -4.527933  2.362014  1.380155
      ESP Fit Center 3854 is at  -4.845764  2.090561  1.380155
      ESP Fit Center 3855 is at  -5.117218  1.772729  1.380155
      ESP Fit Center 3856 is at  -5.335610  1.416346  1.380155
      ESP Fit Center 3857 is at  -5.495562  1.030186  1.380155
      ESP Fit Center 3858 is at  -5.593137  0.623759  1.380155
      ESP Fit Center 3859 is at  -5.625931  0.207072  1.380155
      ESP Fit Center 3860 is at  -5.593137 -0.209616  1.380155
      ESP Fit Center 3861 is at  -5.495562 -0.616043  1.380155
      ESP Fit Center 3862 is at  -5.335610 -1.002203  1.380155
      ESP Fit Center 3863 is at  -5.117218 -1.358586  1.380155
      ESP Fit Center 3864 is at  -4.845764 -1.676417  1.380155
      ESP Fit Center 3865 is at  -4.527933 -1.947871  1.380155
      ESP Fit Center 3866 is at  -4.171550 -2.166263  1.380155
      ESP Fit Center 3867 is at  -3.785390 -2.326215  1.380155
      ESP Fit Center 3868 is at  -3.378963 -2.423790  1.380155
      ESP Fit Center 3869 is at  -1.856707  2.808690  1.004598
      ESP Fit Center 3870 is at  -2.247288  2.941938  1.004598
      ESP Fit Center 3871 is at  -2.653107  3.016896  1.004598
      ESP Fit Center 3872 is at  -3.065515  3.031968  1.004598
      ESP Fit Center 3873 is at  -3.475723  2.986833  1.004598
      ESP Fit Center 3874 is at  -3.874988  2.882451  1.004598
      ESP Fit Center 3875 is at  -4.254800  2.721049  1.004598
      ESP Fit Center 3876 is at  -4.607064  2.506065  1.004598
      ESP Fit Center 3877 is at  -4.924272  2.242082  1.004598
      ESP Fit Center 3878 is at  -5.199664  1.934727  1.004598
      ESP Fit Center 3879 is at  -5.427370  1.590550  1.004598
      ESP Fit Center 3880 is at  -5.602536  1.216886  1.004598
      ESP Fit Center 3881 is at  -5.721430  0.821699  1.004598
      ESP Fit Center 3882 is at  -5.781517  0.413413  1.004598
      ESP Fit Center 3883 is at  -5.781517  0.000730  1.004598
      ESP Fit Center 3884 is at  -5.721430 -0.407556  1.004598
      ESP Fit Center 3885 is at  -5.602536 -0.802743  1.004598
      ESP Fit Center 3886 is at  -5.427370 -1.176406  1.004598
      ESP Fit Center 3887 is at  -5.199664 -1.520584  1.004598
      ESP Fit Center 3888 is at  -4.924272 -1.827939  1.004598
      ESP Fit Center 3889 is at  -4.607064 -2.091922  1.004598
      ESP Fit Center 3890 is at  -4.254800 -2.306905  1.004598
      ESP Fit Center 3891 is at  -3.874988 -2.468308  1.004598
      ESP Fit Center 3892 is at  -3.475723 -2.572690  1.004598
      ESP Fit Center 3893 is at  -1.674669  2.847056  0.610328
      ESP Fit Center 3894 is at  -2.054615  3.000564  0.610328
      ESP Fit Center 3895 is at  -2.452227  3.099700  0.610328
      ESP Fit Center 3896 is at  -2.859767  3.142535  0.610328
      ESP Fit Center 3897 is at  -3.269302  3.128233  0.610328
      ESP Fit Center 3898 is at  -3.672861  3.057075  0.610328
      ESP Fit Center 3899 is at  -4.062589  2.930444  0.610328
      ESP Fit Center 3900 is at  -4.430902  2.750807  0.610328
      ESP Fit Center 3901 is at  -4.770628  2.521658  0.610328
      ESP Fit Center 3902 is at  -5.075158  2.247458  0.610328
      ESP Fit Center 3903 is at  -5.338562  1.933545  0.610328
      ESP Fit Center 3904 is at  -5.555715  1.586028  0.610328
      ESP Fit Center 3905 is at  -5.722390  1.211671  0.610328
      ESP Fit Center 3906 is at  -5.835342  0.817761  0.610328
      ESP Fit Center 3907 is at  -5.892373  0.411964  0.610328
      ESP Fit Center 3908 is at  -5.892373  0.002179  0.610328
      ESP Fit Center 3909 is at  -5.835342 -0.403618  0.610328
      ESP Fit Center 3910 is at  -5.722390 -0.797528  0.610328
      ESP Fit Center 3911 is at  -5.555715 -1.171885  0.610328
      ESP Fit Center 3912 is at  -5.338562 -1.519402  0.610328
      ESP Fit Center 3913 is at  -5.075158 -1.833315  0.610328
      ESP Fit Center 3914 is at  -4.770628 -2.107515  0.610328
      ESP Fit Center 3915 is at  -4.430902 -2.336663  0.610328
      ESP Fit Center 3916 is at  -4.062589 -2.516301  0.610328
      ESP Fit Center 3917 is at  -3.672861 -2.642932  0.610328
      ESP Fit Center 3918 is at  -1.650228  2.897168  0.204687
      ESP Fit Center 3919 is at  -2.037386  3.053590  0.204687
      ESP Fit Center 3920 is at  -2.442545  3.154607  0.204687
      ESP Fit Center 3921 is at  -2.857821  3.198255  0.204687
      ESP Fit Center 3922 is at  -3.275130  3.183682  0.204687
      ESP Fit Center 3923 is at  -3.686349  3.111173  0.204687
      ESP Fit Center 3924 is at  -4.083475  2.982139  0.204687
      ESP Fit Center 3925 is at  -4.458779  2.799091  0.204687
      ESP Fit Center 3926 is at  -4.804954  2.565593  0.204687
      ESP Fit Center 3927 is at  -5.115264  2.286188  0.204687
      ESP Fit Center 3928 is at  -5.383668  1.966317  0.204687
      ESP Fit Center 3929 is at  -5.604943  1.612203  0.204687
      ESP Fit Center 3930 is at  -5.774781  1.230740  0.204687
      ESP Fit Center 3931 is at  -5.889877  0.829353  0.204687
      ESP Fit Center 3932 is at  -5.947991  0.415853  0.204687
      ESP Fit Center 3933 is at  -5.947991 -0.001710  0.204687
      ESP Fit Center 3934 is at  -5.889877 -0.415209  0.204687
      ESP Fit Center 3935 is at  -5.774781 -0.816597  0.204687
      ESP Fit Center 3936 is at  -5.604943 -1.198060  0.204687
      ESP Fit Center 3937 is at  -5.383668 -1.552173  0.204687
      ESP Fit Center 3938 is at  -5.115264 -1.872045  0.204687
      ESP Fit Center 3939 is at  -4.804954 -2.151450  0.204687
      ESP Fit Center 3940 is at  -4.458779 -2.384948  0.204687
      ESP Fit Center 3941 is at  -4.083475 -2.567996  0.204687
      ESP Fit Center 3942 is at  -3.686349 -2.697030  0.204687
      ESP Fit Center 3943 is at  -1.650228  2.897168 -0.204768
      ESP Fit Center 3944 is at  -2.037386  3.053590 -0.204768
      ESP Fit Center 3945 is at  -2.442545  3.154607 -0.204768
      ESP Fit Center 3946 is at  -2.857821  3.198255 -0.204768
      ESP Fit Center 3947 is at  -3.275130  3.183682 -0.204768
      ESP Fit Center 3948 is at  -3.686349  3.111173 -0.204768
      ESP Fit Center 3949 is at  -4.083475  2.982139 -0.204768
      ESP Fit Center 3950 is at  -4.458779  2.799091 -0.204768
      ESP Fit Center 3951 is at  -4.804954  2.565593 -0.204768
      ESP Fit Center 3952 is at  -5.115264  2.286188 -0.204768
      ESP Fit Center 3953 is at  -5.383668  1.966317 -0.204768
      ESP Fit Center 3954 is at  -5.604943  1.612203 -0.204768
      ESP Fit Center 3955 is at  -5.774781  1.230740 -0.204768
      ESP Fit Center 3956 is at  -5.889877  0.829353 -0.204768
      ESP Fit Center 3957 is at  -5.947991  0.415853 -0.204768
      ESP Fit Center 3958 is at  -5.947991 -0.001710 -0.204768
      ESP Fit Center 3959 is at  -5.889877 -0.415209 -0.204768
      ESP Fit Center 3960 is at  -5.774781 -0.816597 -0.204768
      ESP Fit Center 3961 is at  -5.604943 -1.198060 -0.204768
      ESP Fit Center 3962 is at  -5.383668 -1.552173 -0.204768
      ESP Fit Center 3963 is at  -5.115264 -1.872045 -0.204768
      ESP Fit Center 3964 is at  -4.804954 -2.151450 -0.204768
      ESP Fit Center 3965 is at  -4.458779 -2.384948 -0.204768
      ESP Fit Center 3966 is at  -4.083475 -2.567996 -0.204768
      ESP Fit Center 3967 is at  -3.686349 -2.697030 -0.204768
      ESP Fit Center 3968 is at  -1.674669  2.847056 -0.610408
      ESP Fit Center 3969 is at  -2.054615  3.000564 -0.610408
      ESP Fit Center 3970 is at  -2.452227  3.099700 -0.610408
      ESP Fit Center 3971 is at  -2.859767  3.142535 -0.610408
      ESP Fit Center 3972 is at  -3.269302  3.128233 -0.610408
      ESP Fit Center 3973 is at  -3.672861  3.057075 -0.610408
      ESP Fit Center 3974 is at  -4.062589  2.930444 -0.610408
      ESP Fit Center 3975 is at  -4.430902  2.750807 -0.610408
      ESP Fit Center 3976 is at  -4.770628  2.521658 -0.610408
      ESP Fit Center 3977 is at  -5.075158  2.247458 -0.610408
      ESP Fit Center 3978 is at  -5.338562  1.933545 -0.610408
      ESP Fit Center 3979 is at  -5.555715  1.586028 -0.610408
      ESP Fit Center 3980 is at  -5.722390  1.211671 -0.610408
      ESP Fit Center 3981 is at  -5.835342  0.817761 -0.610408
      ESP Fit Center 3982 is at  -5.892373  0.411964 -0.610408
      ESP Fit Center 3983 is at  -5.892373  0.002179 -0.610408
      ESP Fit Center 3984 is at  -5.835342 -0.403618 -0.610408
      ESP Fit Center 3985 is at  -5.722390 -0.797528 -0.610408
      ESP Fit Center 3986 is at  -5.555715 -1.171885 -0.610408
      ESP Fit Center 3987 is at  -5.338562 -1.519402 -0.610408
      ESP Fit Center 3988 is at  -5.075158 -1.833315 -0.610408
      ESP Fit Center 3989 is at  -4.770628 -2.107515 -0.610408
      ESP Fit Center 3990 is at  -4.430902 -2.336663 -0.610408
      ESP Fit Center 3991 is at  -4.062589 -2.516301 -0.610408
      ESP Fit Center 3992 is at  -3.672861 -2.642932 -0.610408
      ESP Fit Center 3993 is at  -1.856707  2.808690 -1.004679
      ESP Fit Center 3994 is at  -2.247288  2.941938 -1.004679
      ESP Fit Center 3995 is at  -2.653107  3.016896 -1.004679
      ESP Fit Center 3996 is at  -3.065515  3.031968 -1.004679
      ESP Fit Center 3997 is at  -3.475723  2.986833 -1.004679
      ESP Fit Center 3998 is at  -3.874988  2.882451 -1.004679
      ESP Fit Center 3999 is at  -4.254800  2.721049 -1.004679
      ESP Fit Center 4000 is at  -4.607064  2.506065 -1.004679
      ESP Fit Center 4001 is at  -4.924272  2.242082 -1.004679
      ESP Fit Center 4002 is at  -5.199664  1.934727 -1.004679
      ESP Fit Center 4003 is at  -5.427370  1.590550 -1.004679
      ESP Fit Center 4004 is at  -5.602536  1.216886 -1.004679
      ESP Fit Center 4005 is at  -5.721430  0.821699 -1.004679
      ESP Fit Center 4006 is at  -5.781517  0.413413 -1.004679
      ESP Fit Center 4007 is at  -5.781517  0.000730 -1.004679
      ESP Fit Center 4008 is at  -5.721430 -0.407556 -1.004679
      ESP Fit Center 4009 is at  -5.602536 -0.802743 -1.004679
      ESP Fit Center 4010 is at  -5.427370 -1.176406 -1.004679
      ESP Fit Center 4011 is at  -5.199664 -1.520584 -1.004679
      ESP Fit Center 4012 is at  -4.924272 -1.827939 -1.004679
      ESP Fit Center 4013 is at  -4.607064 -2.091922 -1.004679
      ESP Fit Center 4014 is at  -4.254800 -2.306905 -1.004679
      ESP Fit Center 4015 is at  -3.874988 -2.468308 -1.004679
      ESP Fit Center 4016 is at  -3.475723 -2.572690 -1.004679
      ESP Fit Center 4017 is at  -1.753001  2.580406 -1.380235
      ESP Fit Center 4018 is at  -2.139161  2.740359 -1.380235
      ESP Fit Center 4019 is at  -2.545588  2.837933 -1.380235
      ESP Fit Center 4020 is at  -2.962275  2.870727 -1.380235
      ESP Fit Center 4021 is at  -3.378963  2.837933 -1.380235
      ESP Fit Center 4022 is at  -3.785390  2.740359 -1.380235
      ESP Fit Center 4023 is at  -4.171550  2.580406 -1.380235
      ESP Fit Center 4024 is at  -4.527933  2.362014 -1.380235
      ESP Fit Center 4025 is at  -4.845764  2.090561 -1.380235
      ESP Fit Center 4026 is at  -5.117218  1.772729 -1.380235
      ESP Fit Center 4027 is at  -5.335610  1.416346 -1.380235
      ESP Fit Center 4028 is at  -5.495562  1.030186 -1.380235
      ESP Fit Center 4029 is at  -5.593137  0.623759 -1.380235
      ESP Fit Center 4030 is at  -5.625931  0.207072 -1.380235
      ESP Fit Center 4031 is at  -5.593137 -0.209616 -1.380235
      ESP Fit Center 4032 is at  -5.495562 -0.616043 -1.380235
      ESP Fit Center 4033 is at  -5.335610 -1.002203 -1.380235
      ESP Fit Center 4034 is at  -5.117218 -1.358586 -1.380235
      ESP Fit Center 4035 is at  -4.845764 -1.676417 -1.380235
      ESP Fit Center 4036 is at  -4.527933 -1.947871 -1.380235
      ESP Fit Center 4037 is at  -4.171550 -2.166263 -1.380235
      ESP Fit Center 4038 is at  -3.785390 -2.326215 -1.380235
      ESP Fit Center 4039 is at  -3.378963 -2.423790 -1.380235
      ESP Fit Center 4040 is at  -1.677246  2.294093 -1.730081
      ESP Fit Center 4041 is at  -2.048438  2.481244 -1.730081
      ESP Fit Center 4042 is at  -2.445920  2.602971 -1.730081
      ESP Fit Center 4043 is at  -2.858256  2.655773 -1.730081
      ESP Fit Center 4044 is at  -3.273585  2.638130 -1.730081
      ESP Fit Center 4045 is at  -3.679958  2.550550 -1.730081
      ESP Fit Center 4046 is at  -4.065684  2.395552 -1.730081
      ESP Fit Center 4047 is at  -4.419668  2.177596 -1.730081
      ESP Fit Center 4048 is at  -4.731725  1.902951 -1.730081
      ESP Fit Center 4049 is at  -4.992878  1.579519 -1.730081
      ESP Fit Center 4050 is at  -5.195614  1.216604 -1.730081
      ESP Fit Center 4051 is at  -5.334101  0.824647 -1.730081
      ESP Fit Center 4052 is at  -5.404356  0.414923 -1.730081
      ESP Fit Center 4053 is at  -5.404356 -0.000780 -1.730081
      ESP Fit Center 4054 is at  -5.334101 -0.410504 -1.730081
      ESP Fit Center 4055 is at  -5.195614 -0.802461 -1.730081
      ESP Fit Center 4056 is at  -4.992878 -1.165376 -1.730081
      ESP Fit Center 4057 is at  -4.731725 -1.488808 -1.730081
      ESP Fit Center 4058 is at  -4.419668 -1.763453 -1.730081
      ESP Fit Center 4059 is at  -4.065684 -1.981409 -1.730081
      ESP Fit Center 4060 is at  -3.679958 -2.136407 -1.730081
      ESP Fit Center 4061 is at  -3.273585 -2.223987 -1.730081
      ESP Fit Center 4062 is at  -2.051475  2.201447 -2.047700
      ESP Fit Center 4063 is at  -2.445372  2.337776 -2.047700
      ESP Fit Center 4064 is at  -2.857952  2.397096 -2.047700
      ESP Fit Center 4065 is at  -3.274302  2.377263 -2.047700
      ESP Fit Center 4066 is at  -3.679375  2.278993 -2.047700
      ESP Fit Center 4067 is at  -4.058529  2.105839 -2.047700
      ESP Fit Center 4068 is at  -4.398063  1.864058 -2.047700
      ESP Fit Center 4069 is at  -4.685703  1.562390 -2.047700
      ESP Fit Center 4070 is at  -4.911054  1.211737 -2.047700
      ESP Fit Center 4071 is at  -5.065971  0.824772 -2.047700
      ESP Fit Center 4072 is at  -5.144855  0.415483 -2.047700
      ESP Fit Center 4073 is at  -5.144855 -0.001340 -2.047700
      ESP Fit Center 4074 is at  -5.065971 -0.410629 -2.047700
      ESP Fit Center 4075 is at  -4.911054 -0.797594 -2.047700
      ESP Fit Center 4076 is at  -4.685703 -1.148247 -2.047700
      ESP Fit Center 4077 is at  -4.398063 -1.449915 -2.047700
      ESP Fit Center 4078 is at  -4.058529 -1.691696 -2.047700
      ESP Fit Center 4079 is at  -3.679375 -1.864850 -2.047700
      ESP Fit Center 4080 is at  -3.274302 -1.963120 -2.047700
      ESP Fit Center 4081 is at  -2.075455  1.879793 -2.327174
      ESP Fit Center 4082 is at  -2.455774  2.031326 -2.327174
      ESP Fit Center 4083 is at  -2.859776  2.097559 -2.327174
      ESP Fit Center 4084 is at  -3.268571  2.075395 -2.327174
      ESP Fit Center 4085 is at  -3.663045  1.965870 -2.327174
      ESP Fit Center 4086 is at  -4.024751  1.774105 -2.327174
      ESP Fit Center 4087 is at  -4.336776  1.509068 -2.327174
      ESP Fit Center 4088 is at  -4.584532  1.183151 -2.327174
      ESP Fit Center 4089 is at  -4.756433  0.811594 -2.327174
      ESP Fit Center 4090 is at  -4.844441  0.411769 -2.327174
      ESP Fit Center 4091 is at  -4.844441  0.002374 -2.327174
      ESP Fit Center 4092 is at  -4.756433 -0.397450 -2.327174
      ESP Fit Center 4093 is at  -4.584532 -0.769008 -2.327174
      ESP Fit Center 4094 is at  -4.336776 -1.094925 -2.327174
      ESP Fit Center 4095 is at  -4.024751 -1.359962 -2.327174
      ESP Fit Center 4096 is at  -3.663045 -1.551726 -2.327174
      ESP Fit Center 4097 is at  -3.268571 -1.661251 -2.327174
      ESP Fit Center 4098 is at  -2.245148  1.591064 -2.563299
      ESP Fit Center 4099 is at  -2.645138  1.733221 -2.563299
      ESP Fit Center 4100 is at  -3.068648  1.762190 -2.563299
      ESP Fit Center 4101 is at  -3.484270  1.675823 -2.563299
      ESP Fit Center 4102 is at  -3.861177  1.480525 -2.563299
      ESP Fit Center 4103 is at  -4.171417  1.190781 -2.563299
      ESP Fit Center 4104 is at  -4.391980  0.828080 -2.563299
      ESP Fit Center 4105 is at  -4.506509  0.419322 -2.563299
      ESP Fit Center 4106 is at  -4.506509 -0.005178 -2.563299
      ESP Fit Center 4107 is at  -4.391980 -0.413937 -2.563299
      ESP Fit Center 4108 is at  -4.171417 -0.776638 -2.563299
      ESP Fit Center 4109 is at  -3.861177 -1.066382 -2.563299
      ESP Fit Center 4110 is at  -3.484270 -1.261679 -2.563299
      ESP Fit Center 4111 is at  -3.068648 -1.348046 -2.563299
      ESP Fit Center 4112 is at  -2.364674  1.242148 -2.751674
      ESP Fit Center 4113 is at  -2.754731  1.384117 -2.751674
      ESP Fit Center 4114 is at  -3.169820  1.384117 -2.751674
      ESP Fit Center 4115 is at  -3.559877  1.242148 -2.751674
      ESP Fit Center 4116 is at  -3.877854  0.975333 -2.751674
      ESP Fit Center 4117 is at  -4.085399  0.615855 -2.751674
      ESP Fit Center 4118 is at  -4.157479  0.207072 -2.751674
      ESP Fit Center 4119 is at  -4.085399 -0.201712 -2.751674
      ESP Fit Center 4120 is at  -3.877854 -0.561190 -2.751674
      ESP Fit Center 4121 is at  -3.559877 -0.828005 -2.751674
      ESP Fit Center 4122 is at  -3.169820 -0.969974 -2.751674
      ESP Fit Center 4123 is at  -2.754731 -0.969974 -2.751674
      ESP Fit Center 4124 is at  -2.261323  0.611767 -2.888792
      ESP Fit Center 4125 is at  -2.557580  0.908024 -2.888792
      ESP Fit Center 4126 is at  -2.962275  1.016462 -2.888792
      ESP Fit Center 4127 is at  -3.366971  0.908024 -2.888792
      ESP Fit Center 4128 is at  -3.663228  0.611767 -2.888792
      ESP Fit Center 4129 is at  -3.771666  0.207072 -2.888792
      ESP Fit Center 4130 is at  -3.663228 -0.197624 -2.888792
      ESP Fit Center 4131 is at  -3.366971 -0.493881 -2.888792
      ESP Fit Center 4132 is at  -2.962275 -0.602319 -2.888792
      ESP Fit Center 4133 is at  -2.553775  0.207072 -2.972098
      ESP Fit Center 4134 is at  -2.758025  0.560843 -2.972098
      ESP Fit Center 4135 is at  -3.166525  0.560843 -2.972098
      ESP Fit Center 4136 is at  -3.370775  0.207072 -2.972098
      ESP Fit Center 4137 is at  -3.166525 -0.146700 -2.972098
      ESP Fit Center 4138 is at  -2.758025 -0.146700 -2.972098
      ESP Fit Center 4139 is at  -2.962275  0.207072 -3.000040
      ESP Fit Center 4140 is at  -0.417110 -3.586155 -0.463658
      ESP Fit Center 4141 is at   0.006195 -3.567145 -0.463658
      ESP Fit Center 4142 is at   0.419304 -3.472855 -0.463658
      ESP Fit Center 4143 is at   0.808937 -3.306318 -0.463658
      ESP Fit Center 4144 is at   1.162572 -3.072886 -0.463658
      ESP Fit Center 4145 is at  -1.511070 -3.303458 -0.880414
      ESP Fit Center 4146 is at  -1.131918 -3.480259 -0.880414
      ESP Fit Center 4147 is at  -0.727826 -3.588535 -0.880414
      ESP Fit Center 4148 is at  -0.311070 -3.624997 -0.880414
      ESP Fit Center 4149 is at   0.105686 -3.588535 -0.880414
      ESP Fit Center 4150 is at   0.509778 -3.480259 -0.880414
      ESP Fit Center 4151 is at   0.888930 -3.303458 -0.880414
      ESP Fit Center 4152 is at   1.231620 -3.063503 -0.880414
      ESP Fit Center 4153 is at   1.527437 -2.767687 -0.880414
      ESP Fit Center 4154 is at  -1.944423 -2.933350 -1.297169
      ESP Fit Center 4155 is at  -1.613136 -3.197543 -1.297169
      ESP Fit Center 4156 is at  -1.240000 -3.398336 -1.297169
      ESP Fit Center 4157 is at  -0.837007 -3.529276 -1.297169
      ESP Fit Center 4158 is at  -0.417110 -3.586155 -1.297169
      ESP Fit Center 4159 is at   0.006195 -3.567145 -1.297169
      ESP Fit Center 4160 is at   0.419304 -3.472855 -1.297169
      ESP Fit Center 4161 is at   0.808937 -3.306318 -1.297169
      ESP Fit Center 4162 is at   1.162572 -3.072886 -1.297169
      ESP Fit Center 4163 is at   1.468843 -2.780060 -1.297169
      ESP Fit Center 4164 is at  -1.787953 -2.929410 -1.701262
      ESP Fit Center 4165 is at  -1.438701 -3.178111 -1.701262
      ESP Fit Center 4166 is at  -1.048694 -3.356221 -1.701262
      ESP Fit Center 4167 is at  -0.632027 -3.457304 -1.701262
      ESP Fit Center 4168 is at  -0.203760 -3.477705 -1.701262
      ESP Fit Center 4169 is at   0.220628 -3.416687 -1.701262
      ESP Fit Center 4170 is at   0.625800 -3.276455 -1.701262
      ESP Fit Center 4171 is at   0.997110 -3.062079 -1.701262
      ESP Fit Center 4172 is at   1.321140 -2.781306 -1.701262
      ESP Fit Center 4173 is at   1.586177 -2.444284 -1.701262
      ESP Fit Center 4174 is at  -1.888119 -2.578849 -2.080414
      ESP Fit Center 4175 is at  -1.583308 -2.868593 -2.080414
      ESP Fit Center 4176 is at  -1.226412 -3.091048 -2.080414
      ESP Fit Center 4177 is at  -0.832042 -3.237107 -2.080414
      ESP Fit Center 4178 is at  -0.416342 -3.300790 -2.080414
      ESP Fit Center 4179 is at   0.003667 -3.279490 -2.080414
      ESP Fit Center 4180 is at   0.410790 -3.174078 -2.080414
      ESP Fit Center 4181 is at   0.788361 -2.988871 -2.080414
      ESP Fit Center 4182 is at   1.120921 -2.731450 -2.080414
      ESP Fit Center 4183 is at   1.394855 -2.412355 -2.080414
      ESP Fit Center 4184 is at   1.598948 -2.044650 -2.080414
      ESP Fit Center 4185 is at  -1.847120 -2.235273 -2.423104
      ESP Fit Center 4186 is at  -1.572730 -2.562278 -2.423104
      ESP Fit Center 4187 is at  -1.230323 -2.817190 -2.423104
      ESP Fit Center 4188 is at  -0.838360 -2.986267 -2.423104
      ESP Fit Center 4189 is at  -0.417970 -3.060393 -2.423104
      ESP Fit Center 4190 is at   0.008183 -3.035572 -2.423104
      ESP Fit Center 4191 is at   0.417125 -2.913143 -2.423104
      ESP Fit Center 4192 is at   0.786810 -2.699706 -2.423104
      ESP Fit Center 4193 is at   1.097308 -2.406766 -2.423104
      ESP Fit Center 4194 is at   1.331879 -2.050117 -2.423104
      ESP Fit Center 4195 is at   1.477879 -1.648985 -2.423104
      ESP Fit Center 4196 is at   1.231620 -1.224997 -2.718920
      ESP Fit Center 4197 is at  -1.839392 -1.435060 -2.718920
      ESP Fit Center 4198 is at  -1.726043 -1.839606 -2.718920
      ESP Fit Center 4199 is at  -1.507752 -2.198570 -2.718920
      ESP Fit Center 4200 is at  -1.200709 -2.485328 -2.718920
      ESP Fit Center 4201 is at  -0.827686 -2.678613 -2.718920
      ESP Fit Center 4202 is at  -0.416347 -2.764091 -2.718920
      ESP Fit Center 4203 is at   0.002800 -2.735420 -2.718920
      ESP Fit Center 4204 is at   0.398668 -2.594729 -2.718920
      ESP Fit Center 4205 is at   0.741898 -2.352450 -2.718920
      ESP Fit Center 4206 is at   1.007034 -2.026554 -2.718920
      ESP Fit Center 4207 is at   1.174413 -1.641210 -2.718920
      ESP Fit Center 4208 is at   0.888930 -1.224997 -2.958875
      ESP Fit Center 4209 is at   0.816561 -0.814573 -2.958875
      ESP Fit Center 4210 is at   0.608183 -0.453652 -2.958875
      ESP Fit Center 4211 is at   0.288930 -0.185766 -2.958875
      ESP Fit Center 4212 is at  -0.102692 -0.043227 -2.958875
      ESP Fit Center 4213 is at  -0.519448 -0.043227 -2.958875
      ESP Fit Center 4214 is at  -0.911070 -0.185766 -2.958875
      ESP Fit Center 4215 is at  -1.230323 -0.453652 -2.958875
      ESP Fit Center 4216 is at  -1.438701 -0.814573 -2.958875
      ESP Fit Center 4217 is at  -1.511070 -1.224997 -2.958875
      ESP Fit Center 4218 is at  -1.438701 -1.635421 -2.958875
      ESP Fit Center 4219 is at  -1.230323 -1.996342 -2.958875
      ESP Fit Center 4220 is at  -0.911070 -2.264227 -2.958875
      ESP Fit Center 4221 is at  -0.519448 -2.406766 -2.958875
      ESP Fit Center 4222 is at  -0.102692 -2.406766 -2.958875
      ESP Fit Center 4223 is at   0.288930 -2.264227 -2.958875
      ESP Fit Center 4224 is at   0.608183 -1.996342 -2.958875
      ESP Fit Center 4225 is at   0.816561 -1.635421 -2.958875
      ESP Fit Center 4226 is at   0.509778 -1.224997 -3.135676
      ESP Fit Center 4227 is at   0.399805 -0.814573 -3.135676
      ESP Fit Center 4228 is at   0.099354 -0.514121 -3.135676
      ESP Fit Center 4229 is at  -0.311070 -0.404148 -3.135676
      ESP Fit Center 4230 is at  -0.721494 -0.514121 -3.135676
      ESP Fit Center 4231 is at  -1.021946 -0.814573 -3.135676
      ESP Fit Center 4232 is at  -1.131918 -1.224997 -3.135676
      ESP Fit Center 4233 is at  -1.021946 -1.635421 -3.135676
      ESP Fit Center 4234 is at  -0.721494 -1.935872 -3.135676
      ESP Fit Center 4235 is at  -0.311070 -2.045845 -3.135676
      ESP Fit Center 4236 is at   0.099354 -1.935872 -3.135676
      ESP Fit Center 4237 is at   0.399805 -1.635421 -3.135676
      ESP Fit Center 4238 is at   0.105686 -1.224997 -3.243952
      ESP Fit Center 4239 is at  -0.102692 -0.864076 -3.243952
      ESP Fit Center 4240 is at  -0.519448 -0.864076 -3.243952
      ESP Fit Center 4241 is at  -0.727826 -1.224997 -3.243952
      ESP Fit Center 4242 is at  -0.519448 -1.585918 -3.243952
      ESP Fit Center 4243 is at  -0.102692 -1.585918 -3.243952
      ESP Fit Center 4244 is at  -0.311070 -1.224997 -3.280414
      ESP Fit Center 4245 is at  -0.311173 -1.224899  3.280601
      ESP Fit Center 4246 is at   0.105582 -1.224899  3.244140
      ESP Fit Center 4247 is at  -0.102795 -0.863978  3.244140
      ESP Fit Center 4248 is at  -0.519551 -0.863978  3.244140
      ESP Fit Center 4249 is at  -0.727929 -1.224899  3.244140
      ESP Fit Center 4250 is at  -0.519551 -1.585820  3.244140
      ESP Fit Center 4251 is at  -0.102795 -1.585820  3.244140
      ESP Fit Center 4252 is at   0.509675 -1.224899  3.135864
      ESP Fit Center 4253 is at   0.399702 -0.814475  3.135864
      ESP Fit Center 4254 is at   0.099251 -0.514023  3.135864
      ESP Fit Center 4255 is at  -0.311173 -0.404050  3.135864
      ESP Fit Center 4256 is at  -0.721597 -0.514023  3.135864
      ESP Fit Center 4257 is at  -1.022049 -0.814475  3.135864
      ESP Fit Center 4258 is at  -1.132021 -1.224899  3.135864
      ESP Fit Center 4259 is at  -1.022049 -1.635323  3.135864
      ESP Fit Center 4260 is at  -0.721597 -1.935774  3.135864
      ESP Fit Center 4261 is at  -0.311173 -2.045747  3.135864
      ESP Fit Center 4262 is at   0.099251 -1.935774  3.135864
      ESP Fit Center 4263 is at   0.399702 -1.635323  3.135864
      ESP Fit Center 4264 is at   0.888827 -1.224899  2.959062
      ESP Fit Center 4265 is at   0.816458 -0.814475  2.959062
      ESP Fit Center 4266 is at   0.608080 -0.453554  2.959062
      ESP Fit Center 4267 is at   0.288827 -0.185668  2.959062
      ESP Fit Center 4268 is at  -0.102795 -0.043129  2.959062
      ESP Fit Center 4269 is at  -0.519551 -0.043129  2.959062
      ESP Fit Center 4270 is at  -0.911173 -0.185668  2.959062
      ESP Fit Center 4271 is at  -1.230426 -0.453554  2.959062
      ESP Fit Center 4272 is at  -1.438804 -0.814475  2.959062
      ESP Fit Center 4273 is at  -1.511173 -1.224899  2.959062
      ESP Fit Center 4274 is at  -1.438804 -1.635323  2.959062
      ESP Fit Center 4275 is at  -1.230426 -1.996244  2.959062
      ESP Fit Center 4276 is at  -0.911173 -2.264129  2.959062
      ESP Fit Center 4277 is at  -0.519551 -2.406668  2.959062
      ESP Fit Center 4278 is at  -0.102795 -2.406668  2.959062
      ESP Fit Center 4279 is at   0.288827 -2.264129  2.959062
      ESP Fit Center 4280 is at   0.608080 -1.996244  2.959062
      ESP Fit Center 4281 is at   0.816458 -1.635323  2.959062
      ESP Fit Center 4282 is at   1.231517 -1.224899  2.719108
      ESP Fit Center 4283 is at  -1.839495 -1.434962  2.719108
      ESP Fit Center 4284 is at  -1.726146 -1.839508  2.719108
      ESP Fit Center 4285 is at  -1.507855 -2.198472  2.719108
      ESP Fit Center 4286 is at  -1.200812 -2.485230  2.719108
      ESP Fit Center 4287 is at  -0.827789 -2.678516  2.719108
      ESP Fit Center 4288 is at  -0.416450 -2.763993  2.719108
      ESP Fit Center 4289 is at   0.002696 -2.735322  2.719108
      ESP Fit Center 4290 is at   0.398565 -2.594631  2.719108
      ESP Fit Center 4291 is at   0.741795 -2.352352  2.719108
      ESP Fit Center 4292 is at   1.006931 -2.026456  2.719108
      ESP Fit Center 4293 is at   1.174310 -1.641112  2.719108
      ESP Fit Center 4294 is at  -1.847223 -2.235175  2.423292
      ESP Fit Center 4295 is at  -1.572833 -2.562180  2.423292
      ESP Fit Center 4296 is at  -1.230426 -2.817092  2.423292
      ESP Fit Center 4297 is at  -0.838463 -2.986169  2.423292
      ESP Fit Center 4298 is at  -0.418073 -3.060295  2.423292
      ESP Fit Center 4299 is at   0.008080 -3.035474  2.423292
      ESP Fit Center 4300 is at   0.417022 -2.913045  2.423292
      ESP Fit Center 4301 is at   0.786707 -2.699608  2.423292
      ESP Fit Center 4302 is at   1.097205 -2.406668  2.423292
      ESP Fit Center 4303 is at   1.331776 -2.050019  2.423292
      ESP Fit Center 4304 is at   1.477776 -1.648888  2.423292
      ESP Fit Center 4305 is at  -1.888222 -2.578751  2.080601
      ESP Fit Center 4306 is at  -1.583412 -2.868495  2.080601
      ESP Fit Center 4307 is at  -1.226515 -3.090950  2.080601
      ESP Fit Center 4308 is at  -0.832145 -3.237009  2.080601
      ESP Fit Center 4309 is at  -0.416445 -3.300692  2.080601
      ESP Fit Center 4310 is at   0.003564 -3.279392  2.080601
      ESP Fit Center 4311 is at   0.410687 -3.173980  2.080601
      ESP Fit Center 4312 is at   0.788258 -2.988773  2.080601
      ESP Fit Center 4313 is at   1.120818 -2.731352  2.080601
      ESP Fit Center 4314 is at   1.394752 -2.412257  2.080601
      ESP Fit Center 4315 is at   1.598845 -2.044552  2.080601
      ESP Fit Center 4316 is at  -1.788056 -2.929312  1.701450
      ESP Fit Center 4317 is at  -1.438804 -3.178013  1.701450
      ESP Fit Center 4318 is at  -1.048797 -3.356123  1.701450
      ESP Fit Center 4319 is at  -0.632130 -3.457206  1.701450
      ESP Fit Center 4320 is at  -0.203863 -3.477607  1.701450
      ESP Fit Center 4321 is at   0.220525 -3.416589  1.701450
      ESP Fit Center 4322 is at   0.625697 -3.276358  1.701450
      ESP Fit Center 4323 is at   0.997007 -3.061981  1.701450
      ESP Fit Center 4324 is at   1.321037 -2.781208  1.701450
      ESP Fit Center 4325 is at   1.586074 -2.444186  1.701450
      ESP Fit Center 4326 is at  -1.944526 -2.933252  1.297357
      ESP Fit Center 4327 is at  -1.613239 -3.197445  1.297357
      ESP Fit Center 4328 is at  -1.240103 -3.398238  1.297357
      ESP Fit Center 4329 is at  -0.837110 -3.529179  1.297357
      ESP Fit Center 4330 is at  -0.417213 -3.586057  1.297357
      ESP Fit Center 4331 is at   0.006092 -3.567047  1.297357
      ESP Fit Center 4332 is at   0.419200 -3.472758  1.297357
      ESP Fit Center 4333 is at   0.808834 -3.306220  1.297357
      ESP Fit Center 4334 is at   1.162469 -3.072788  1.297357
      ESP Fit Center 4335 is at   1.468740 -2.779962  1.297357
      ESP Fit Center 4336 is at  -1.511173 -3.303360  0.880601
      ESP Fit Center 4337 is at  -1.132021 -3.480161  0.880601
      ESP Fit Center 4338 is at  -0.727929 -3.588437  0.880601
      ESP Fit Center 4339 is at  -0.311173 -3.624899  0.880601
      ESP Fit Center 4340 is at   0.105582 -3.588437  0.880601
      ESP Fit Center 4341 is at   0.509675 -3.480161  0.880601
      ESP Fit Center 4342 is at   0.888827 -3.303360  0.880601
      ESP Fit Center 4343 is at   1.231517 -3.063405  0.880601
      ESP Fit Center 4344 is at   1.527334 -2.767589  0.880601
      ESP Fit Center 4345 is at  -0.417213 -3.586057  0.463846
      ESP Fit Center 4346 is at   0.006092 -3.567047  0.463846
      ESP Fit Center 4347 is at   0.419200 -3.472758  0.463846
      ESP Fit Center 4348 is at   0.808834 -3.306220  0.463846
      ESP Fit Center 4349 is at   1.162469 -3.072788  0.463846
      ESP Fit Center 4350 is at   0.628417  3.567269 -0.463677
      ESP Fit Center 4351 is at   0.205111  3.586279 -0.463677
      ESP Fit Center 4352 is at  -0.214786  3.529400 -0.463677
      ESP Fit Center 4353 is at  -0.617779  3.398460 -0.463677
      ESP Fit Center 4354 is at  -0.990915  3.197667 -0.463677
      ESP Fit Center 4355 is at   1.511151  3.303582 -0.880433
      ESP Fit Center 4356 is at   1.131999  3.480383 -0.880433
      ESP Fit Center 4357 is at   0.727907  3.588659 -0.880433
      ESP Fit Center 4358 is at   0.311151  3.625121 -0.880433
      ESP Fit Center 4359 is at  -0.105605  3.588659 -0.880433
      ESP Fit Center 4360 is at  -0.509697  3.480383 -0.880433
      ESP Fit Center 4361 is at  -0.888849  3.303582 -0.880433
      ESP Fit Center 4362 is at  -1.231539  3.063627 -0.880433
      ESP Fit Center 4363 is at  -1.527356  2.767811 -0.880433
      ESP Fit Center 4364 is at   1.784793  3.073010 -1.297189
      ESP Fit Center 4365 is at   1.431158  3.306442 -1.297189
      ESP Fit Center 4366 is at   1.041525  3.472979 -1.297189
      ESP Fit Center 4367 is at   0.628417  3.567269 -1.297189
      ESP Fit Center 4368 is at   0.205111  3.586279 -1.297189
      ESP Fit Center 4369 is at  -0.214786  3.529400 -1.297189
      ESP Fit Center 4370 is at  -0.617779  3.398460 -1.297189
      ESP Fit Center 4371 is at  -0.990915  3.197667 -1.297189
      ESP Fit Center 4372 is at  -1.322202  2.933474 -1.297189
      ESP Fit Center 4373 is at  -1.600992  2.614374 -1.297189
      ESP Fit Center 4374 is at   1.943361  2.781430 -1.701281
      ESP Fit Center 4375 is at   1.619332  3.062203 -1.701281
      ESP Fit Center 4376 is at   1.248021  3.276579 -1.701281
      ESP Fit Center 4377 is at   0.842849  3.416811 -1.701281
      ESP Fit Center 4378 is at   0.418461  3.477829 -1.701281
      ESP Fit Center 4379 is at  -0.009806  3.457428 -1.701281
      ESP Fit Center 4380 is at  -0.426473  3.356345 -1.701281
      ESP Fit Center 4381 is at  -0.816480  3.178235 -1.701281
      ESP Fit Center 4382 is at  -1.165732  2.929534 -1.701281
      ESP Fit Center 4383 is at  -1.461605  2.619231 -1.701281
      ESP Fit Center 4384 is at   2.017076  2.412479 -2.080433
      ESP Fit Center 4385 is at   1.743142  2.731574 -2.080433
      ESP Fit Center 4386 is at   1.410582  2.988995 -2.080433
      ESP Fit Center 4387 is at   1.033012  3.174202 -2.080433
      ESP Fit Center 4388 is at   0.625888  3.279614 -2.080433
      ESP Fit Center 4389 is at   0.205879  3.300914 -2.080433
      ESP Fit Center 4390 is at  -0.209820  3.237231 -2.080433
      ESP Fit Center 4391 is at  -0.604191  3.091172 -2.080433
      ESP Fit Center 4392 is at  -0.961087  2.868717 -2.080433
      ESP Fit Center 4393 is at  -1.265898  2.578973 -2.080433
      ESP Fit Center 4394 is at  -1.506144  2.233802 -2.080433
      ESP Fit Center 4395 is at   1.954101  2.050241 -2.423123
      ESP Fit Center 4396 is at   1.719529  2.406890 -2.423123
      ESP Fit Center 4397 is at   1.409031  2.699830 -2.423123
      ESP Fit Center 4398 is at   1.039346  2.913267 -2.423123
      ESP Fit Center 4399 is at   0.630404  3.035696 -2.423123
      ESP Fit Center 4400 is at   0.204251  3.060517 -2.423123
      ESP Fit Center 4401 is at  -0.216139  2.986391 -2.423123
      ESP Fit Center 4402 is at  -0.608102  2.817314 -2.423123
      ESP Fit Center 4403 is at  -0.950509  2.562402 -2.423123
      ESP Fit Center 4404 is at  -1.224899  2.235397 -2.423123
      ESP Fit Center 4405 is at  -1.416480  1.853927 -2.423123
      ESP Fit Center 4406 is at   1.796634  1.641334 -2.718940
      ESP Fit Center 4407 is at   1.629256  2.026678 -2.718940
      ESP Fit Center 4408 is at   1.364119  2.352574 -2.718940
      ESP Fit Center 4409 is at   1.020889  2.594853 -2.718940
      ESP Fit Center 4410 is at   0.625021  2.735544 -2.718940
      ESP Fit Center 4411 is at   0.205874  2.764215 -2.718940
      ESP Fit Center 4412 is at  -0.205464  2.678737 -2.718940
      ESP Fit Center 4413 is at  -0.578488  2.485452 -2.718940
      ESP Fit Center 4414 is at  -0.885531  2.198694 -2.718940
      ESP Fit Center 4415 is at  -1.103822  1.839730 -2.718940
      ESP Fit Center 4416 is at  -1.217170  1.435184 -2.718940
      ESP Fit Center 4417 is at  -1.217170  1.015058 -2.718940
      ESP Fit Center 4418 is at   1.511151  1.225121 -2.958894
      ESP Fit Center 4419 is at   1.438782  1.635545 -2.958894
      ESP Fit Center 4420 is at   1.230404  1.996466 -2.958894
      ESP Fit Center 4421 is at   0.911151  2.264351 -2.958894
      ESP Fit Center 4422 is at   0.519529  2.406890 -2.958894
      ESP Fit Center 4423 is at   0.102773  2.406890 -2.958894
      ESP Fit Center 4424 is at  -0.288849  2.264351 -2.958894
      ESP Fit Center 4425 is at  -0.608102  1.996466 -2.958894
      ESP Fit Center 4426 is at  -0.816480  1.635545 -2.958894
      ESP Fit Center 4427 is at  -0.888849  1.225121 -2.958894
      ESP Fit Center 4428 is at  -0.816480  0.814697 -2.958894
      ESP Fit Center 4429 is at  -0.608102  0.453776 -2.958894
      ESP Fit Center 4430 is at  -0.288849  0.185890 -2.958894
      ESP Fit Center 4431 is at   0.102773  0.043351 -2.958894
      ESP Fit Center 4432 is at   0.519529  0.043351 -2.958894
      ESP Fit Center 4433 is at   0.911151  0.185890 -2.958894
      ESP Fit Center 4434 is at   1.230404  0.453776 -2.958894
      ESP Fit Center 4435 is at   1.438782  0.814697 -2.958894
      ESP Fit Center 4436 is at   1.131999  1.225121 -3.135695
      ESP Fit Center 4437 is at   1.022027  1.635545 -3.135695
      ESP Fit Center 4438 is at   0.721575  1.935996 -3.135695
      ESP Fit Center 4439 is at   0.311151  2.045969 -3.135695
      ESP Fit Center 4440 is at  -0.099273  1.935996 -3.135695
      ESP Fit Center 4441 is at  -0.399724  1.635545 -3.135695
      ESP Fit Center 4442 is at  -0.509697  1.225121 -3.135695
      ESP Fit Center 4443 is at  -0.399724  0.814697 -3.135695
      ESP Fit Center 4444 is at  -0.099273  0.514245 -3.135695
      ESP Fit Center 4445 is at   0.311151  0.404272 -3.135695
      ESP Fit Center 4446 is at   0.721575  0.514245 -3.135695
      ESP Fit Center 4447 is at   1.022027  0.814697 -3.135695
      ESP Fit Center 4448 is at   0.727907  1.225121 -3.243972
      ESP Fit Center 4449 is at   0.519529  1.586042 -3.243972
      ESP Fit Center 4450 is at   0.102773  1.586042 -3.243972
      ESP Fit Center 4451 is at  -0.105605  1.225121 -3.243972
      ESP Fit Center 4452 is at   0.102773  0.864200 -3.243972
      ESP Fit Center 4453 is at   0.519529  0.864200 -3.243972
      ESP Fit Center 4454 is at   0.311151  1.225121 -3.280433
      ESP Fit Center 4455 is at   0.311201  1.225065  3.280576
      ESP Fit Center 4456 is at   0.727957  1.225065  3.244114
      ESP Fit Center 4457 is at   0.519579  1.585986  3.244114
      ESP Fit Center 4458 is at   0.102823  1.585986  3.244114
      ESP Fit Center 4459 is at  -0.105554  1.225065  3.244114
      ESP Fit Center 4460 is at   0.102823  0.864144  3.244114
      ESP Fit Center 4461 is at   0.519579  0.864144  3.244114
      ESP Fit Center 4462 is at   1.132050  1.225065  3.135838
      ESP Fit Center 4463 is at   1.022077  1.635489  3.135838
      ESP Fit Center 4464 is at   0.721625  1.935941  3.135838
      ESP Fit Center 4465 is at   0.311201  2.045914  3.135838
      ESP Fit Center 4466 is at  -0.099223  1.935941  3.135838
      ESP Fit Center 4467 is at  -0.399674  1.635489  3.135838
      ESP Fit Center 4468 is at  -0.509647  1.225065  3.135838
      ESP Fit Center 4469 is at  -0.399674  0.814641  3.135838
      ESP Fit Center 4470 is at  -0.099223  0.514190  3.135838
      ESP Fit Center 4471 is at   0.311201  0.404217  3.135838
      ESP Fit Center 4472 is at   0.721625  0.514190  3.135838
      ESP Fit Center 4473 is at   1.022077  0.814641  3.135838
      ESP Fit Center 4474 is at   1.511201  1.225065  2.959037
      ESP Fit Center 4475 is at   1.438832  1.635489  2.959037
      ESP Fit Center 4476 is at   1.230455  1.996410  2.959037
      ESP Fit Center 4477 is at   0.911201  2.264296  2.959037
      ESP Fit Center 4478 is at   0.519579  2.406835  2.959037
      ESP Fit Center 4479 is at   0.102823  2.406835  2.959037
      ESP Fit Center 4480 is at  -0.288799  2.264296  2.959037
      ESP Fit Center 4481 is at  -0.608052  1.996410  2.959037
      ESP Fit Center 4482 is at  -0.816430  1.635489  2.959037
      ESP Fit Center 4483 is at  -0.888799  1.225065  2.959037
      ESP Fit Center 4484 is at  -0.816430  0.814641  2.959037
      ESP Fit Center 4485 is at  -0.608052  0.453720  2.959037
      ESP Fit Center 4486 is at  -0.288799  0.185835  2.959037
      ESP Fit Center 4487 is at   0.102823  0.043296  2.959037
      ESP Fit Center 4488 is at   0.519579  0.043296  2.959037
      ESP Fit Center 4489 is at   0.911201  0.185835  2.959037
      ESP Fit Center 4490 is at   1.230455  0.453720  2.959037
      ESP Fit Center 4491 is at   1.438832  0.814641  2.959037
      ESP Fit Center 4492 is at   1.796684  1.641278  2.719082
      ESP Fit Center 4493 is at   1.629306  2.026622  2.719082
      ESP Fit Center 4494 is at   1.364169  2.352519  2.719082
      ESP Fit Center 4495 is at   1.020939  2.594797  2.719082
      ESP Fit Center 4496 is at   0.625071  2.735489  2.719082
      ESP Fit Center 4497 is at   0.205924  2.764159  2.719082
      ESP Fit Center 4498 is at  -0.205414  2.678682  2.719082
      ESP Fit Center 4499 is at  -0.578438  2.485397  2.719082
      ESP Fit Center 4500 is at  -0.885481  2.198639  2.719082
      ESP Fit Center 4501 is at  -1.103772  1.839675  2.719082
      ESP Fit Center 4502 is at  -1.217120  1.435128  2.719082
      ESP Fit Center 4503 is at  -1.217120  1.015002  2.719082
      ESP Fit Center 4504 is at   1.954151  2.050186  2.423266
      ESP Fit Center 4505 is at   1.719579  2.406835  2.423266
      ESP Fit Center 4506 is at   1.409081  2.699774  2.423266
      ESP Fit Center 4507 is at   1.039397  2.913212  2.423266
      ESP Fit Center 4508 is at   0.630455  3.035641  2.423266
      ESP Fit Center 4509 is at   0.204302  3.060461  2.423266
      ESP Fit Center 4510 is at  -0.216088  2.986335  2.423266
      ESP Fit Center 4511 is at  -0.608052  2.817259  2.423266
      ESP Fit Center 4512 is at  -0.950459  2.562347  2.423266
      ESP Fit Center 4513 is at  -1.224849  2.235341  2.423266
      ESP Fit Center 4514 is at  -1.416430  1.853872  2.423266
      ESP Fit Center 4515 is at   2.017126  2.412424  2.080576
      ESP Fit Center 4516 is at   1.743192  2.731519  2.080576
      ESP Fit Center 4517 is at   1.410632  2.988939  2.080576
      ESP Fit Center 4518 is at   1.033062  3.174146  2.080576
      ESP Fit Center 4519 is at   0.625938  3.279558  2.080576
      ESP Fit Center 4520 is at   0.205929  3.300859  2.080576
      ESP Fit Center 4521 is at  -0.209770  3.237176  2.080576
      ESP Fit Center 4522 is at  -0.604141  3.091117  2.080576
      ESP Fit Center 4523 is at  -0.961037  2.868662  2.080576
      ESP Fit Center 4524 is at  -1.265848  2.578918  2.080576
      ESP Fit Center 4525 is at  -1.506094  2.233746  2.080576
      ESP Fit Center 4526 is at   1.943411  2.781374  1.701424
      ESP Fit Center 4527 is at   1.619382  3.062148  1.701424
      ESP Fit Center 4528 is at   1.248071  3.276524  1.701424
      ESP Fit Center 4529 is at   0.842900  3.416755  1.701424
      ESP Fit Center 4530 is at   0.418511  3.477773  1.701424
      ESP Fit Center 4531 is at  -0.009756  3.457372  1.701424
      ESP Fit Center 4532 is at  -0.426423  3.356290  1.701424
      ESP Fit Center 4533 is at  -0.816430  3.178180  1.701424
      ESP Fit Center 4534 is at  -1.165681  2.929479  1.701424
      ESP Fit Center 4535 is at  -1.461555  2.619176  1.701424
      ESP Fit Center 4536 is at   1.784843  3.072954  1.297331
      ESP Fit Center 4537 is at   1.431208  3.306387  1.297331
      ESP Fit Center 4538 is at   1.041575  3.472924  1.297331
      ESP Fit Center 4539 is at   0.628467  3.567213  1.297331
      ESP Fit Center 4540 is at   0.205162  3.586224  1.297331
      ESP Fit Center 4541 is at  -0.214736  3.529345  1.297331
      ESP Fit Center 4542 is at  -0.617729  3.398405  1.297331
      ESP Fit Center 4543 is at  -0.990865  3.197611  1.297331
      ESP Fit Center 4544 is at  -1.322152  2.933419  1.297331
      ESP Fit Center 4545 is at  -1.600942  2.614318  1.297331
      ESP Fit Center 4546 is at   1.511201  3.303526  0.880576
      ESP Fit Center 4547 is at   1.132050  3.480328  0.880576
      ESP Fit Center 4548 is at   0.727957  3.588604  0.880576
      ESP Fit Center 4549 is at   0.311201  3.625065  0.880576
      ESP Fit Center 4550 is at  -0.105554  3.588604  0.880576
      ESP Fit Center 4551 is at  -0.509647  3.480328  0.880576
      ESP Fit Center 4552 is at  -0.888799  3.303526  0.880576
      ESP Fit Center 4553 is at  -1.231489  3.063572  0.880576
      ESP Fit Center 4554 is at  -1.527305  2.767756  0.880576
      ESP Fit Center 4555 is at   0.628467  3.567213  0.463820
      ESP Fit Center 4556 is at   0.205162  3.586224  0.463820
      ESP Fit Center 4557 is at  -0.214736  3.529345  0.463820
      ESP Fit Center 4558 is at  -0.617729  3.398405  0.463820
      ESP Fit Center 4559 is at  -0.990865  3.197611  0.463820
 Entering OneElI...
 OneElI was handed  4294892483 working-precision words.
 Calculate electrostatic properties
    NBasis =    98  MinDer = 0  MaxDer = 0
    NGrid  =  4559  NMatD  =   1
 Requested accuracy = 0.1000D-05
 ShPair: Thresh= 1.00D-06 NBox=     0 BxSize= 0.00D+00 RnKept= 1.12D+01
         NSMCal=                  528 NSMKep=                 432
 PrmmSu-InSpLW:  IPartL=    0 NPrtUS=   32 NPrtUL=    1 DoSpLW=F IThBeg=    0 IThEnd=   31 NThAct=   32.
 PrSmSu:  IncTry=   512 NBBP=        1969488 NTPThr=   100 NPartT=   32 Incr=         512 LDynOK=F GPUOK=F.
 PrsmSu:  NPrtUS=  32 ThrOK=T IAlg=2 LenDen=           0 ISkipM=0 DoSpLW=F IThBeg=    0 IThEnd=   31.
 Prism:   IPart=     0 DynPar=F LinDyn=F Incr=         512.
 PRISM was handed   134140130 working-precision words and   432 shell-pairs
 IPart=  0 NShTot=      159565 NBatch=         199 AvBLen=       801.8
 PrsmSu-ThDecC:  IPartSL=    0    0 NPrtUSL=   32    1 IThBeg=    0 IThEnd=   31 CPU=   -1 GPU=   -1 NThAct=   32.
 PRISM was handed   134140130 working-precision words and   432 shell-pairs
 PRISM was handed   134140130 working-precision words and   432 shell-pairs
 PRISM was handed   134140130 working-precision words and   432 shell-pairs
 PRISM was handed   134140130 working-precision words and   432 shell-pairs
 PRISM was handed   134140130 working-precision words and   432 shell-pairs
 PRISM was handed   134140130 working-precision words and   432 shell-pairs
 PRISM was handed   134140130 working-precision words and   432 shell-pairs
 PRISM was handed   134140130 working-precision words and   432 shell-pairs
 PRISM was handed   134140130 working-precision words and   432 shell-pairs
 PRISM was handed   134140130 working-precision words and   432 shell-pairs
 PRISM was handed   134140130 working-precision words and   432 shell-pairs
 PRISM was handed   134140130 working-precision words and   432 shell-pairs
 PRISM was handed   134140130 working-precision words and   432 shell-pairs
 PRISM was handed   134140130 working-precision words and   432 shell-pairs
 PRISM was handed   134140130 working-precision words and   432 shell-pairs
 IPart= 29 NShTot=       22795 NBatch=          22 AvBLen=      1036.1
 PrsmSu-ThDecC:  IPartSL=   29    0 NPrtUSL=   32    1 IThBeg=    0 IThEnd=   31 CPU=   -1 GPU=   -1 NThAct=   31.
 IPart= 22 NShTot=       27354 NBatch=          27 AvBLen=      1013.1
 PrsmSu-ThDecC:  IPartSL=   22    0 NPrtUSL=   32    1 IThBeg=    0 IThEnd=   31 CPU=   -1 GPU=   -1 NThAct=   30.
 IPart= 24 NShTot=       27354 NBatch=          27 AvBLen=      1013.1
 PrsmSu-ThDecC:  IPartSL=   24    0 NPrtUSL=   32    1 IThBeg=    0 IThEnd=   31 CPU=   -1 GPU=   -1 NThAct=   29.
 IPart= 20 NShTot=       31913 NBatch=          32 AvBLen=       997.3
 PrsmSu-ThDecC:  IPartSL=   20    0 NPrtUSL=   32    1 IThBeg=    0 IThEnd=   31 CPU=   -1 GPU=   -1 NThAct=   28.
 IPart= 18 NShTot=       36472 NBatch=          35 AvBLen=      1042.1
 PrsmSu-ThDecC:  IPartSL=   18    0 NPrtUSL=   32    1 IThBeg=    0 IThEnd=   31 CPU=   -1 GPU=   -1 NThAct=   27.
 IPart= 19 NShTot=       36472 NBatch=          35 AvBLen=      1042.1
 PrsmSu-ThDecC:  IPartSL=   19    0 NPrtUSL=   32    1 IThBeg=    0 IThEnd=   31 CPU=   -1 GPU=   -1 NThAct=   26.
 IPart= 16 NShTot=       41031 NBatch=          43 AvBLen=       954.2
 PrsmSu-ThDecC:  IPartSL=   16    0 NPrtUSL=   32    1 IThBeg=    0 IThEnd=   31 CPU=   -1 GPU=   -1 NThAct=   25.
 IPart= 14 NShTot=       50149 NBatch=          51 AvBLen=       983.3
 PrsmSu-ThDecC:  IPartSL=   14    0 NPrtUSL=   32    1 IThBeg=    0 IThEnd=   31 CPU=   -1 GPU=   -1 NThAct=   24.
 IPart= 11 NShTot=       59267 NBatch=          58 AvBLen=      1021.8
 PrsmSu-ThDecC:  IPartSL=   11    0 NPrtUSL=   32    1 IThBeg=    0 IThEnd=   31 CPU=   -1 GPU=   -1 NThAct=   23.
 IPart=  8 NShTot=       77503 NBatch=          75 AvBLen=      1033.4
 PrsmSu-ThDecC:  IPartSL=    8    0 NPrtUSL=   32    1 IThBeg=    0 IThEnd=   31 CPU=   -1 GPU=   -1 NThAct=   22.
 IPart=  7 NShTot=       95739 NBatch=          95 AvBLen=      1007.8
 PrsmSu-ThDecC:  IPartSL=    7    0 NPrtUSL=   32    1 IThBeg=    0 IThEnd=   31 CPU=   -1 GPU=   -1 NThAct=   21.
 IPart= 23 NShTot=       27354 NBatch=          27 AvBLen=      1013.1
 PrsmSu-ThDecC:  IPartSL=   23    0 NPrtUSL=   32    1 IThBeg=    0 IThEnd=   31 CPU=   -1 GPU=   -1 NThAct=   20.
 IPart=  4 NShTot=      123093 NBatch=         149 AvBLen=       826.1
 PrsmSu-ThDecC:  IPartSL=    4    0 NPrtUSL=   32    1 IThBeg=    0 IThEnd=   31 CPU=   -1 GPU=   -1 NThAct=   19.
 IPart=  2 NShTot=      141329 NBatch=         172 AvBLen=       821.7
 PrsmSu-ThDecC:  IPartSL=    2    0 NPrtUSL=   32    1 IThBeg=    0 IThEnd=   31 CPU=   -1 GPU=   -1 NThAct=   18.
 IPart=  3 NShTot=      141329 NBatch=         172 AvBLen=       821.7
 PrsmSu-ThDecC:  IPartSL=    3    0 NPrtUSL=   32    1 IThBeg=    0 IThEnd=   31 CPU=   -1 GPU=   -1 NThAct=   17.
 PRISM was handed   134140130 working-precision words and   432 shell-pairs
 PRISM was handed   134140130 working-precision words and   432 shell-pairs
 PRISM was handed   134140130 working-precision words and   432 shell-pairs
 PRISM was handed   134140130 working-precision words and   432 shell-pairs
 PRISM was handed   134140130 working-precision words and   432 shell-pairs
 PRISM was handed   134140130 working-precision words and   432 shell-pairs
 PRISM was handed   134140130 working-precision words and   432 shell-pairs
 PRISM was handed   134140130 working-precision words and   432 shell-pairs
 PRISM was handed   134140130 working-precision words and   432 shell-pairs
 PRISM was handed   134140130 working-precision words and   432 shell-pairs
 PRISM was handed   134140130 working-precision words and   432 shell-pairs
 PRISM was handed   134140130 working-precision words and   432 shell-pairs
 PRISM was handed   134140130 working-precision words and   432 shell-pairs
 PRISM was handed   134140130 working-precision words and   432 shell-pairs
 IPart= 25 NShTot=       27354 NBatch=          27 AvBLen=      1013.1
 PrsmSu-ThDecC:  IPartSL=   25    0 NPrtUSL=   32    1 IThBeg=    0 IThEnd=   31 CPU=   -1 GPU=   -1 NThAct=   16.
 IPart= 27 NShTot=       22795 NBatch=          22 AvBLen=      1036.1
 PrsmSu-ThDecC:  IPartSL=   27    0 NPrtUSL=   32    1 IThBeg=    0 IThEnd=   31 CPU=   -1 GPU=   -1 NThAct=   15.
 IPart= 26 NShTot=       22795 NBatch=          22 AvBLen=      1036.1
 PrsmSu-ThDecC:  IPartSL=   26    0 NPrtUSL=   32    1 IThBeg=    0 IThEnd=   31 CPU=   -1 GPU=   -1 NThAct=   14.
 IPart= 21 NShTot=       31913 NBatch=          32 AvBLen=       997.3
 PrsmSu-ThDecC:  IPartSL=   21    0 NPrtUSL=   32    1 IThBeg=    0 IThEnd=   31 CPU=   -1 GPU=   -1 NThAct=   13.
 IPart= 13 NShTot=       50149 NBatch=          51 AvBLen=       983.3
 PrsmSu-ThDecC:  IPartSL=   13    0 NPrtUSL=   32    1 IThBeg=    0 IThEnd=   31 CPU=   -1 GPU=   -1 NThAct=   12.
 IPart=  9 NShTot=       77503 NBatch=          75 AvBLen=      1033.4
 PrsmSu-ThDecC:  IPartSL=    9    0 NPrtUSL=   32    1 IThBeg=    0 IThEnd=   31 CPU=   -1 GPU=   -1 NThAct=   11.
 IPart= 17 NShTot=       41031 NBatch=          43 AvBLen=       954.2
 PrsmSu-ThDecC:  IPartSL=   17    0 NPrtUSL=   32    1 IThBeg=    0 IThEnd=   31 CPU=   -1 GPU=   -1 NThAct=   10.
 IPart= 15 NShTot=       45590 NBatch=          45 AvBLen=      1013.1
 PrsmSu-ThDecC:  IPartSL=   15    0 NPrtUSL=   32    1 IThBeg=    0 IThEnd=   31 CPU=   -1 GPU=   -1 NThAct=    9.
 IPart=  6 NShTot=       95739 NBatch=          95 AvBLen=      1007.8
 PrsmSu-ThDecC:  IPartSL=    6    0 NPrtUSL=   32    1 IThBeg=    0 IThEnd=   31 CPU=   -1 GPU=   -1 NThAct=    8.
 IPart= 10 NShTot=       59267 NBatch=          58 AvBLen=      1021.8
 PrsmSu-ThDecC:  IPartSL=   10    0 NPrtUSL=   32    1 IThBeg=    0 IThEnd=   31 CPU=   -1 GPU=   -1 NThAct=    7.
 IPart=  5 NShTot=      118534 NBatch=         138 AvBLen=       858.9
 PrsmSu-ThDecC:  IPartSL=    5    0 NPrtUSL=   32    1 IThBeg=    0 IThEnd=   31 CPU=   -1 GPU=   -1 NThAct=    6.
 IPart= 30 NShTot=       22795 NBatch=          22 AvBLen=      1036.1
 PrsmSu-ThDecC:  IPartSL=   30    0 NPrtUSL=   32    1 IThBeg=    0 IThEnd=   31 CPU=   -1 GPU=   -1 NThAct=    5.
 IPart= 12 NShTot=       50149 NBatch=          51 AvBLen=       983.3
 PrsmSu-ThDecC:  IPartSL=   12    0 NPrtUSL=   32    1 IThBeg=    0 IThEnd=   31 CPU=   -1 GPU=   -1 NThAct=    4.
 IPart=  1 NShTot=      159565 NBatch=         199 AvBLen=       801.8
 PrsmSu-ThDecC:  IPartSL=    1    0 NPrtUSL=   32    1 IThBeg=    0 IThEnd=   31 CPU=   -1 GPU=   -1 NThAct=    3.
 PRISM was handed   134140130 working-precision words and   432 shell-pairs
 IPart= 31 NShTot=       22795 NBatch=          22 AvBLen=      1036.1
 PrsmSu-ThDecC:  IPartSL=   31    0 NPrtUSL=   32    1 IThBeg=    0 IThEnd=   31 CPU=   -1 GPU=   -1 NThAct=    2.
 PRISM was handed   134140130 working-precision words and   432 shell-pairs
 IPart= 28 NShTot=       22795 NBatch=          22 AvBLen=      1036.1
 PrsmSu-ThDecC:  IPartSL=   28    0 NPrtUSL=   32    1 IThBeg=    0 IThEnd=   31 CPU=   -1 GPU=   -1 NThAct=    1.
 PrSmSu:  NxtVal=          16385.
    4549 points will be used for fitting atomic charges
 Fitting point charges to electrostatic potential
 Charges from ESP fit, RMS=   0.00111 RRMS=   0.05011:
 ESP charges:
               1
     1  N   -0.447471
     2  C    0.303473
     3  C   -0.052232
     4  C   -0.051233
     5  C    0.302764
     6  N   -0.447172
     7  H    0.097896
     8  H    0.097900
     9  H    0.098036
    10  H    0.098039
 Sum of ESP charges =  -0.00000
 ESP charges with hydrogens summed into heavy atoms:
               1
     1  N   -0.447471
     2  C    0.303473
     3  C    0.143844
     4  C    0.144563
     5  C    0.302764
     6  N   -0.447172
 Charge=  -0.00000 Dipole=     0.0004     0.0001     0.0003 Tot=     0.0005
 -----------------------------------------------------------------

              Electrostatic Properties (Atomic Units)

 -----------------------------------------------------------------
    Center     Electric         -------- Electric Field --------
               Potential          X             Y             Z
 -----------------------------------------------------------------
    1 Atom    -18.332490
    2 Atom    -14.679369
    3 Atom    -14.634714
    4 Atom    -14.634713
    5 Atom    -14.679368
    6 Atom    -18.332491
    7 Atom     -1.041058
    8 Atom     -1.041058
    9 Atom     -1.041055
   10 Atom     -1.041055
   11 Fit      -0.013351
   12 Fit      -0.019762
   13 Fit      -0.015349
   14 Fit      -0.007770
   15 Fit      -0.005079
   16 Fit      -0.011058
   17 Fit      -0.017938
   18 Fit      -0.025185
   19 Fit      -0.022354
   20 Fit      -0.017069
   21 Fit      -0.009604
   22 Fit       0.000148
   23 Fit      -0.008475
   24 Fit      -0.016171
   25 Fit      -0.021913
   26 Fit      -0.025071
   27 Fit      -0.029996
   28 Fit      -0.027460
   29 Fit      -0.023211
   30 Fit      -0.017457
   31 Fit      -0.009823
   32 Fit      -0.002358
   33 Fit      -0.011590
   34 Fit      -0.018942
   35 Fit      -0.024659
   36 Fit      -0.028600
   37 Fit      -0.030433
   38 Fit      -0.034261
   39 Fit      -0.031867
   40 Fit      -0.028169
   41 Fit      -0.023443
   42 Fit      -0.017665
   43 Fit      -0.010223
   44 Fit       0.004859
   45 Fit      -0.006140
   46 Fit      -0.014598
   47 Fit      -0.021410
   48 Fit      -0.026979
   49 Fit      -0.031265
   50 Fit      -0.034024
   51 Fit      -0.035038
   52 Fit      -0.037872
   53 Fit      -0.035477
   54 Fit      -0.031961
   55 Fit      -0.027606
   56 Fit      -0.022545
   57 Fit      -0.016546
   58 Fit      -0.008756
   59 Fit       0.003812
   60 Fit      -0.007094
   61 Fit      -0.015381
   62 Fit      -0.022158
   63 Fit      -0.027896
   64 Fit      -0.032631
   65 Fit      -0.036176
   66 Fit      -0.038304
   67 Fit      -0.038869
   68 Fit      -0.040644
   69 Fit      -0.038220
   70 Fit      -0.034768
   71 Fit      -0.030562
   72 Fit      -0.025790
   73 Fit      -0.020406
   74 Fit      -0.013916
   75 Fit      -0.005105
   76 Fit       0.006069
   77 Fit      -0.005487
   78 Fit      -0.014104
   79 Fit      -0.021129
   80 Fit      -0.027173
   81 Fit      -0.032383
   82 Fit      -0.036645
   83 Fit      -0.039749
   84 Fit      -0.041498
   85 Fit      -0.041788
   86 Fit      -0.042395
   87 Fit      -0.039958
   88 Fit      -0.036546
   89 Fit      -0.032421
   90 Fit      -0.027790
   91 Fit      -0.022684
   92 Fit      -0.016796
   93 Fit      -0.009239
   94 Fit      -0.000980
   95 Fit      -0.010561
   96 Fit      -0.018136
   97 Fit      -0.024594
   98 Fit      -0.030271
   99 Fit      -0.035173
  100 Fit      -0.039143
  101 Fit      -0.041974
  102 Fit      -0.043494
  103 Fit      -0.043623
  104 Fit      -0.042995
  105 Fit      -0.040582
  106 Fit      -0.037226
  107 Fit      -0.033179
  108 Fit      -0.028645
  109 Fit      -0.023686
  110 Fit      -0.018071
  111 Fit      -0.011068
  112 Fit       0.007700
  113 Fit      -0.004087
  114 Fit      -0.012833
  115 Fit      -0.019957
  116 Fit      -0.026140
  117 Fit      -0.031607
  118 Fit      -0.036321
  119 Fit      -0.040113
  120 Fit      -0.042787
  121 Fit      -0.044187
  122 Fit      -0.044244
  123 Fit      -0.042396
  124 Fit      -0.039959
  125 Fit      -0.036547
  126 Fit      -0.032422
  127 Fit      -0.027790
  128 Fit      -0.022684
  129 Fit      -0.016797
  130 Fit      -0.009240
  131 Fit      -0.000980
  132 Fit      -0.010561
  133 Fit      -0.018136
  134 Fit      -0.024594
  135 Fit      -0.030271
  136 Fit      -0.035173
  137 Fit      -0.039143
  138 Fit      -0.041974
  139 Fit      -0.043494
  140 Fit      -0.043624
  141 Fit      -0.040645
  142 Fit      -0.038221
  143 Fit      -0.034769
  144 Fit      -0.030563
  145 Fit      -0.025791
  146 Fit      -0.020406
  147 Fit      -0.013917
  148 Fit      -0.005106
  149 Fit       0.006068
  150 Fit      -0.005487
  151 Fit      -0.014105
  152 Fit      -0.021130
  153 Fit      -0.027174
  154 Fit      -0.032383
  155 Fit      -0.036646
  156 Fit      -0.039750
  157 Fit      -0.041499
  158 Fit      -0.041789
  159 Fit      -0.037873
  160 Fit      -0.035479
  161 Fit      -0.031962
  162 Fit      -0.027608
  163 Fit      -0.022546
  164 Fit      -0.016547
  165 Fit      -0.008758
  166 Fit       0.003810
  167 Fit      -0.007096
  168 Fit      -0.015382
  169 Fit      -0.022159
  170 Fit      -0.027897
  171 Fit      -0.032632
  172 Fit      -0.036177
  173 Fit      -0.038306
  174 Fit      -0.038870
  175 Fit      -0.034263
  176 Fit      -0.031868
  177 Fit      -0.028170
  178 Fit      -0.023444
  179 Fit      -0.017666
  180 Fit      -0.010225
  181 Fit       0.004856
  182 Fit      -0.006142
  183 Fit      -0.014599
  184 Fit      -0.021412
  185 Fit      -0.026981
  186 Fit      -0.031267
  187 Fit      -0.034026
  188 Fit      -0.035039
  189 Fit      -0.029997
  190 Fit      -0.027462
  191 Fit      -0.023213
  192 Fit      -0.017459
  193 Fit      -0.009826
  194 Fit      -0.002361
  195 Fit      -0.011592
  196 Fit      -0.018944
  197 Fit      -0.024661
  198 Fit      -0.028601
  199 Fit      -0.030435
  200 Fit      -0.025187
  201 Fit      -0.022356
  202 Fit      -0.017071
  203 Fit      -0.009607
  204 Fit       0.000144
  205 Fit      -0.008478
  206 Fit      -0.016174
  207 Fit      -0.021915
  208 Fit      -0.025073
  209 Fit      -0.019764
  210 Fit      -0.015351
  211 Fit      -0.007774
  212 Fit      -0.005083
  213 Fit      -0.011061
  214 Fit      -0.017940
  215 Fit      -0.013354
  216 Fit       0.019138
  217 Fit       0.005735
  218 Fit       0.015479
  219 Fit       0.028700
  220 Fit       0.032532
  221 Fit       0.023395
  222 Fit       0.009637
  223 Fit      -0.000067
  224 Fit       0.012197
  225 Fit       0.026192
  226 Fit       0.040303
  227 Fit       0.028555
  228 Fit       0.013553
  229 Fit      -0.001903
  230 Fit       0.011535
  231 Fit       0.025953
  232 Fit       0.040210
  233 Fit       0.023877
  234 Fit       0.007347
  235 Fit      -0.002349
  236 Fit       0.011075
  237 Fit       0.025019
  238 Fit       0.036582
  239 Fit       0.018011
  240 Fit      -0.000148
  241 Fit       0.013202
  242 Fit       0.026713
  243 Fit       0.016443
  244 Fit       0.004768
  245 Fit       0.017836
  246 Fit       0.030808
  247 Fit       0.019470
  248 Fit      -0.000640
  249 Fit       0.012251
  250 Fit       0.024796
  251 Fit       0.037155
  252 Fit       0.027416
  253 Fit       0.009241
  254 Fit      -0.003094
  255 Fit       0.009627
  256 Fit       0.022005
  257 Fit       0.033958
  258 Fit       0.021860
  259 Fit      -0.000641
  260 Fit       0.012250
  261 Fit       0.024795
  262 Fit       0.037155
  263 Fit       0.027417
  264 Fit       0.009241
  265 Fit       0.004766
  266 Fit       0.017835
  267 Fit       0.030806
  268 Fit       0.019469
  269 Fit      -0.000150
  270 Fit       0.013199
  271 Fit       0.026710
  272 Fit       0.016441
  273 Fit      -0.002353
  274 Fit       0.011072
  275 Fit       0.025016
  276 Fit       0.036579
  277 Fit       0.018008
  278 Fit      -0.001907
  279 Fit       0.011531
  280 Fit       0.025948
  281 Fit       0.040205
  282 Fit       0.023873
  283 Fit       0.007343
  284 Fit      -0.000071
  285 Fit       0.012193
  286 Fit       0.026187
  287 Fit       0.040297
  288 Fit       0.028550
  289 Fit       0.013549
  290 Fit       0.005731
  291 Fit       0.015474
  292 Fit       0.028695
  293 Fit       0.032527
  294 Fit       0.023390
  295 Fit       0.009632
  296 Fit       0.019133
  297 Fit       0.048062
  298 Fit       0.038370
  299 Fit       0.037363
  300 Fit       0.038394
  301 Fit       0.039054
  302 Fit       0.039442
  303 Fit       0.039391
  304 Fit       0.038660
  305 Fit       0.037167
  306 Fit       0.035067
  307 Fit       0.038370
  308 Fit       0.048060
  309 Fit       0.048062
  310 Fit       0.037505
  311 Fit       0.039128
  312 Fit       0.037360
  313 Fit       0.038391
  314 Fit       0.039051
  315 Fit       0.039439
  316 Fit       0.039387
  317 Fit       0.038655
  318 Fit       0.037161
  319 Fit       0.035059
  320 Fit       0.037505
  321 Fit       0.039128
  322 Fit       0.048060
  323 Fit       0.019137
  324 Fit       0.032532
  325 Fit       0.023395
  326 Fit       0.009636
  327 Fit       0.005733
  328 Fit       0.015476
  329 Fit       0.028698
  330 Fit       0.040303
  331 Fit       0.028556
  332 Fit       0.013555
  333 Fit      -0.000072
  334 Fit       0.012192
  335 Fit       0.026188
  336 Fit       0.047120
  337 Fit       0.032277
  338 Fit       0.015461
  339 Fit       0.004620
  340 Fit       0.018657
  341 Fit       0.033484
  342 Fit       0.036586
  343 Fit       0.018016
  344 Fit      -0.002358
  345 Fit       0.011067
  346 Fit       0.025012
  347 Fit       0.016450
  348 Fit      -0.000158
  349 Fit       0.013192
  350 Fit       0.026705
  351 Fit       0.029236
  352 Fit       0.010422
  353 Fit      -0.001805
  354 Fit       0.011316
  355 Fit       0.024294
  356 Fit       0.037562
  357 Fit       0.018079
  358 Fit       0.005820
  359 Fit       0.018565
  360 Fit       0.030942
  361 Fit       0.021869
  362 Fit      -0.003106
  363 Fit       0.009616
  364 Fit       0.021994
  365 Fit       0.033949
  366 Fit       0.018078
  367 Fit       0.005819
  368 Fit       0.018564
  369 Fit       0.030941
  370 Fit       0.029235
  371 Fit       0.010421
  372 Fit      -0.001807
  373 Fit       0.011314
  374 Fit       0.024292
  375 Fit       0.037560
  376 Fit       0.016447
  377 Fit      -0.000160
  378 Fit       0.013190
  379 Fit       0.026702
  380 Fit       0.036582
  381 Fit       0.018013
  382 Fit      -0.002361
  383 Fit       0.011063
  384 Fit       0.025008
  385 Fit       0.047114
  386 Fit       0.032272
  387 Fit       0.015457
  388 Fit       0.004616
  389 Fit       0.018652
  390 Fit       0.033477
  391 Fit       0.040297
  392 Fit       0.028551
  393 Fit       0.013550
  394 Fit      -0.000076
  395 Fit       0.012187
  396 Fit       0.026182
  397 Fit       0.032525
  398 Fit       0.023389
  399 Fit       0.009631
  400 Fit       0.005728
  401 Fit       0.015471
  402 Fit       0.028692
  403 Fit       0.019131
  404 Fit      -0.013353
  405 Fit      -0.005081
  406 Fit      -0.011059
  407 Fit      -0.017939
  408 Fit      -0.019764
  409 Fit      -0.015352
  410 Fit      -0.007773
  411 Fit       0.000148
  412 Fit      -0.008475
  413 Fit      -0.016172
  414 Fit      -0.021913
  415 Fit      -0.025073
  416 Fit      -0.025187
  417 Fit      -0.022357
  418 Fit      -0.017073
  419 Fit      -0.009608
  420 Fit       0.003028
  421 Fit      -0.007231
  422 Fit      -0.015477
  423 Fit      -0.022004
  424 Fit      -0.026872
  425 Fit      -0.029798
  426 Fit      -0.030497
  427 Fit      -0.028970
  428 Fit      -0.025531
  429 Fit      -0.020533
  430 Fit      -0.013930
  431 Fit      -0.005034
  432 Fit       0.004862
  433 Fit      -0.006138
  434 Fit      -0.014596
  435 Fit      -0.021409
  436 Fit      -0.026978
  437 Fit      -0.031265
  438 Fit      -0.034025
  439 Fit      -0.035039
  440 Fit      -0.034264
  441 Fit      -0.031870
  442 Fit      -0.028172
  443 Fit      -0.023447
  444 Fit      -0.017670
  445 Fit      -0.010229
  446 Fit       0.003816
  447 Fit      -0.007092
  448 Fit      -0.015379
  449 Fit      -0.022156
  450 Fit      -0.027895
  451 Fit      -0.032630
  452 Fit      -0.036176
  453 Fit      -0.038305
  454 Fit      -0.038870
  455 Fit      -0.037874
  456 Fit      -0.035481
  457 Fit      -0.031965
  458 Fit      -0.027611
  459 Fit      -0.022550
  460 Fit      -0.016552
  461 Fit      -0.008763
  462 Fit      -0.000193
  463 Fit      -0.010055
  464 Fit      -0.017761
  465 Fit      -0.024254
  466 Fit      -0.029883
  467 Fit      -0.034643
  468 Fit      -0.038355
  469 Fit      -0.040802
  470 Fit      -0.041829
  471 Fit      -0.041391
  472 Fit      -0.039581
  473 Fit      -0.036609
  474 Fit      -0.032749
  475 Fit      -0.028247
  476 Fit      -0.023197
  477 Fit      -0.017360
  478 Fit      -0.009922
  479 Fit       0.005077
  480 Fit      -0.006102
  481 Fit      -0.014524
  482 Fit      -0.021471
  483 Fit      -0.027521
  484 Fit      -0.032824
  485 Fit      -0.037286
  486 Fit      -0.040712
  487 Fit      -0.042905
  488 Fit      -0.043734
  489 Fit      -0.043174
  490 Fit      -0.041318
  491 Fit      -0.038362
  492 Fit      -0.034562
  493 Fit      -0.030166
  494 Fit      -0.025310
  495 Fit      -0.019882
  496 Fit      -0.013320
  497 Fit      -0.004323
  498 Fit       0.007706
  499 Fit      -0.004083
  500 Fit      -0.012829
  501 Fit      -0.019954
  502 Fit      -0.026137
  503 Fit      -0.031605
  504 Fit      -0.036319
  505 Fit      -0.040112
  506 Fit      -0.042787
  507 Fit      -0.044188
  508 Fit      -0.044246
  509 Fit      -0.042997
  510 Fit      -0.040586
  511 Fit      -0.037231
  512 Fit      -0.033184
  513 Fit      -0.028650
  514 Fit      -0.023692
  515 Fit      -0.018077
  516 Fit      -0.011076
  517 Fit       0.005076
  518 Fit      -0.006103
  519 Fit      -0.014525
  520 Fit      -0.021471
  521 Fit      -0.027522
  522 Fit      -0.032824
  523 Fit      -0.037286
  524 Fit      -0.040712
  525 Fit      -0.042906
  526 Fit      -0.043735
  527 Fit      -0.043175
  528 Fit      -0.041318
  529 Fit      -0.038362
  530 Fit      -0.034563
  531 Fit      -0.030166
  532 Fit      -0.025311
  533 Fit      -0.019882
  534 Fit      -0.013321
  535 Fit      -0.004324
  536 Fit      -0.000194
  537 Fit      -0.010056
  538 Fit      -0.017762
  539 Fit      -0.024255
  540 Fit      -0.029884
  541 Fit      -0.034644
  542 Fit      -0.038355
  543 Fit      -0.040803
  544 Fit      -0.041829
  545 Fit      -0.041392
  546 Fit      -0.039582
  547 Fit      -0.036610
  548 Fit      -0.032749
  549 Fit      -0.028248
  550 Fit      -0.023198
  551 Fit      -0.017361
  552 Fit      -0.009923
  553 Fit       0.003814
  554 Fit      -0.007093
  555 Fit      -0.015380
  556 Fit      -0.022157
  557 Fit      -0.027896
  558 Fit      -0.032631
  559 Fit      -0.036177
  560 Fit      -0.038306
  561 Fit      -0.038871
  562 Fit      -0.037875
  563 Fit      -0.035482
  564 Fit      -0.031966
  565 Fit      -0.027612
  566 Fit      -0.022551
  567 Fit      -0.016553
  568 Fit      -0.008765
  569 Fit       0.004859
  570 Fit      -0.006140
  571 Fit      -0.014598
  572 Fit      -0.021411
  573 Fit      -0.026980
  574 Fit      -0.031266
  575 Fit      -0.034026
  576 Fit      -0.035040
  577 Fit      -0.034265
  578 Fit      -0.031871
  579 Fit      -0.028174
  580 Fit      -0.023448
  581 Fit      -0.017671
  582 Fit      -0.010231
  583 Fit       0.003024
  584 Fit      -0.007233
  585 Fit      -0.015479
  586 Fit      -0.022006
  587 Fit      -0.026874
  588 Fit      -0.029800
  589 Fit      -0.030499
  590 Fit      -0.028972
  591 Fit      -0.025532
  592 Fit      -0.020534
  593 Fit      -0.013933
  594 Fit      -0.005037
  595 Fit       0.000144
  596 Fit      -0.008478
  597 Fit      -0.016174
  598 Fit      -0.021915
  599 Fit      -0.025075
  600 Fit      -0.025189
  601 Fit      -0.022359
  602 Fit      -0.017075
  603 Fit      -0.009611
  604 Fit      -0.005085
  605 Fit      -0.011062
  606 Fit      -0.017942
  607 Fit      -0.019766
  608 Fit      -0.015354
  609 Fit      -0.007777
  610 Fit      -0.013356
  611 Fit       0.037995
  612 Fit       0.036947
  613 Fit       0.036236
  614 Fit       0.035519
  615 Fit       0.034650
  616 Fit       0.033732
  617 Fit       0.033443
  618 Fit       0.036865
  619 Fit       0.035987
  620 Fit       0.035637
  621 Fit       0.035382
  622 Fit       0.034992
  623 Fit       0.034318
  624 Fit       0.033295
  625 Fit       0.032005
  626 Fit       0.030925
  627 Fit       0.034513
  628 Fit       0.034658
  629 Fit       0.034960
  630 Fit       0.035136
  631 Fit       0.035039
  632 Fit       0.034572
  633 Fit       0.033702
  634 Fit       0.032521
  635 Fit       0.031425
  636 Fit       0.031649
  637 Fit       0.036340
  638 Fit       0.043705
  639 Fit       0.033841
  640 Fit       0.033742
  641 Fit       0.034356
  642 Fit       0.034988
  643 Fit       0.035364
  644 Fit       0.035352
  645 Fit       0.034905
  646 Fit       0.034109
  647 Fit       0.033322
  648 Fit       0.033464
  649 Fit       0.037526
  650 Fit       0.042133
  651 Fit       0.047670
  652 Fit       0.051378
  653 Fit       0.051650
  654 Fit       0.048467
  655 Fit       0.043532
  656 Fit       0.038651
  657 Fit       0.035380
  658 Fit       0.034266
  659 Fit       0.034533
  660 Fit       0.035211
  661 Fit       0.035744
  662 Fit       0.035889
  663 Fit       0.035630
  664 Fit       0.035241
  665 Fit       0.035464
  666 Fit       0.038407
  667 Fit       0.041479
  668 Fit       0.044107
  669 Fit       0.044024
  670 Fit       0.041235
  671 Fit       0.037853
  672 Fit       0.035897
  673 Fit       0.035625
  674 Fit       0.036078
  675 Fit       0.036449
  676 Fit       0.036542
  677 Fit       0.036850
  678 Fit       0.038651
  679 Fit       0.040360
  680 Fit       0.039316
  681 Fit       0.037257
  682 Fit       0.036954
  683 Fit       0.037406
  684 Fit       0.038238
  685 Fit       0.038240
  686 Fit       0.038653
  687 Fit       0.040361
  688 Fit       0.039317
  689 Fit       0.037258
  690 Fit       0.036955
  691 Fit       0.037408
  692 Fit       0.038410
  693 Fit       0.041481
  694 Fit       0.044108
  695 Fit       0.044025
  696 Fit       0.041235
  697 Fit       0.037853
  698 Fit       0.035897
  699 Fit       0.035625
  700 Fit       0.036078
  701 Fit       0.036450
  702 Fit       0.036543
  703 Fit       0.036852
  704 Fit       0.037529
  705 Fit       0.042136
  706 Fit       0.047671
  707 Fit       0.051378
  708 Fit       0.051650
  709 Fit       0.048465
  710 Fit       0.043529
  711 Fit       0.038649
  712 Fit       0.035379
  713 Fit       0.034266
  714 Fit       0.034533
  715 Fit       0.035211
  716 Fit       0.035744
  717 Fit       0.035890
  718 Fit       0.035631
  719 Fit       0.035243
  720 Fit       0.035467
  721 Fit       0.036344
  722 Fit       0.043708
  723 Fit       0.033839
  724 Fit       0.033741
  725 Fit       0.034356
  726 Fit       0.034989
  727 Fit       0.035365
  728 Fit       0.035352
  729 Fit       0.034906
  730 Fit       0.034111
  731 Fit       0.033324
  732 Fit       0.033467
  733 Fit       0.034512
  734 Fit       0.034658
  735 Fit       0.034960
  736 Fit       0.035136
  737 Fit       0.035040
  738 Fit       0.034573
  739 Fit       0.033703
  740 Fit       0.032523
  741 Fit       0.031428
  742 Fit       0.031653
  743 Fit       0.036864
  744 Fit       0.035987
  745 Fit       0.035637
  746 Fit       0.035382
  747 Fit       0.034993
  748 Fit       0.034319
  749 Fit       0.033296
  750 Fit       0.032008
  751 Fit       0.030929
  752 Fit       0.037996
  753 Fit       0.036948
  754 Fit       0.036237
  755 Fit       0.035521
  756 Fit       0.034652
  757 Fit       0.033735
  758 Fit       0.033447
  759 Fit       0.039284
  760 Fit       0.037998
  761 Fit       0.036950
  762 Fit       0.036240
  763 Fit       0.035524
  764 Fit       0.034656
  765 Fit       0.033739
  766 Fit       0.033451
  767 Fit       0.036317
  768 Fit       0.035784
  769 Fit       0.035517
  770 Fit       0.035218
  771 Fit       0.034701
  772 Fit       0.033854
  773 Fit       0.032674
  774 Fit       0.031383
  775 Fit       0.030947
  776 Fit       0.034516
  777 Fit       0.034661
  778 Fit       0.034963
  779 Fit       0.035139
  780 Fit       0.035042
  781 Fit       0.034576
  782 Fit       0.033706
  783 Fit       0.032526
  784 Fit       0.031431
  785 Fit       0.031655
  786 Fit       0.033631
  787 Fit       0.034021
  788 Fit       0.034695
  789 Fit       0.035221
  790 Fit       0.035414
  791 Fit       0.035184
  792 Fit       0.034541
  793 Fit       0.033679
  794 Fit       0.033190
  795 Fit       0.034422
  796 Fit       0.039450
  797 Fit       0.034584
  798 Fit       0.034298
  799 Fit       0.034867
  800 Fit       0.035518
  801 Fit       0.035874
  802 Fit       0.035804
  803 Fit       0.035422
  804 Fit       0.035210
  805 Fit       0.036188
  806 Fit       0.039550
  807 Fit       0.044975
  808 Fit       0.049880
  809 Fit       0.051998
  810 Fit       0.050400
  811 Fit       0.046100
  812 Fit       0.040978
  813 Fit       0.036744
  814 Fit       0.035898
  815 Fit       0.035627
  816 Fit       0.036080
  817 Fit       0.036451
  818 Fit       0.036544
  819 Fit       0.036852
  820 Fit       0.038409
  821 Fit       0.041480
  822 Fit       0.044107
  823 Fit       0.044024
  824 Fit       0.041235
  825 Fit       0.037854
  826 Fit       0.037259
  827 Fit       0.036956
  828 Fit       0.037408
  829 Fit       0.038652
  830 Fit       0.040361
  831 Fit       0.039317
  832 Fit       0.038240
  833 Fit       0.038241
  834 Fit       0.037260
  835 Fit       0.036957
  836 Fit       0.037410
  837 Fit       0.038654
  838 Fit       0.040362
  839 Fit       0.039319
  840 Fit       0.035899
  841 Fit       0.035627
  842 Fit       0.036081
  843 Fit       0.036453
  844 Fit       0.036545
  845 Fit       0.036854
  846 Fit       0.038412
  847 Fit       0.041482
  848 Fit       0.044109
  849 Fit       0.044026
  850 Fit       0.041236
  851 Fit       0.037854
  852 Fit       0.034584
  853 Fit       0.034299
  854 Fit       0.034868
  855 Fit       0.035519
  856 Fit       0.035874
  857 Fit       0.035805
  858 Fit       0.035423
  859 Fit       0.035212
  860 Fit       0.036191
  861 Fit       0.039553
  862 Fit       0.044977
  863 Fit       0.049881
  864 Fit       0.052000
  865 Fit       0.050401
  866 Fit       0.046100
  867 Fit       0.040977
  868 Fit       0.036744
  869 Fit       0.033631
  870 Fit       0.034021
  871 Fit       0.034695
  872 Fit       0.035222
  873 Fit       0.035415
  874 Fit       0.035185
  875 Fit       0.034542
  876 Fit       0.033681
  877 Fit       0.033193
  878 Fit       0.034425
  879 Fit       0.039453
  880 Fit       0.034516
  881 Fit       0.034661
  882 Fit       0.034963
  883 Fit       0.035139
  884 Fit       0.035043
  885 Fit       0.034577
  886 Fit       0.033708
  887 Fit       0.032527
  888 Fit       0.031433
  889 Fit       0.031659
  890 Fit       0.036317
  891 Fit       0.035784
  892 Fit       0.035517
  893 Fit       0.035219
  894 Fit       0.034701
  895 Fit       0.033855
  896 Fit       0.032675
  897 Fit       0.031385
  898 Fit       0.030950
  899 Fit       0.037999
  900 Fit       0.036951
  901 Fit       0.036241
  902 Fit       0.035525
  903 Fit       0.034657
  904 Fit       0.033740
  905 Fit       0.033454
  906 Fit       0.039286
  907 Fit      -0.007975
  908 Fit      -0.013416
  909 Fit      -0.009731
  910 Fit      -0.003413
  911 Fit      -0.001139
  912 Fit      -0.005972
  913 Fit      -0.011814
  914 Fit      -0.017949
  915 Fit      -0.015686
  916 Fit      -0.011261
  917 Fit      -0.005002
  918 Fit       0.003202
  919 Fit      -0.003709
  920 Fit      -0.010251
  921 Fit      -0.015128
  922 Fit      -0.017782
  923 Fit      -0.021851
  924 Fit      -0.020082
  925 Fit      -0.016969
  926 Fit      -0.012585
  927 Fit      -0.006816
  928 Fit      -0.001205
  929 Fit      -0.008164
  930 Fit      -0.013783
  931 Fit      -0.018032
  932 Fit      -0.020849
  933 Fit      -0.022134
  934 Fit      -0.025243
  935 Fit      -0.023612
  936 Fit      -0.020970
  937 Fit      -0.017407
  938 Fit      -0.012880
  939 Fit      -0.007122
  940 Fit       0.004370
  941 Fit      -0.003835
  942 Fit      -0.010462
  943 Fit      -0.015782
  944 Fit      -0.019977
  945 Fit      -0.023076
  946 Fit      -0.025017
  947 Fit      -0.025738
  948 Fit      -0.028144
  949 Fit      -0.026534
  950 Fit      -0.024068
  951 Fit      -0.020855
  952 Fit      -0.016917
  953 Fit      -0.012105
  954 Fit      -0.006021
  955 Fit       0.004040
  956 Fit      -0.004421
  957 Fit      -0.011096
  958 Fit      -0.016493
  959 Fit      -0.020888
  960 Fit      -0.024360
  961 Fit      -0.026874
  962 Fit      -0.028362
  963 Fit      -0.028780
  964 Fit      -0.030509
  965 Fit      -0.028940
  966 Fit      -0.026640
  967 Fit      -0.023713
  968 Fit      -0.020222
  969 Fit      -0.016122
  970 Fit      -0.011193
  971 Fit      -0.004967
  972 Fit       0.003003
  973 Fit      -0.005190
  974 Fit      -0.011661
  975 Fit      -0.016968
  976 Fit      -0.021400
  977 Fit      -0.025058
  978 Fit      -0.027927
  979 Fit      -0.029949
  980 Fit      -0.031062
  981 Fit      -0.031241
  982 Fit      -0.032271
  983 Fit      -0.030659
  984 Fit      -0.028346
  985 Fit      -0.025444
  986 Fit      -0.022031
  987 Fit      -0.018097
  988 Fit      -0.013483
  989 Fit      -0.007802
  990 Fit       0.007819
  991 Fit      -0.001658
  992 Fit      -0.008957
  993 Fit      -0.014860
  994 Fit      -0.019805
  995 Fit      -0.023986
  996 Fit      -0.027447
  997 Fit      -0.030147
  998 Fit      -0.032018
  999 Fit      -0.033001
 1000 Fit      -0.033077
 1001 Fit      -0.033361
 1002 Fit      -0.031764
 1003 Fit      -0.029512
 1004 Fit      -0.026709
 1005 Fit      -0.023440
 1006 Fit      -0.019721
 1007 Fit      -0.015452
 1008 Fit      -0.010347
 1009 Fit      -0.003857
 1010 Fit       0.002012
 1011 Fit      -0.005961
 1012 Fit      -0.012330
 1013 Fit      -0.017639
 1014 Fit      -0.022171
 1015 Fit      -0.026034
 1016 Fit      -0.029228
 1017 Fit      -0.031698
 1018 Fit      -0.033377
 1019 Fit      -0.034217
 1020 Fit      -0.034202
 1021 Fit      -0.033730
 1022 Fit      -0.032155
 1023 Fit      -0.029948
 1024 Fit      -0.027210
 1025 Fit      -0.024026
 1026 Fit      -0.020421
 1027 Fit      -0.016317
 1028 Fit      -0.011477
 1029 Fit      -0.005427
 1030 Fit       0.008887
 1031 Fit      -0.000544
 1032 Fit      -0.007870
 1033 Fit      -0.013830
 1034 Fit      -0.018863
 1035 Fit      -0.023190
 1036 Fit      -0.026887
 1037 Fit      -0.029936
 1038 Fit      -0.032283
 1039 Fit      -0.033864
 1040 Fit      -0.034632
 1041 Fit      -0.034578
 1042 Fit      -0.033361
 1043 Fit      -0.031765
 1044 Fit      -0.029512
 1045 Fit      -0.026709
 1046 Fit      -0.023440
 1047 Fit      -0.019721
 1048 Fit      -0.015452
 1049 Fit      -0.010347
 1050 Fit      -0.003858
 1051 Fit       0.002011
 1052 Fit      -0.005961
 1053 Fit      -0.012330
 1054 Fit      -0.017639
 1055 Fit      -0.022171
 1056 Fit      -0.026034
 1057 Fit      -0.029228
 1058 Fit      -0.031698
 1059 Fit      -0.033378
 1060 Fit      -0.034217
 1061 Fit      -0.034202
 1062 Fit      -0.032272
 1063 Fit      -0.030659
 1064 Fit      -0.028347
 1065 Fit      -0.025445
 1066 Fit      -0.022032
 1067 Fit      -0.018098
 1068 Fit      -0.013484
 1069 Fit      -0.007803
 1070 Fit       0.007818
 1071 Fit      -0.001659
 1072 Fit      -0.008957
 1073 Fit      -0.014861
 1074 Fit      -0.019805
 1075 Fit      -0.023987
 1076 Fit      -0.027448
 1077 Fit      -0.030148
 1078 Fit      -0.032019
 1079 Fit      -0.033002
 1080 Fit      -0.033077
 1081 Fit      -0.030510
 1082 Fit      -0.028941
 1083 Fit      -0.026640
 1084 Fit      -0.023714
 1085 Fit      -0.020223
 1086 Fit      -0.016123
 1087 Fit      -0.011194
 1088 Fit      -0.004969
 1089 Fit       0.003002
 1090 Fit      -0.005191
 1091 Fit      -0.011662
 1092 Fit      -0.016969
 1093 Fit      -0.021401
 1094 Fit      -0.025058
 1095 Fit      -0.027928
 1096 Fit      -0.029950
 1097 Fit      -0.031063
 1098 Fit      -0.031242
 1099 Fit      -0.028145
 1100 Fit      -0.026535
 1101 Fit      -0.024070
 1102 Fit      -0.020856
 1103 Fit      -0.016918
 1104 Fit      -0.012106
 1105 Fit      -0.006023
 1106 Fit       0.004039
 1107 Fit      -0.004422
 1108 Fit      -0.011097
 1109 Fit      -0.016494
 1110 Fit      -0.020889
 1111 Fit      -0.024361
 1112 Fit      -0.026875
 1113 Fit      -0.028363
 1114 Fit      -0.028781
 1115 Fit      -0.025245
 1116 Fit      -0.023614
 1117 Fit      -0.020971
 1118 Fit      -0.017408
 1119 Fit      -0.012882
 1120 Fit      -0.007124
 1121 Fit       0.004367
 1122 Fit      -0.003837
 1123 Fit      -0.010463
 1124 Fit      -0.015783
 1125 Fit      -0.019979
 1126 Fit      -0.023077
 1127 Fit      -0.025018
 1128 Fit      -0.025740
 1129 Fit      -0.021853
 1130 Fit      -0.020083
 1131 Fit      -0.016971
 1132 Fit      -0.012587
 1133 Fit      -0.006818
 1134 Fit      -0.001208
 1135 Fit      -0.008166
 1136 Fit      -0.013784
 1137 Fit      -0.018034
 1138 Fit      -0.020851
 1139 Fit      -0.022136
 1140 Fit      -0.017951
 1141 Fit      -0.015688
 1142 Fit      -0.011264
 1143 Fit      -0.005005
 1144 Fit       0.003198
 1145 Fit      -0.003712
 1146 Fit      -0.010253
 1147 Fit      -0.015130
 1148 Fit      -0.017784
 1149 Fit      -0.013418
 1150 Fit      -0.009733
 1151 Fit      -0.003416
 1152 Fit      -0.001143
 1153 Fit      -0.005975
 1154 Fit      -0.011817
 1155 Fit      -0.007978
 1156 Fit       0.016523
 1157 Fit       0.006488
 1158 Fit       0.013626
 1159 Fit       0.023577
 1160 Fit       0.026645
 1161 Fit       0.019901
 1162 Fit       0.009573
 1163 Fit       0.001934
 1164 Fit       0.011031
 1165 Fit       0.021537
 1166 Fit       0.032764
 1167 Fit       0.024019
 1168 Fit       0.012756
 1169 Fit       0.008649
 1170 Fit       0.018852
 1171 Fit       0.029237
 1172 Fit       0.017295
 1173 Fit       0.008124
 1174 Fit       0.018285
 1175 Fit       0.026648
 1176 Fit       0.013239
 1177 Fit      -0.000362
 1178 Fit       0.009529
 1179 Fit       0.019676
 1180 Fit       0.012227
 1181 Fit       0.001367
 1182 Fit       0.010990
 1183 Fit       0.020675
 1184 Fit       0.011023
 1185 Fit       0.006624
 1186 Fit       0.016183
 1187 Fit       0.025706
 1188 Fit       0.017034
 1189 Fit       0.002639
 1190 Fit       0.012017
 1191 Fit       0.021134
 1192 Fit       0.023009
 1193 Fit       0.000804
 1194 Fit       0.010071
 1195 Fit       0.019044
 1196 Fit       0.027730
 1197 Fit       0.018738
 1198 Fit       0.002639
 1199 Fit       0.012016
 1200 Fit       0.021134
 1201 Fit       0.023010
 1202 Fit       0.006623
 1203 Fit       0.016182
 1204 Fit       0.025705
 1205 Fit       0.017034
 1206 Fit       0.001365
 1207 Fit       0.010988
 1208 Fit       0.020673
 1209 Fit       0.011022
 1210 Fit      -0.000364
 1211 Fit       0.009527
 1212 Fit       0.019673
 1213 Fit       0.012225
 1214 Fit       0.008121
 1215 Fit       0.018281
 1216 Fit       0.026645
 1217 Fit       0.013236
 1218 Fit       0.008646
 1219 Fit       0.018848
 1220 Fit       0.029232
 1221 Fit       0.017291
 1222 Fit       0.001930
 1223 Fit       0.011027
 1224 Fit       0.021533
 1225 Fit       0.032759
 1226 Fit       0.024014
 1227 Fit       0.012752
 1228 Fit       0.006484
 1229 Fit       0.013621
 1230 Fit       0.023573
 1231 Fit       0.026640
 1232 Fit       0.019896
 1233 Fit       0.009569
 1234 Fit       0.016518
 1235 Fit       0.038453
 1236 Fit       0.030027
 1237 Fit       0.029145
 1238 Fit       0.030868
 1239 Fit       0.031882
 1240 Fit       0.032344
 1241 Fit       0.032213
 1242 Fit       0.031356
 1243 Fit       0.029614
 1244 Fit       0.026788
 1245 Fit       0.030027
 1246 Fit       0.038451
 1247 Fit       0.038453
 1248 Fit       0.028788
 1249 Fit       0.031010
 1250 Fit       0.029142
 1251 Fit       0.030865
 1252 Fit       0.031879
 1253 Fit       0.032341
 1254 Fit       0.032209
 1255 Fit       0.031351
 1256 Fit       0.029608
 1257 Fit       0.026781
 1258 Fit       0.028788
 1259 Fit       0.031010
 1260 Fit       0.038451
 1261 Fit       0.016522
 1262 Fit       0.026644
 1263 Fit       0.019901
 1264 Fit       0.009573
 1265 Fit       0.006486
 1266 Fit       0.013623
 1267 Fit       0.023576
 1268 Fit       0.032765
 1269 Fit       0.024020
 1270 Fit       0.012757
 1271 Fit       0.001930
 1272 Fit       0.011027
 1273 Fit       0.021534
 1274 Fit       0.029239
 1275 Fit       0.017297
 1276 Fit       0.005636
 1277 Fit       0.008644
 1278 Fit       0.018847
 1279 Fit       0.019805
 1280 Fit       0.003209
 1281 Fit       0.013139
 1282 Fit       0.023595
 1283 Fit       0.019274
 1284 Fit       0.004550
 1285 Fit       0.014549
 1286 Fit       0.024977
 1287 Fit       0.018079
 1288 Fit       0.006171
 1289 Fit       0.015802
 1290 Fit       0.025658
 1291 Fit       0.001776
 1292 Fit       0.011413
 1293 Fit       0.020921
 1294 Fit       0.015871
 1295 Fit       0.007351
 1296 Fit       0.016598
 1297 Fit       0.025611
 1298 Fit       0.018746
 1299 Fit       0.000795
 1300 Fit       0.010062
 1301 Fit       0.019036
 1302 Fit       0.027722
 1303 Fit       0.015871
 1304 Fit       0.007351
 1305 Fit       0.016597
 1306 Fit       0.025610
 1307 Fit       0.001774
 1308 Fit       0.011412
 1309 Fit       0.020919
 1310 Fit       0.018077
 1311 Fit       0.006169
 1312 Fit       0.015800
 1313 Fit       0.025656
 1314 Fit       0.019271
 1315 Fit       0.004548
 1316 Fit       0.014546
 1317 Fit       0.024973
 1318 Fit       0.019801
 1319 Fit       0.003206
 1320 Fit       0.013135
 1321 Fit       0.023590
 1322 Fit       0.029233
 1323 Fit       0.017293
 1324 Fit       0.005633
 1325 Fit       0.008640
 1326 Fit       0.018842
 1327 Fit       0.032759
 1328 Fit       0.024014
 1329 Fit       0.012753
 1330 Fit       0.001926
 1331 Fit       0.011022
 1332 Fit       0.021528
 1333 Fit       0.026639
 1334 Fit       0.019896
 1335 Fit       0.009568
 1336 Fit       0.006482
 1337 Fit       0.013618
 1338 Fit       0.023570
 1339 Fit       0.016517
 1340 Fit      -0.007977
 1341 Fit      -0.001141
 1342 Fit      -0.005973
 1343 Fit      -0.011816
 1344 Fit      -0.013417
 1345 Fit      -0.009733
 1346 Fit      -0.003416
 1347 Fit       0.003202
 1348 Fit      -0.003709
 1349 Fit      -0.010251
 1350 Fit      -0.015129
 1351 Fit      -0.017783
 1352 Fit      -0.017951
 1353 Fit      -0.015688
 1354 Fit      -0.011264
 1355 Fit      -0.005005
 1356 Fit      -0.001204
 1357 Fit      -0.008163
 1358 Fit      -0.013782
 1359 Fit      -0.018032
 1360 Fit      -0.020850
 1361 Fit      -0.022135
 1362 Fit      -0.021853
 1363 Fit      -0.020084
 1364 Fit      -0.016972
 1365 Fit      -0.012588
 1366 Fit      -0.006820
 1367 Fit       0.000502
 1368 Fit       0.000059
 1369 Fit      -0.007328
 1370 Fit      -0.013269
 1371 Fit      -0.018015
 1372 Fit      -0.021666
 1373 Fit      -0.024196
 1374 Fit      -0.025533
 1375 Fit      -0.025641
 1376 Fit      -0.024565
 1377 Fit      -0.022412
 1378 Fit      -0.019305
 1379 Fit      -0.015279
 1380 Fit      -0.010185
 1381 Fit      -0.003642
 1382 Fit       0.009142
 1383 Fit      -0.000450
 1384 Fit      -0.007943
 1385 Fit      -0.013929
 1386 Fit      -0.018805
 1387 Fit      -0.022739
 1388 Fit      -0.025741
 1389 Fit      -0.027751
 1390 Fit      -0.028706
 1391 Fit      -0.028592
 1392 Fit      -0.027456
 1393 Fit      -0.025403
 1394 Fit      -0.022554
 1395 Fit      -0.018985
 1396 Fit      -0.014642
 1397 Fit      -0.009263
 1398 Fit      -0.002306
 1399 Fit       0.008014
 1400 Fit      -0.001353
 1401 Fit      -0.008596
 1402 Fit      -0.014434
 1403 Fit      -0.019282
 1404 Fit      -0.023323
 1405 Fit      -0.026593
 1406 Fit      -0.029048
 1407 Fit      -0.030622
 1408 Fit      -0.031269
 1409 Fit      -0.030987
 1410 Fit      -0.029826
 1411 Fit      -0.027877
 1412 Fit      -0.025253
 1413 Fit      -0.022042
 1414 Fit      -0.018262
 1415 Fit      -0.013789
 1416 Fit      -0.008289
 1417 Fit      -0.001146
 1418 Fit       0.002746
 1419 Fit      -0.005518
 1420 Fit      -0.012046
 1421 Fit      -0.017433
 1422 Fit      -0.021984
 1423 Fit      -0.025807
 1424 Fit      -0.028896
 1425 Fit      -0.031190
 1426 Fit      -0.032623
 1427 Fit      -0.033153
 1428 Fit      -0.032782
 1429 Fit      -0.031562
 1430 Fit      -0.029586
 1431 Fit      -0.026966
 1432 Fit      -0.023804
 1433 Fit      -0.020139
 1434 Fit      -0.015898
 1435 Fit      -0.010817
 1436 Fit      -0.004364
 1437 Fit       0.006870
 1438 Fit      -0.002218
 1439 Fit      -0.009302
 1440 Fit      -0.015092
 1441 Fit      -0.019990
 1442 Fit      -0.024183
 1443 Fit      -0.027716
 1444 Fit      -0.030557
 1445 Fit      -0.032640
 1446 Fit      -0.033904
 1447 Fit      -0.034317
 1448 Fit      -0.033883
 1449 Fit      -0.032654
 1450 Fit      -0.030716
 1451 Fit      -0.028177
 1452 Fit      -0.025134
 1453 Fit      -0.021644
 1454 Fit      -0.017673
 1455 Fit      -0.013036
 1456 Fit      -0.007329
 1457 Fit       0.008893
 1458 Fit      -0.000539
 1459 Fit      -0.007866
 1460 Fit      -0.013827
 1461 Fit      -0.018860
 1462 Fit      -0.023188
 1463 Fit      -0.026885
 1464 Fit      -0.029935
 1465 Fit      -0.032283
 1466 Fit      -0.033864
 1467 Fit      -0.034633
 1468 Fit      -0.034580
 1469 Fit      -0.033732
 1470 Fit      -0.032158
 1471 Fit      -0.029951
 1472 Fit      -0.027214
 1473 Fit      -0.024030
 1474 Fit      -0.020425
 1475 Fit      -0.016322
 1476 Fit      -0.011483
 1477 Fit      -0.005434
 1478 Fit       0.006869
 1479 Fit      -0.002218
 1480 Fit      -0.009302
 1481 Fit      -0.015092
 1482 Fit      -0.019990
 1483 Fit      -0.024183
 1484 Fit      -0.027716
 1485 Fit      -0.030557
 1486 Fit      -0.032640
 1487 Fit      -0.033905
 1488 Fit      -0.034317
 1489 Fit      -0.033883
 1490 Fit      -0.032654
 1491 Fit      -0.030717
 1492 Fit      -0.028177
 1493 Fit      -0.025134
 1494 Fit      -0.021644
 1495 Fit      -0.017673
 1496 Fit      -0.013037
 1497 Fit      -0.007329
 1498 Fit       0.002745
 1499 Fit      -0.005519
 1500 Fit      -0.012047
 1501 Fit      -0.017434
 1502 Fit      -0.021984
 1503 Fit      -0.025807
 1504 Fit      -0.028896
 1505 Fit      -0.031191
 1506 Fit      -0.032624
 1507 Fit      -0.033154
 1508 Fit      -0.032783
 1509 Fit      -0.031563
 1510 Fit      -0.029587
 1511 Fit      -0.026967
 1512 Fit      -0.023804
 1513 Fit      -0.020140
 1514 Fit      -0.015899
 1515 Fit      -0.010818
 1516 Fit      -0.004365
 1517 Fit       0.008013
 1518 Fit      -0.001354
 1519 Fit      -0.008598
 1520 Fit      -0.014435
 1521 Fit      -0.019283
 1522 Fit      -0.023324
 1523 Fit      -0.026594
 1524 Fit      -0.029049
 1525 Fit      -0.030623
 1526 Fit      -0.031270
 1527 Fit      -0.030988
 1528 Fit      -0.029827
 1529 Fit      -0.027878
 1530 Fit      -0.025253
 1531 Fit      -0.022043
 1532 Fit      -0.018263
 1533 Fit      -0.013790
 1534 Fit      -0.008290
 1535 Fit      -0.001148
 1536 Fit       0.009140
 1537 Fit      -0.000452
 1538 Fit      -0.007944
 1539 Fit      -0.013931
 1540 Fit      -0.018807
 1541 Fit      -0.022740
 1542 Fit      -0.025742
 1543 Fit      -0.027752
 1544 Fit      -0.028707
 1545 Fit      -0.028593
 1546 Fit      -0.027457
 1547 Fit      -0.025404
 1548 Fit      -0.022555
 1549 Fit      -0.018986
 1550 Fit      -0.014644
 1551 Fit      -0.009265
 1552 Fit      -0.002308
 1553 Fit       0.000056
 1554 Fit      -0.007330
 1555 Fit      -0.013270
 1556 Fit      -0.018016
 1557 Fit      -0.021668
 1558 Fit      -0.024197
 1559 Fit      -0.025534
 1560 Fit      -0.025643
 1561 Fit      -0.024566
 1562 Fit      -0.022414
 1563 Fit      -0.019306
 1564 Fit      -0.015280
 1565 Fit      -0.010187
 1566 Fit      -0.003645
 1567 Fit      -0.001207
 1568 Fit      -0.008165
 1569 Fit      -0.013784
 1570 Fit      -0.018034
 1571 Fit      -0.020851
 1572 Fit      -0.022137
 1573 Fit      -0.021854
 1574 Fit      -0.020086
 1575 Fit      -0.016974
 1576 Fit      -0.012590
 1577 Fit      -0.006822
 1578 Fit       0.000499
 1579 Fit       0.003198
 1580 Fit      -0.003712
 1581 Fit      -0.010254
 1582 Fit      -0.015131
 1583 Fit      -0.017785
 1584 Fit      -0.017953
 1585 Fit      -0.015690
 1586 Fit      -0.011267
 1587 Fit      -0.005008
 1588 Fit      -0.001144
 1589 Fit      -0.005976
 1590 Fit      -0.011818
 1591 Fit      -0.013420
 1592 Fit      -0.009736
 1593 Fit      -0.003419
 1594 Fit      -0.007980
 1595 Fit       0.031354
 1596 Fit       0.030994
 1597 Fit       0.030530
 1598 Fit       0.029834
 1599 Fit       0.028797
 1600 Fit       0.027332
 1601 Fit       0.025418
 1602 Fit       0.029235
 1603 Fit       0.029542
 1604 Fit       0.029668
 1605 Fit       0.029583
 1606 Fit       0.029234
 1607 Fit       0.028550
 1608 Fit       0.027457
 1609 Fit       0.025884
 1610 Fit       0.023810
 1611 Fit       0.021487
 1612 Fit       0.027542
 1613 Fit       0.028376
 1614 Fit       0.028883
 1615 Fit       0.029077
 1616 Fit       0.028944
 1617 Fit       0.028446
 1618 Fit       0.027537
 1619 Fit       0.026188
 1620 Fit       0.024434
 1621 Fit       0.022538
 1622 Fit       0.026277
 1623 Fit       0.027448
 1624 Fit       0.028310
 1625 Fit       0.028831
 1626 Fit       0.029000
 1627 Fit       0.028801
 1628 Fit       0.028218
 1629 Fit       0.027262
 1630 Fit       0.026026
 1631 Fit       0.024812
 1632 Fit       0.024413
 1633 Fit       0.028992
 1634 Fit       0.033643
 1635 Fit       0.026289
 1636 Fit       0.027267
 1637 Fit       0.028202
 1638 Fit       0.028863
 1639 Fit       0.029163
 1640 Fit       0.029071
 1641 Fit       0.028604
 1642 Fit       0.027869
 1643 Fit       0.027168
 1644 Fit       0.027168
 1645 Fit       0.030785
 1646 Fit       0.034093
 1647 Fit       0.038277
 1648 Fit       0.041532
 1649 Fit       0.042359
 1650 Fit       0.040293
 1651 Fit       0.036359
 1652 Fit       0.032169
 1653 Fit       0.029126
 1654 Fit       0.027828
 1655 Fit       0.027864
 1656 Fit       0.028466
 1657 Fit       0.029085
 1658 Fit       0.029454
 1659 Fit       0.029483
 1660 Fit       0.029233
 1661 Fit       0.028961
 1662 Fit       0.029216
 1663 Fit       0.031775
 1664 Fit       0.034357
 1665 Fit       0.036609
 1666 Fit       0.036561
 1667 Fit       0.034137
 1668 Fit       0.031220
 1669 Fit       0.029565
 1670 Fit       0.029330
 1671 Fit       0.029688
 1672 Fit       0.029983
 1673 Fit       0.030082
 1674 Fit       0.030411
 1675 Fit       0.032063
 1676 Fit       0.033615
 1677 Fit       0.032741
 1678 Fit       0.030893
 1679 Fit       0.030528
 1680 Fit       0.030903
 1681 Fit       0.031745
 1682 Fit       0.031746
 1683 Fit       0.032065
 1684 Fit       0.033616
 1685 Fit       0.032742
 1686 Fit       0.030894
 1687 Fit       0.030529
 1688 Fit       0.030904
 1689 Fit       0.031777
 1690 Fit       0.034359
 1691 Fit       0.036610
 1692 Fit       0.036562
 1693 Fit       0.034137
 1694 Fit       0.031220
 1695 Fit       0.029566
 1696 Fit       0.029331
 1697 Fit       0.029689
 1698 Fit       0.029984
 1699 Fit       0.030084
 1700 Fit       0.030413
 1701 Fit       0.030788
 1702 Fit       0.034095
 1703 Fit       0.038279
 1704 Fit       0.041533
 1705 Fit       0.042360
 1706 Fit       0.040293
 1707 Fit       0.036358
 1708 Fit       0.032168
 1709 Fit       0.029126
 1710 Fit       0.027828
 1711 Fit       0.027864
 1712 Fit       0.028466
 1713 Fit       0.029086
 1714 Fit       0.029455
 1715 Fit       0.029485
 1716 Fit       0.029235
 1717 Fit       0.028963
 1718 Fit       0.029219
 1719 Fit       0.028996
 1720 Fit       0.033647
 1721 Fit       0.026289
 1722 Fit       0.027267
 1723 Fit       0.028203
 1724 Fit       0.028864
 1725 Fit       0.029163
 1726 Fit       0.029072
 1727 Fit       0.028605
 1728 Fit       0.027871
 1729 Fit       0.027171
 1730 Fit       0.027171
 1731 Fit       0.026277
 1732 Fit       0.027448
 1733 Fit       0.028310
 1734 Fit       0.028831
 1735 Fit       0.029001
 1736 Fit       0.028802
 1737 Fit       0.028219
 1738 Fit       0.027263
 1739 Fit       0.026028
 1740 Fit       0.024816
 1741 Fit       0.024417
 1742 Fit       0.027542
 1743 Fit       0.028376
 1744 Fit       0.028883
 1745 Fit       0.029078
 1746 Fit       0.028945
 1747 Fit       0.028446
 1748 Fit       0.027538
 1749 Fit       0.026190
 1750 Fit       0.024437
 1751 Fit       0.022542
 1752 Fit       0.029235
 1753 Fit       0.029542
 1754 Fit       0.029668
 1755 Fit       0.029584
 1756 Fit       0.029235
 1757 Fit       0.028551
 1758 Fit       0.027458
 1759 Fit       0.025886
 1760 Fit       0.023813
 1761 Fit       0.021491
 1762 Fit       0.031354
 1763 Fit       0.030994
 1764 Fit       0.030531
 1765 Fit       0.029836
 1766 Fit       0.028799
 1767 Fit       0.027334
 1768 Fit       0.025422
 1769 Fit       0.031357
 1770 Fit       0.030997
 1771 Fit       0.030534
 1772 Fit       0.029839
 1773 Fit       0.028802
 1774 Fit       0.027338
 1775 Fit       0.025426
 1776 Fit       0.029413
 1777 Fit       0.029632
 1778 Fit       0.029658
 1779 Fit       0.029449
 1780 Fit       0.028942
 1781 Fit       0.028064
 1782 Fit       0.026739
 1783 Fit       0.024912
 1784 Fit       0.022643
 1785 Fit       0.027546
 1786 Fit       0.028379
 1787 Fit       0.028886
 1788 Fit       0.029080
 1789 Fit       0.028947
 1790 Fit       0.028449
 1791 Fit       0.027541
 1792 Fit       0.026193
 1793 Fit       0.024440
 1794 Fit       0.022544
 1795 Fit       0.026281
 1796 Fit       0.027451
 1797 Fit       0.028313
 1798 Fit       0.028833
 1799 Fit       0.029003
 1800 Fit       0.028804
 1801 Fit       0.028221
 1802 Fit       0.027266
 1803 Fit       0.026030
 1804 Fit       0.024817
 1805 Fit       0.024418
 1806 Fit       0.026292
 1807 Fit       0.027269
 1808 Fit       0.028205
 1809 Fit       0.028866
 1810 Fit       0.029165
 1811 Fit       0.029074
 1812 Fit       0.028607
 1813 Fit       0.027873
 1814 Fit       0.027172
 1815 Fit       0.027171
 1816 Fit       0.028995
 1817 Fit       0.033645
 1818 Fit       0.027830
 1819 Fit       0.027866
 1820 Fit       0.028468
 1821 Fit       0.029088
 1822 Fit       0.029456
 1823 Fit       0.029486
 1824 Fit       0.029236
 1825 Fit       0.028964
 1826 Fit       0.029219
 1827 Fit       0.030788
 1828 Fit       0.034094
 1829 Fit       0.038277
 1830 Fit       0.041532
 1831 Fit       0.042359
 1832 Fit       0.040293
 1833 Fit       0.036358
 1834 Fit       0.032169
 1835 Fit       0.029127
 1836 Fit       0.029567
 1837 Fit       0.029332
 1838 Fit       0.029690
 1839 Fit       0.029985
 1840 Fit       0.030085
 1841 Fit       0.030413
 1842 Fit       0.031777
 1843 Fit       0.034358
 1844 Fit       0.036609
 1845 Fit       0.036561
 1846 Fit       0.034137
 1847 Fit       0.031221
 1848 Fit       0.030894
 1849 Fit       0.030529
 1850 Fit       0.030905
 1851 Fit       0.032064
 1852 Fit       0.033616
 1853 Fit       0.032742
 1854 Fit       0.031746
 1855 Fit       0.031748
 1856 Fit       0.030896
 1857 Fit       0.030531
 1858 Fit       0.030906
 1859 Fit       0.032066
 1860 Fit       0.033618
 1861 Fit       0.032743
 1862 Fit       0.029568
 1863 Fit       0.029333
 1864 Fit       0.029691
 1865 Fit       0.029986
 1866 Fit       0.030086
 1867 Fit       0.030415
 1868 Fit       0.031779
 1869 Fit       0.034360
 1870 Fit       0.036611
 1871 Fit       0.036563
 1872 Fit       0.034138
 1873 Fit       0.031222
 1874 Fit       0.027831
 1875 Fit       0.027867
 1876 Fit       0.028469
 1877 Fit       0.029088
 1878 Fit       0.029457
 1879 Fit       0.029487
 1880 Fit       0.029237
 1881 Fit       0.028966
 1882 Fit       0.029221
 1883 Fit       0.030790
 1884 Fit       0.034097
 1885 Fit       0.038279
 1886 Fit       0.041534
 1887 Fit       0.042360
 1888 Fit       0.040294
 1889 Fit       0.036359
 1890 Fit       0.032170
 1891 Fit       0.029128
 1892 Fit       0.026292
 1893 Fit       0.027270
 1894 Fit       0.028206
 1895 Fit       0.028866
 1896 Fit       0.029166
 1897 Fit       0.029075
 1898 Fit       0.028608
 1899 Fit       0.027874
 1900 Fit       0.027174
 1901 Fit       0.027174
 1902 Fit       0.028999
 1903 Fit       0.033648
 1904 Fit       0.026281
 1905 Fit       0.027452
 1906 Fit       0.028313
 1907 Fit       0.028834
 1908 Fit       0.029004
 1909 Fit       0.028805
 1910 Fit       0.028223
 1911 Fit       0.027267
 1912 Fit       0.026032
 1913 Fit       0.024820
 1914 Fit       0.024421
 1915 Fit       0.027546
 1916 Fit       0.028380
 1917 Fit       0.028886
 1918 Fit       0.029081
 1919 Fit       0.028948
 1920 Fit       0.028450
 1921 Fit       0.027542
 1922 Fit       0.026194
 1923 Fit       0.024442
 1924 Fit       0.022547
 1925 Fit       0.029413
 1926 Fit       0.029632
 1927 Fit       0.029658
 1928 Fit       0.029450
 1929 Fit       0.028943
 1930 Fit       0.028065
 1931 Fit       0.026740
 1932 Fit       0.024914
 1933 Fit       0.022645
 1934 Fit       0.031358
 1935 Fit       0.030998
 1936 Fit       0.030534
 1937 Fit       0.029840
 1938 Fit       0.028803
 1939 Fit       0.027339
 1940 Fit       0.025428
 1941 Fit      -0.004193
 1942 Fit      -0.008811
 1943 Fit      -0.005723
 1944 Fit      -0.000443
 1945 Fit       0.001486
 1946 Fit      -0.002458
 1947 Fit      -0.007408
 1948 Fit      -0.012664
 1949 Fit      -0.010800
 1950 Fit      -0.007069
 1951 Fit      -0.001818
 1952 Fit       0.005123
 1953 Fit      -0.000497
 1954 Fit      -0.006031
 1955 Fit      -0.010201
 1956 Fit      -0.012475
 1957 Fit      -0.015949
 1958 Fit      -0.014537
 1959 Fit      -0.011961
 1960 Fit      -0.008249
 1961 Fit      -0.003369
 1962 Fit       0.001695
 1963 Fit      -0.004204
 1964 Fit      -0.009025
 1965 Fit      -0.012646
 1966 Fit      -0.015024
 1967 Fit      -0.016127
 1968 Fit      -0.018777
 1969 Fit      -0.017586
 1970 Fit      -0.015597
 1971 Fit      -0.012838
 1972 Fit      -0.009273
 1973 Fit      -0.004777
 1974 Fit       0.000837
 1975 Fit       0.004077
 1976 Fit      -0.002211
 1977 Fit      -0.007391
 1978 Fit      -0.011552
 1979 Fit      -0.014784
 1980 Fit      -0.017126
 1981 Fit      -0.018574
 1982 Fit      -0.019120
 1983 Fit      -0.021202
 1984 Fit      -0.020041
 1985 Fit      -0.018207
 1986 Fit      -0.015738
 1987 Fit      -0.012623
 1988 Fit      -0.008768
 1989 Fit      -0.003969
 1990 Fit       0.003989
 1991 Fit      -0.002621
 1992 Fit      -0.007938
 1993 Fit      -0.012228
 1994 Fit      -0.015662
 1995 Fit      -0.018314
 1996 Fit      -0.020201
 1997 Fit      -0.021310
 1998 Fit      -0.021638
 1999 Fit      -0.023232
 2000 Fit      -0.022149
 2001 Fit      -0.020524
 2002 Fit      -0.018400
 2003 Fit      -0.015790
 2004 Fit      -0.012658
 2005 Fit      -0.008894
 2006 Fit      -0.004288
 2007 Fit       0.008826
 2008 Fit       0.001289
 2009 Fit      -0.004690
 2010 Fit      -0.009530
 2011 Fit      -0.013509
 2012 Fit      -0.016783
 2013 Fit      -0.019424
 2014 Fit      -0.021448
 2015 Fit      -0.022847
 2016 Fit      -0.023607
 2017 Fit      -0.023730
 2018 Fit      -0.024853
 2019 Fit      -0.023770
 2020 Fit      -0.022194
 2021 Fit      -0.020169
 2022 Fit      -0.017719
 2023 Fit      -0.014831
 2024 Fit      -0.011431
 2025 Fit      -0.007360
 2026 Fit      -0.002348
 2027 Fit       0.010668
 2028 Fit       0.002592
 2029 Fit      -0.003717
 2030 Fit      -0.008802
 2031 Fit      -0.013000
 2032 Fit      -0.016507
 2033 Fit      -0.019418
 2034 Fit      -0.021767
 2035 Fit      -0.023552
 2036 Fit      -0.024759
 2037 Fit      -0.025374
 2038 Fit      -0.025399
 2039 Fit      -0.026039
 2040 Fit      -0.024945
 2041 Fit      -0.023383
 2042 Fit      -0.021397
 2043 Fit      -0.019019
 2044 Fit      -0.016247
 2045 Fit      -0.013030
 2046 Fit      -0.009236
 2047 Fit      -0.004637
 2048 Fit       0.006014
 2049 Fit      -0.001054
 2050 Fit      -0.006684
 2051 Fit      -0.011306
 2052 Fit      -0.015179
 2053 Fit      -0.018447
 2054 Fit      -0.021171
 2055 Fit      -0.023367
 2056 Fit      -0.025023
 2057 Fit      -0.026123
 2058 Fit      -0.026655
 2059 Fit      -0.026620
 2060 Fit      -0.026763
 2061 Fit      -0.025687
 2062 Fit      -0.024173
 2063 Fit      -0.022264
 2064 Fit      -0.019993
 2065 Fit      -0.017367
 2066 Fit      -0.014353
 2067 Fit      -0.010854
 2068 Fit      -0.006687
 2069 Fit      -0.001564
 2070 Fit       0.009391
 2071 Fit       0.001745
 2072 Fit      -0.004328
 2073 Fit      -0.009291
 2074 Fit      -0.013448
 2075 Fit      -0.016980
 2076 Fit      -0.019982
 2077 Fit      -0.022490
 2078 Fit      -0.024505
 2079 Fit      -0.026012
 2080 Fit      -0.026995
 2081 Fit      -0.027443
 2082 Fit      -0.027359
 2083 Fit      -0.027007
 2084 Fit      -0.025947
 2085 Fit      -0.024464
 2086 Fit      -0.022600
 2087 Fit      -0.020389
 2088 Fit      -0.017840
 2089 Fit      -0.014928
 2090 Fit      -0.011569
 2091 Fit      -0.007606
 2092 Fit      -0.002781
 2093 Fit       0.006859
 2094 Fit      -0.000142
 2095 Fit      -0.005783
 2096 Fit      -0.010447
 2097 Fit      -0.014388
 2098 Fit      -0.017756
 2099 Fit      -0.020626
 2100 Fit      -0.023023
 2101 Fit      -0.024945
 2102 Fit      -0.026377
 2103 Fit      -0.027301
 2104 Fit      -0.027709
 2105 Fit      -0.027605
 2106 Fit      -0.026763
 2107 Fit      -0.025687
 2108 Fit      -0.024173
 2109 Fit      -0.022264
 2110 Fit      -0.019993
 2111 Fit      -0.017368
 2112 Fit      -0.014354
 2113 Fit      -0.010854
 2114 Fit      -0.006688
 2115 Fit      -0.001565
 2116 Fit       0.009391
 2117 Fit       0.001744
 2118 Fit      -0.004329
 2119 Fit      -0.009292
 2120 Fit      -0.013448
 2121 Fit      -0.016981
 2122 Fit      -0.019982
 2123 Fit      -0.022490
 2124 Fit      -0.024505
 2125 Fit      -0.026012
 2126 Fit      -0.026995
 2127 Fit      -0.027443
 2128 Fit      -0.027359
 2129 Fit      -0.026039
 2130 Fit      -0.024945
 2131 Fit      -0.023383
 2132 Fit      -0.021398
 2133 Fit      -0.019019
 2134 Fit      -0.016248
 2135 Fit      -0.013030
 2136 Fit      -0.009237
 2137 Fit      -0.004637
 2138 Fit       0.006014
 2139 Fit      -0.001054
 2140 Fit      -0.006685
 2141 Fit      -0.011307
 2142 Fit      -0.015180
 2143 Fit      -0.018447
 2144 Fit      -0.021171
 2145 Fit      -0.023367
 2146 Fit      -0.025024
 2147 Fit      -0.026124
 2148 Fit      -0.026655
 2149 Fit      -0.026621
 2150 Fit      -0.024854
 2151 Fit      -0.023771
 2152 Fit      -0.022195
 2153 Fit      -0.020170
 2154 Fit      -0.017719
 2155 Fit      -0.014832
 2156 Fit      -0.011432
 2157 Fit      -0.007361
 2158 Fit      -0.002349
 2159 Fit       0.010668
 2160 Fit       0.002591
 2161 Fit      -0.003718
 2162 Fit      -0.008803
 2163 Fit      -0.013001
 2164 Fit      -0.016507
 2165 Fit      -0.019419
 2166 Fit      -0.021768
 2167 Fit      -0.023553
 2168 Fit      -0.024759
 2169 Fit      -0.025374
 2170 Fit      -0.025400
 2171 Fit      -0.023233
 2172 Fit      -0.022149
 2173 Fit      -0.020525
 2174 Fit      -0.018401
 2175 Fit      -0.015791
 2176 Fit      -0.012659
 2177 Fit      -0.008896
 2178 Fit      -0.004289
 2179 Fit       0.008824
 2180 Fit       0.001287
 2181 Fit      -0.004691
 2182 Fit      -0.009531
 2183 Fit      -0.013510
 2184 Fit      -0.016784
 2185 Fit      -0.019425
 2186 Fit      -0.021449
 2187 Fit      -0.022847
 2188 Fit      -0.023608
 2189 Fit      -0.023731
 2190 Fit      -0.021203
 2191 Fit      -0.020042
 2192 Fit      -0.018208
 2193 Fit      -0.015739
 2194 Fit      -0.012625
 2195 Fit      -0.008770
 2196 Fit      -0.003971
 2197 Fit       0.003988
 2198 Fit      -0.002622
 2199 Fit      -0.007939
 2200 Fit      -0.012229
 2201 Fit      -0.015663
 2202 Fit      -0.018316
 2203 Fit      -0.020202
 2204 Fit      -0.021311
 2205 Fit      -0.021639
 2206 Fit      -0.018779
 2207 Fit      -0.017587
 2208 Fit      -0.015599
 2209 Fit      -0.012840
 2210 Fit      -0.009275
 2211 Fit      -0.004779
 2212 Fit       0.000834
 2213 Fit       0.004074
 2214 Fit      -0.002213
 2215 Fit      -0.007393
 2216 Fit      -0.011553
 2217 Fit      -0.014786
 2218 Fit      -0.017127
 2219 Fit      -0.018575
 2220 Fit      -0.019121
 2221 Fit      -0.015950
 2222 Fit      -0.014539
 2223 Fit      -0.011962
 2224 Fit      -0.008251
 2225 Fit      -0.003372
 2226 Fit       0.001692
 2227 Fit      -0.004206
 2228 Fit      -0.009027
 2229 Fit      -0.012647
 2230 Fit      -0.015026
 2231 Fit      -0.016128
 2232 Fit      -0.012666
 2233 Fit      -0.010802
 2234 Fit      -0.007071
 2235 Fit      -0.001821
 2236 Fit       0.005120
 2237 Fit      -0.000499
 2238 Fit      -0.006033
 2239 Fit      -0.010203
 2240 Fit      -0.012477
 2241 Fit      -0.008813
 2242 Fit      -0.005725
 2243 Fit      -0.000446
 2244 Fit       0.001483
 2245 Fit      -0.002461
 2246 Fit      -0.007411
 2247 Fit      -0.004196
 2248 Fit       0.014689
 2249 Fit       0.007042
 2250 Fit       0.012361
 2251 Fit       0.019970
 2252 Fit       0.022460
 2253 Fit       0.017396
 2254 Fit       0.009507
 2255 Fit       0.003443
 2256 Fit       0.010278
 2257 Fit       0.018271
 2258 Fit       0.027317
 2259 Fit       0.020678
 2260 Fit       0.012096
 2261 Fit       0.008366
 2262 Fit       0.016164
 2263 Fit       0.024810
 2264 Fit       0.015733
 2265 Fit       0.006604
 2266 Fit       0.014051
 2267 Fit       0.020065
 2268 Fit       0.010369
 2269 Fit       0.007486
 2270 Fit       0.015108
 2271 Fit       0.007175
 2272 Fit       0.014381
 2273 Fit       0.002485
 2274 Fit       0.009548
 2275 Fit       0.016641
 2276 Fit       0.006345
 2277 Fit       0.013312
 2278 Fit       0.020244
 2279 Fit       0.003437
 2280 Fit       0.010257
 2281 Fit       0.016927
 2282 Fit       0.016865
 2283 Fit       0.002094
 2284 Fit       0.008834
 2285 Fit       0.015399
 2286 Fit       0.021799
 2287 Fit       0.013810
 2288 Fit       0.003437
 2289 Fit       0.010256
 2290 Fit       0.016926
 2291 Fit       0.016865
 2292 Fit       0.006344
 2293 Fit       0.013311
 2294 Fit       0.020244
 2295 Fit       0.002483
 2296 Fit       0.009546
 2297 Fit       0.016639
 2298 Fit       0.007173
 2299 Fit       0.014379
 2300 Fit       0.007484
 2301 Fit       0.015106
 2302 Fit       0.006601
 2303 Fit       0.014048
 2304 Fit       0.020061
 2305 Fit       0.010366
 2306 Fit       0.008363
 2307 Fit       0.016161
 2308 Fit       0.024806
 2309 Fit       0.015730
 2310 Fit       0.003439
 2311 Fit       0.010275
 2312 Fit       0.018266
 2313 Fit       0.027312
 2314 Fit       0.020674
 2315 Fit       0.012092
 2316 Fit       0.007039
 2317 Fit       0.012357
 2318 Fit       0.019965
 2319 Fit       0.022455
 2320 Fit       0.017392
 2321 Fit       0.009503
 2322 Fit       0.014685
 2323 Fit       0.031461
 2324 Fit       0.023249
 2325 Fit       0.024063
 2326 Fit       0.025825
 2327 Fit       0.018064
 2328 Fit       0.023364
 2329 Fit       0.025179
 2330 Fit       0.026294
 2331 Fit       0.026839
 2332 Fit       0.026827
 2333 Fit       0.026193
 2334 Fit       0.024817
 2335 Fit       0.022511
 2336 Fit       0.018959
 2337 Fit       0.024063
 2338 Fit       0.025825
 2339 Fit       0.018063
 2340 Fit       0.023249
 2341 Fit       0.031459
 2342 Fit       0.031462
 2343 Fit       0.023245
 2344 Fit       0.024059
 2345 Fit       0.025822
 2346 Fit       0.018056
 2347 Fit       0.022103
 2348 Fit       0.024370
 2349 Fit       0.025809
 2350 Fit       0.026631
 2351 Fit       0.026902
 2352 Fit       0.026590
 2353 Fit       0.025603
 2354 Fit       0.023790
 2355 Fit       0.020912
 2356 Fit       0.024059
 2357 Fit       0.025822
 2358 Fit       0.018056
 2359 Fit       0.023245
 2360 Fit       0.031459
 2361 Fit       0.014688
 2362 Fit       0.022459
 2363 Fit       0.017396
 2364 Fit       0.009507
 2365 Fit       0.007041
 2366 Fit       0.012359
 2367 Fit       0.019968
 2368 Fit       0.027317
 2369 Fit       0.020679
 2370 Fit       0.012097
 2371 Fit       0.003440
 2372 Fit       0.010275
 2373 Fit       0.018268
 2374 Fit       0.024812
 2375 Fit       0.015735
 2376 Fit       0.008362
 2377 Fit       0.016161
 2378 Fit       0.020068
 2379 Fit       0.010372
 2380 Fit       0.006598
 2381 Fit       0.014047
 2382 Fit       0.007480
 2383 Fit       0.015103
 2384 Fit       0.003613
 2385 Fit       0.010751
 2386 Fit       0.018073
 2387 Fit       0.002477
 2388 Fit       0.009541
 2389 Fit       0.016634
 2390 Fit       0.006338
 2391 Fit       0.013305
 2392 Fit       0.020238
 2393 Fit       0.016872
 2394 Fit       0.003429
 2395 Fit       0.010249
 2396 Fit       0.016920
 2397 Fit       0.005478
 2398 Fit       0.012130
 2399 Fit       0.018612
 2400 Fit       0.016872
 2401 Fit       0.003429
 2402 Fit       0.010249
 2403 Fit       0.016919
 2404 Fit       0.006337
 2405 Fit       0.013304
 2406 Fit       0.020237
 2407 Fit       0.002476
 2408 Fit       0.009539
 2409 Fit       0.016632
 2410 Fit       0.003611
 2411 Fit       0.010749
 2412 Fit       0.018070
 2413 Fit       0.007478
 2414 Fit       0.015100
 2415 Fit       0.020064
 2416 Fit       0.010369
 2417 Fit       0.006595
 2418 Fit       0.014043
 2419 Fit       0.024807
 2420 Fit       0.015731
 2421 Fit       0.008359
 2422 Fit       0.016156
 2423 Fit       0.027312
 2424 Fit       0.020674
 2425 Fit       0.012093
 2426 Fit       0.003436
 2427 Fit       0.010271
 2428 Fit       0.018263
 2429 Fit       0.022454
 2430 Fit       0.017391
 2431 Fit       0.009503
 2432 Fit       0.007037
 2433 Fit       0.012355
 2434 Fit       0.019963
 2435 Fit       0.014683
 2436 Fit      -0.004195
 2437 Fit       0.001485
 2438 Fit      -0.002459
 2439 Fit      -0.007409
 2440 Fit      -0.008812
 2441 Fit      -0.005725
 2442 Fit      -0.000445
 2443 Fit       0.005123
 2444 Fit      -0.000497
 2445 Fit      -0.006031
 2446 Fit      -0.010201
 2447 Fit      -0.012476
 2448 Fit      -0.012666
 2449 Fit      -0.010802
 2450 Fit      -0.007071
 2451 Fit      -0.001821
 2452 Fit       0.001695
 2453 Fit      -0.004203
 2454 Fit      -0.009025
 2455 Fit      -0.012646
 2456 Fit      -0.015025
 2457 Fit      -0.016128
 2458 Fit      -0.015950
 2459 Fit      -0.014539
 2460 Fit      -0.011963
 2461 Fit      -0.008252
 2462 Fit      -0.003373
 2463 Fit       0.004078
 2464 Fit      -0.002210
 2465 Fit      -0.007390
 2466 Fit      -0.011551
 2467 Fit      -0.014784
 2468 Fit      -0.017126
 2469 Fit      -0.018574
 2470 Fit      -0.019121
 2471 Fit      -0.018779
 2472 Fit      -0.017588
 2473 Fit      -0.015600
 2474 Fit      -0.012841
 2475 Fit      -0.009277
 2476 Fit      -0.004781
 2477 Fit       0.000832
 2478 Fit       0.003992
 2479 Fit      -0.002619
 2480 Fit      -0.007936
 2481 Fit      -0.012227
 2482 Fit      -0.015661
 2483 Fit      -0.018314
 2484 Fit      -0.020201
 2485 Fit      -0.021311
 2486 Fit      -0.021640
 2487 Fit      -0.021204
 2488 Fit      -0.020043
 2489 Fit      -0.018210
 2490 Fit      -0.015741
 2491 Fit      -0.012627
 2492 Fit      -0.008772
 2493 Fit      -0.003974
 2494 Fit       0.004834
 2495 Fit      -0.001863
 2496 Fit      -0.007230
 2497 Fit      -0.011613
 2498 Fit      -0.015227
 2499 Fit      -0.018180
 2500 Fit      -0.020513
 2501 Fit      -0.022226
 2502 Fit      -0.023308
 2503 Fit      -0.023749
 2504 Fit      -0.023558
 2505 Fit      -0.022763
 2506 Fit      -0.021404
 2507 Fit      -0.019526
 2508 Fit      -0.017159
 2509 Fit      -0.014298
 2510 Fit      -0.010870
 2511 Fit      -0.006719
 2512 Fit      -0.001577
 2513 Fit       0.010673
 2514 Fit       0.002596
 2515 Fit      -0.003715
 2516 Fit      -0.008800
 2517 Fit      -0.012998
 2518 Fit      -0.016505
 2519 Fit      -0.019417
 2520 Fit      -0.021767
 2521 Fit      -0.023552
 2522 Fit      -0.024759
 2523 Fit      -0.025375
 2524 Fit      -0.025401
 2525 Fit      -0.024855
 2526 Fit      -0.023772
 2527 Fit      -0.022197
 2528 Fit      -0.020172
 2529 Fit      -0.017722
 2530 Fit      -0.014835
 2531 Fit      -0.011436
 2532 Fit      -0.007365
 2533 Fit      -0.002354
 2534 Fit       0.006019
 2535 Fit      -0.001050
 2536 Fit      -0.006682
 2537 Fit      -0.011304
 2538 Fit      -0.015177
 2539 Fit      -0.018445
 2540 Fit      -0.021170
 2541 Fit      -0.023366
 2542 Fit      -0.025023
 2543 Fit      -0.026123
 2544 Fit      -0.026656
 2545 Fit      -0.026622
 2546 Fit      -0.026041
 2547 Fit      -0.024947
 2548 Fit      -0.023386
 2549 Fit      -0.021400
 2550 Fit      -0.019022
 2551 Fit      -0.016251
 2552 Fit      -0.013034
 2553 Fit      -0.009241
 2554 Fit      -0.004642
 2555 Fit       0.009397
 2556 Fit       0.001749
 2557 Fit      -0.004325
 2558 Fit      -0.009289
 2559 Fit      -0.013446
 2560 Fit      -0.016979
 2561 Fit      -0.019981
 2562 Fit      -0.022489
 2563 Fit      -0.024504
 2564 Fit      -0.026012
 2565 Fit      -0.026995
 2566 Fit      -0.027444
 2567 Fit      -0.027361
 2568 Fit      -0.026765
 2569 Fit      -0.025690
 2570 Fit      -0.024176
 2571 Fit      -0.022267
 2572 Fit      -0.019996
 2573 Fit      -0.017371
 2574 Fit      -0.014358
 2575 Fit      -0.010859
 2576 Fit      -0.006693
 2577 Fit      -0.001571
 2578 Fit       0.011038
 2579 Fit       0.003163
 2580 Fit      -0.003102
 2581 Fit      -0.008215
 2582 Fit      -0.012494
 2583 Fit      -0.016136
 2584 Fit      -0.019249
 2585 Fit      -0.021882
 2586 Fit      -0.024043
 2587 Fit      -0.025723
 2588 Fit      -0.026903
 2589 Fit      -0.027570
 2590 Fit      -0.027721
 2591 Fit      -0.027368
 2592 Fit      -0.026534
 2593 Fit      -0.025258
 2594 Fit      -0.023580
 2595 Fit      -0.021540
 2596 Fit      -0.019161
 2597 Fit      -0.016437
 2598 Fit      -0.013317
 2599 Fit      -0.009682
 2600 Fit      -0.005327
 2601 Fit       0.000059
 2602 Fit       0.009396
 2603 Fit       0.001748
 2604 Fit      -0.004325
 2605 Fit      -0.009289
 2606 Fit      -0.013446
 2607 Fit      -0.016979
 2608 Fit      -0.019981
 2609 Fit      -0.022489
 2610 Fit      -0.024504
 2611 Fit      -0.026012
 2612 Fit      -0.026995
 2613 Fit      -0.027444
 2614 Fit      -0.027361
 2615 Fit      -0.026765
 2616 Fit      -0.025690
 2617 Fit      -0.024176
 2618 Fit      -0.022268
 2619 Fit      -0.019997
 2620 Fit      -0.017371
 2621 Fit      -0.014358
 2622 Fit      -0.010859
 2623 Fit      -0.006693
 2624 Fit      -0.001571
 2625 Fit       0.006018
 2626 Fit      -0.001051
 2627 Fit      -0.006682
 2628 Fit      -0.011304
 2629 Fit      -0.015178
 2630 Fit      -0.018446
 2631 Fit      -0.021170
 2632 Fit      -0.023366
 2633 Fit      -0.025023
 2634 Fit      -0.026124
 2635 Fit      -0.026656
 2636 Fit      -0.026622
 2637 Fit      -0.026041
 2638 Fit      -0.024948
 2639 Fit      -0.023386
 2640 Fit      -0.021401
 2641 Fit      -0.019023
 2642 Fit      -0.016252
 2643 Fit      -0.013034
 2644 Fit      -0.009242
 2645 Fit      -0.004643
 2646 Fit       0.010672
 2647 Fit       0.002594
 2648 Fit      -0.003716
 2649 Fit      -0.008800
 2650 Fit      -0.012999
 2651 Fit      -0.016506
 2652 Fit      -0.019418
 2653 Fit      -0.021767
 2654 Fit      -0.023553
 2655 Fit      -0.024759
 2656 Fit      -0.025375
 2657 Fit      -0.025401
 2658 Fit      -0.024856
 2659 Fit      -0.023773
 2660 Fit      -0.022198
 2661 Fit      -0.020173
 2662 Fit      -0.017723
 2663 Fit      -0.014835
 2664 Fit      -0.011436
 2665 Fit      -0.007366
 2666 Fit      -0.002355
 2667 Fit       0.004832
 2668 Fit      -0.001865
 2669 Fit      -0.007231
 2670 Fit      -0.011614
 2671 Fit      -0.015228
 2672 Fit      -0.018181
 2673 Fit      -0.020514
 2674 Fit      -0.022227
 2675 Fit      -0.023308
 2676 Fit      -0.023750
 2677 Fit      -0.023559
 2678 Fit      -0.022764
 2679 Fit      -0.021405
 2680 Fit      -0.019527
 2681 Fit      -0.017160
 2682 Fit      -0.014299
 2683 Fit      -0.010871
 2684 Fit      -0.006720
 2685 Fit      -0.001579
 2686 Fit       0.003990
 2687 Fit      -0.002620
 2688 Fit      -0.007938
 2689 Fit      -0.012228
 2690 Fit      -0.015662
 2691 Fit      -0.018315
 2692 Fit      -0.020202
 2693 Fit      -0.021312
 2694 Fit      -0.021641
 2695 Fit      -0.021205
 2696 Fit      -0.020044
 2697 Fit      -0.018211
 2698 Fit      -0.015742
 2699 Fit      -0.012628
 2700 Fit      -0.008774
 2701 Fit      -0.003976
 2702 Fit       0.004076
 2703 Fit      -0.002212
 2704 Fit      -0.007392
 2705 Fit      -0.011553
 2706 Fit      -0.014786
 2707 Fit      -0.017127
 2708 Fit      -0.018576
 2709 Fit      -0.019122
 2710 Fit      -0.018780
 2711 Fit      -0.017590
 2712 Fit      -0.015601
 2713 Fit      -0.012843
 2714 Fit      -0.009278
 2715 Fit      -0.004783
 2716 Fit       0.000829
 2717 Fit       0.001693
 2718 Fit      -0.004206
 2719 Fit      -0.009027
 2720 Fit      -0.012648
 2721 Fit      -0.015027
 2722 Fit      -0.016129
 2723 Fit      -0.015952
 2724 Fit      -0.014541
 2725 Fit      -0.011965
 2726 Fit      -0.008254
 2727 Fit      -0.003376
 2728 Fit       0.005119
 2729 Fit      -0.000500
 2730 Fit      -0.006034
 2731 Fit      -0.010203
 2732 Fit      -0.012478
 2733 Fit      -0.012667
 2734 Fit      -0.010804
 2735 Fit      -0.007074
 2736 Fit      -0.001824
 2737 Fit       0.001482
 2738 Fit      -0.002462
 2739 Fit      -0.007412
 2740 Fit      -0.008814
 2741 Fit      -0.005727
 2742 Fit      -0.000448
 2743 Fit      -0.004197
 2744 Fit       0.026412
 2745 Fit       0.026076
 2746 Fit       0.025431
 2747 Fit       0.024396
 2748 Fit       0.022854
 2749 Fit       0.020637
 2750 Fit       0.024221
 2751 Fit       0.024880
 2752 Fit       0.025179
 2753 Fit       0.025173
 2754 Fit       0.024862
 2755 Fit       0.024211
 2756 Fit       0.023151
 2757 Fit       0.021585
 2758 Fit       0.019373
 2759 Fit       0.016355
 2760 Fit       0.022867
 2761 Fit       0.023845
 2762 Fit       0.024391
 2763 Fit       0.024582
 2764 Fit       0.024440
 2765 Fit       0.023949
 2766 Fit       0.023067
 2767 Fit       0.021732
 2768 Fit       0.019868
 2769 Fit       0.017422
 2770 Fit       0.021535
 2771 Fit       0.022875
 2772 Fit       0.023743
 2773 Fit       0.024215
 2774 Fit       0.024330
 2775 Fit       0.024096
 2776 Fit       0.023499
 2777 Fit       0.022514
 2778 Fit       0.021128
 2779 Fit       0.019383
 2780 Fit       0.017498
 2781 Fit       0.021706
 2782 Fit       0.022912
 2783 Fit       0.023743
 2784 Fit       0.024207
 2785 Fit       0.024316
 2786 Fit       0.024076
 2787 Fit       0.023491
 2788 Fit       0.022589
 2789 Fit       0.021465
 2790 Fit       0.020381
 2791 Fit       0.019915
 2792 Fit       0.024016
 2793 Fit       0.021063
 2794 Fit       0.021938
 2795 Fit       0.022938
 2796 Fit       0.023758
 2797 Fit       0.024281
 2798 Fit       0.024468
 2799 Fit       0.024320
 2800 Fit       0.023875
 2801 Fit       0.023245
 2802 Fit       0.022688
 2803 Fit       0.022701
 2804 Fit       0.025817
 2805 Fit       0.028433
 2806 Fit       0.031781
 2807 Fit       0.034456
 2808 Fit       0.035144
 2809 Fit       0.033423
 2810 Fit       0.030112
 2811 Fit       0.026618
 2812 Fit       0.024142
 2813 Fit       0.023137
 2814 Fit       0.023238
 2815 Fit       0.023805
 2816 Fit       0.024369
 2817 Fit       0.024701
 2818 Fit       0.024734
 2819 Fit       0.024531
 2820 Fit       0.024320
 2821 Fit       0.024549
 2822 Fit       0.026773
 2823 Fit       0.028918
 2824 Fit       0.030797
 2825 Fit       0.030767
 2826 Fit       0.028728
 2827 Fit       0.026265
 2828 Fit       0.024859
 2829 Fit       0.024646
 2830 Fit       0.024939
 2831 Fit       0.025187
 2832 Fit       0.025289
 2833 Fit       0.025604
 2834 Fit       0.027070
 2835 Fit       0.028412
 2836 Fit       0.027680
 2837 Fit       0.026078
 2838 Fit       0.025722
 2839 Fit       0.026043
 2840 Fit       0.026819
 2841 Fit       0.026820
 2842 Fit       0.027071
 2843 Fit       0.028413
 2844 Fit       0.027681
 2845 Fit       0.026078
 2846 Fit       0.025723
 2847 Fit       0.026044
 2848 Fit       0.026775
 2849 Fit       0.028919
 2850 Fit       0.030798
 2851 Fit       0.030767
 2852 Fit       0.028729
 2853 Fit       0.026266
 2854 Fit       0.024860
 2855 Fit       0.024647
 2856 Fit       0.024940
 2857 Fit       0.025188
 2858 Fit       0.025290
 2859 Fit       0.025606
 2860 Fit       0.025820
 2861 Fit       0.028435
 2862 Fit       0.031783
 2863 Fit       0.034457
 2864 Fit       0.035144
 2865 Fit       0.033423
 2866 Fit       0.030112
 2867 Fit       0.026618
 2868 Fit       0.024143
 2869 Fit       0.023138
 2870 Fit       0.023238
 2871 Fit       0.023805
 2872 Fit       0.024370
 2873 Fit       0.024702
 2874 Fit       0.024735
 2875 Fit       0.024532
 2876 Fit       0.024322
 2877 Fit       0.024551
 2878 Fit       0.024020
 2879 Fit       0.021063
 2880 Fit       0.021938
 2881 Fit       0.022938
 2882 Fit       0.023759
 2883 Fit       0.024282
 2884 Fit       0.024469
 2885 Fit       0.024321
 2886 Fit       0.023876
 2887 Fit       0.023247
 2888 Fit       0.022691
 2889 Fit       0.022704
 2890 Fit       0.021706
 2891 Fit       0.022912
 2892 Fit       0.023743
 2893 Fit       0.024207
 2894 Fit       0.024317
 2895 Fit       0.024077
 2896 Fit       0.023492
 2897 Fit       0.022590
 2898 Fit       0.021468
 2899 Fit       0.020384
 2900 Fit       0.019919
 2901 Fit       0.021534
 2902 Fit       0.022875
 2903 Fit       0.023743
 2904 Fit       0.024215
 2905 Fit       0.024331
 2906 Fit       0.024097
 2907 Fit       0.023500
 2908 Fit       0.022515
 2909 Fit       0.021130
 2910 Fit       0.019386
 2911 Fit       0.017502
 2912 Fit       0.022866
 2913 Fit       0.023845
 2914 Fit       0.024391
 2915 Fit       0.024583
 2916 Fit       0.024440
 2917 Fit       0.023950
 2918 Fit       0.023069
 2919 Fit       0.021734
 2920 Fit       0.019871
 2921 Fit       0.017425
 2922 Fit       0.024221
 2923 Fit       0.024881
 2924 Fit       0.025179
 2925 Fit       0.025174
 2926 Fit       0.024863
 2927 Fit       0.024212
 2928 Fit       0.023153
 2929 Fit       0.021586
 2930 Fit       0.019375
 2931 Fit       0.016358
 2932 Fit       0.026413
 2933 Fit       0.026077
 2934 Fit       0.025433
 2935 Fit       0.024398
 2936 Fit       0.022856
 2937 Fit       0.020639
 2938 Fit       0.026415
 2939 Fit       0.026080
 2940 Fit       0.025435
 2941 Fit       0.024401
 2942 Fit       0.022859
 2943 Fit       0.020643
 2944 Fit       0.024606
 2945 Fit       0.025073
 2946 Fit       0.025216
 2947 Fit       0.025061
 2948 Fit       0.024586
 2949 Fit       0.023741
 2950 Fit       0.022444
 2951 Fit       0.020575
 2952 Fit       0.017980
 2953 Fit       0.022870
 2954 Fit       0.023848
 2955 Fit       0.024394
 2956 Fit       0.024585
 2957 Fit       0.024443
 2958 Fit       0.023952
 2959 Fit       0.023071
 2960 Fit       0.021737
 2961 Fit       0.019874
 2962 Fit       0.017428
 2963 Fit       0.021538
 2964 Fit       0.022878
 2965 Fit       0.023746
 2966 Fit       0.024218
 2967 Fit       0.024333
 2968 Fit       0.024099
 2969 Fit       0.023502
 2970 Fit       0.022518
 2971 Fit       0.021132
 2972 Fit       0.019388
 2973 Fit       0.017504
 2974 Fit       0.020975
 2975 Fit       0.022358
 2976 Fit       0.023377
 2977 Fit       0.024022
 2978 Fit       0.024308
 2979 Fit       0.024243
 2980 Fit       0.023829
 2981 Fit       0.023079
 2982 Fit       0.022047
 2983 Fit       0.020896
 2984 Fit       0.020021
 2985 Fit       0.021458
 2986 Fit       0.022450
 2987 Fit       0.023383
 2988 Fit       0.024063
 2989 Fit       0.024420
 2990 Fit       0.024437
 2991 Fit       0.024133
 2992 Fit       0.023574
 2993 Fit       0.022936
 2994 Fit       0.022585
 2995 Fit       0.023150
 2996 Fit       0.025377
 2997 Fit       0.023139
 2998 Fit       0.023240
 2999 Fit       0.023807
 3000 Fit       0.024371
 3001 Fit       0.024703
 3002 Fit       0.024736
 3003 Fit       0.024533
 3004 Fit       0.024323
 3005 Fit       0.024551
 3006 Fit       0.025819
 3007 Fit       0.028434
 3008 Fit       0.031781
 3009 Fit       0.034455
 3010 Fit       0.035143
 3011 Fit       0.033422
 3012 Fit       0.030112
 3013 Fit       0.026618
 3014 Fit       0.024143
 3015 Fit       0.024860
 3016 Fit       0.024648
 3017 Fit       0.024941
 3018 Fit       0.025189
 3019 Fit       0.025291
 3020 Fit       0.025606
 3021 Fit       0.026774
 3022 Fit       0.028918
 3023 Fit       0.030797
 3024 Fit       0.030767
 3025 Fit       0.028729
 3026 Fit       0.026266
 3027 Fit       0.026079
 3028 Fit       0.025723
 3029 Fit       0.026044
 3030 Fit       0.027071
 3031 Fit       0.028413
 3032 Fit       0.027681
 3033 Fit       0.026820
 3034 Fit       0.026822
 3035 Fit       0.026080
 3036 Fit       0.025725
 3037 Fit       0.026046
 3038 Fit       0.027073
 3039 Fit       0.028414
 3040 Fit       0.027682
 3041 Fit       0.024862
 3042 Fit       0.024649
 3043 Fit       0.024942
 3044 Fit       0.025190
 3045 Fit       0.025292
 3046 Fit       0.025608
 3047 Fit       0.026776
 3048 Fit       0.028920
 3049 Fit       0.030799
 3050 Fit       0.030768
 3051 Fit       0.028730
 3052 Fit       0.026267
 3053 Fit       0.023140
 3054 Fit       0.023241
 3055 Fit       0.023808
 3056 Fit       0.024372
 3057 Fit       0.024704
 3058 Fit       0.024737
 3059 Fit       0.024535
 3060 Fit       0.024324
 3061 Fit       0.024553
 3062 Fit       0.025822
 3063 Fit       0.028437
 3064 Fit       0.031784
 3065 Fit       0.034457
 3066 Fit       0.035145
 3067 Fit       0.033423
 3068 Fit       0.030113
 3069 Fit       0.026619
 3070 Fit       0.024145
 3071 Fit       0.021459
 3072 Fit       0.022451
 3073 Fit       0.023384
 3074 Fit       0.024064
 3075 Fit       0.024421
 3076 Fit       0.024438
 3077 Fit       0.024134
 3078 Fit       0.023576
 3079 Fit       0.022938
 3080 Fit       0.022587
 3081 Fit       0.023153
 3082 Fit       0.025381
 3083 Fit       0.020976
 3084 Fit       0.022359
 3085 Fit       0.023377
 3086 Fit       0.024023
 3087 Fit       0.024309
 3088 Fit       0.024243
 3089 Fit       0.023830
 3090 Fit       0.023081
 3091 Fit       0.022049
 3092 Fit       0.020898
 3093 Fit       0.020024
 3094 Fit       0.021539
 3095 Fit       0.022879
 3096 Fit       0.023746
 3097 Fit       0.024218
 3098 Fit       0.024334
 3099 Fit       0.024100
 3100 Fit       0.023503
 3101 Fit       0.022519
 3102 Fit       0.021134
 3103 Fit       0.019390
 3104 Fit       0.017507
 3105 Fit       0.022870
 3106 Fit       0.023848
 3107 Fit       0.024394
 3108 Fit       0.024586
 3109 Fit       0.024444
 3110 Fit       0.023953
 3111 Fit       0.023072
 3112 Fit       0.021738
 3113 Fit       0.019875
 3114 Fit       0.017430
 3115 Fit       0.024606
 3116 Fit       0.025073
 3117 Fit       0.025217
 3118 Fit       0.025061
 3119 Fit       0.024587
 3120 Fit       0.023742
 3121 Fit       0.022445
 3122 Fit       0.020576
 3123 Fit       0.017982
 3124 Fit       0.026416
 3125 Fit       0.026080
 3126 Fit       0.025436
 3127 Fit       0.024402
 3128 Fit       0.022860
 3129 Fit       0.020645
 3130 Fit      -0.001655
 3131 Fit      -0.005405
 3132 Fit      -0.002922
 3133 Fit       0.001283
 3134 Fit       0.002834
 3135 Fit      -0.000233
 3136 Fit      -0.004230
 3137 Fit      -0.008583
 3138 Fit      -0.007084
 3139 Fit      -0.004053
 3140 Fit       0.000151
 3141 Fit       0.005703
 3142 Fit       0.001363
 3143 Fit      -0.003080
 3144 Fit      -0.006502
 3145 Fit      -0.008394
 3146 Fit      -0.011314
 3147 Fit      -0.010193
 3148 Fit      -0.008098
 3149 Fit      -0.005060
 3150 Fit      -0.001114
 3151 Fit       0.003588
 3152 Fit       0.003144
 3153 Fit      -0.001570
 3154 Fit      -0.005520
 3155 Fit      -0.008514
 3156 Fit      -0.010489
 3157 Fit      -0.011422
 3158 Fit      -0.013678
 3159 Fit      -0.012694
 3160 Fit      -0.010983
 3161 Fit      -0.008551
 3162 Fit      -0.005369
 3163 Fit      -0.001370
 3164 Fit       0.006998
 3165 Fit       0.001540
 3166 Fit      -0.003131
 3167 Fit      -0.006930
 3168 Fit      -0.009883
 3169 Fit      -0.012022
 3170 Fit      -0.013362
 3171 Fit      -0.013909
 3172 Fit      -0.015727
 3173 Fit      -0.014877
 3174 Fit      -0.013502
 3175 Fit      -0.011611
 3176 Fit      -0.009193
 3177 Fit      -0.006195
 3178 Fit      -0.002524
 3179 Fit       0.001944
 3180 Fit       0.009249
 3181 Fit       0.003416
 3182 Fit      -0.001494
 3183 Fit      -0.005546
 3184 Fit      -0.008847
 3185 Fit      -0.011484
 3186 Fit      -0.013504
 3187 Fit      -0.014930
 3188 Fit      -0.015770
 3189 Fit      -0.016032
 3190 Fit      -0.017488
 3191 Fit      -0.016666
 3192 Fit      -0.015394
 3193 Fit      -0.013688
 3194 Fit      -0.011543
 3195 Fit      -0.008924
 3196 Fit      -0.005756
 3197 Fit      -0.001910
 3198 Fit       0.009330
 3199 Fit       0.003167
 3200 Fit      -0.001853
 3201 Fit      -0.005955
 3202 Fit      -0.009318
 3203 Fit      -0.012060
 3204 Fit      -0.014248
 3205 Fit      -0.015910
 3206 Fit      -0.017060
 3207 Fit      -0.017701
 3208 Fit      -0.017839
 3209 Fit      -0.018969
 3210 Fit      -0.018177
 3211 Fit      -0.016996
 3212 Fit      -0.015445
 3213 Fit      -0.013527
 3214 Fit      -0.011225
 3215 Fit      -0.008488
 3216 Fit      -0.005223
 3217 Fit      -0.001285
 3218 Fit       0.008899
 3219 Fit       0.002721
 3220 Fit      -0.002241
 3221 Fit      -0.006297
 3222 Fit      -0.009652
 3223 Fit      -0.012434
 3224 Fit      -0.014717
 3225 Fit      -0.016537
 3226 Fit      -0.017907
 3227 Fit      -0.018832
 3228 Fit      -0.019312
 3229 Fit      -0.019354
 3230 Fit      -0.020170
 3231 Fit      -0.019386
 3232 Fit      -0.018250
 3233 Fit      -0.016778
 3234 Fit      -0.014980
 3235 Fit      -0.012848
 3236 Fit      -0.010348
 3237 Fit      -0.007408
 3238 Fit      -0.003910
 3239 Fit       0.000317
 3240 Fit       0.010312
 3241 Fit       0.003775
 3242 Fit      -0.001422
 3243 Fit      -0.005657
 3244 Fit      -0.009172
 3245 Fit      -0.012117
 3246 Fit      -0.014580
 3247 Fit      -0.016607
 3248 Fit      -0.018220
 3249 Fit      -0.019422
 3250 Fit      -0.020215
 3251 Fit      -0.020599
 3252 Fit      -0.020580
 3253 Fit      -0.021083
 3254 Fit      -0.020318
 3255 Fit      -0.019233
 3256 Fit      -0.017846
 3257 Fit      -0.016168
 3258 Fit      -0.014199
 3259 Fit      -0.011917
 3260 Fit      -0.009271
 3261 Fit      -0.006175
 3262 Fit      -0.002495
 3263 Fit       0.011313
 3264 Fit       0.004676
 3265 Fit      -0.000613
 3266 Fit      -0.004938
 3267 Fit      -0.008544
 3268 Fit      -0.011590
 3269 Fit      -0.014173
 3270 Fit      -0.016347
 3271 Fit      -0.018139
 3272 Fit      -0.019558
 3273 Fit      -0.020605
 3274 Fit      -0.021277
 3275 Fit      -0.021576
 3276 Fit      -0.021507
 3277 Fit      -0.021698
 3278 Fit      -0.020943
 3279 Fit      -0.019886
 3280 Fit      -0.018545
 3281 Fit      -0.016934
 3282 Fit      -0.015054
 3283 Fit      -0.012891
 3284 Fit      -0.010406
 3285 Fit      -0.007527
 3286 Fit      -0.004144
 3287 Fit      -0.000098
 3288 Fit       0.007271
 3289 Fit       0.001559
 3290 Fit      -0.003101
 3291 Fit      -0.006978
 3292 Fit      -0.010256
 3293 Fit      -0.013052
 3294 Fit      -0.015438
 3295 Fit      -0.017452
 3296 Fit      -0.019112
 3297 Fit      -0.020421
 3298 Fit      -0.021377
 3299 Fit      -0.021980
 3300 Fit      -0.022230
 3301 Fit      -0.022132
 3302 Fit      -0.022008
 3303 Fit      -0.021237
 3304 Fit      -0.020159
 3305 Fit      -0.018795
 3306 Fit      -0.017157
 3307 Fit      -0.015250
 3308 Fit      -0.013057
 3309 Fit      -0.010540
 3310 Fit      -0.007625
 3311 Fit      -0.004194
 3312 Fit      -0.000084
 3313 Fit       0.007378
 3314 Fit       0.001584
 3315 Fit      -0.003145
 3316 Fit      -0.007080
 3317 Fit      -0.010405
 3318 Fit      -0.013242
 3319 Fit      -0.015663
 3320 Fit      -0.017708
 3321 Fit      -0.019393
 3322 Fit      -0.020722
 3323 Fit      -0.021693
 3324 Fit      -0.022304
 3325 Fit      -0.022556
 3326 Fit      -0.022453
 3327 Fit      -0.022008
 3328 Fit      -0.021237
 3329 Fit      -0.020160
 3330 Fit      -0.018795
 3331 Fit      -0.017157
 3332 Fit      -0.015250
 3333 Fit      -0.013057
 3334 Fit      -0.010540
 3335 Fit      -0.007625
 3336 Fit      -0.004194
 3337 Fit      -0.000084
 3338 Fit       0.007378
 3339 Fit       0.001584
 3340 Fit      -0.003145
 3341 Fit      -0.007080
 3342 Fit      -0.010405
 3343 Fit      -0.013242
 3344 Fit      -0.015663
 3345 Fit      -0.017708
 3346 Fit      -0.019393
 3347 Fit      -0.020722
 3348 Fit      -0.021693
 3349 Fit      -0.022304
 3350 Fit      -0.022556
 3351 Fit      -0.022453
 3352 Fit      -0.021698
 3353 Fit      -0.020943
 3354 Fit      -0.019886
 3355 Fit      -0.018546
 3356 Fit      -0.016934
 3357 Fit      -0.015054
 3358 Fit      -0.012891
 3359 Fit      -0.010406
 3360 Fit      -0.007528
 3361 Fit      -0.004145
 3362 Fit      -0.000098
 3363 Fit       0.007271
 3364 Fit       0.001559
 3365 Fit      -0.003101
 3366 Fit      -0.006978
 3367 Fit      -0.010256
 3368 Fit      -0.013052
 3369 Fit      -0.015438
 3370 Fit      -0.017453
 3371 Fit      -0.019112
 3372 Fit      -0.020421
 3373 Fit      -0.021378
 3374 Fit      -0.021981
 3375 Fit      -0.022230
 3376 Fit      -0.022132
 3377 Fit      -0.021083
 3378 Fit      -0.020319
 3379 Fit      -0.019234
 3380 Fit      -0.017846
 3381 Fit      -0.016169
 3382 Fit      -0.014199
 3383 Fit      -0.011917
 3384 Fit      -0.009272
 3385 Fit      -0.006176
 3386 Fit      -0.002496
 3387 Fit       0.011313
 3388 Fit       0.004676
 3389 Fit      -0.000614
 3390 Fit      -0.004938
 3391 Fit      -0.008545
 3392 Fit      -0.011591
 3393 Fit      -0.014174
 3394 Fit      -0.016348
 3395 Fit      -0.018140
 3396 Fit      -0.019559
 3397 Fit      -0.020605
 3398 Fit      -0.021277
 3399 Fit      -0.021576
 3400 Fit      -0.021508
 3401 Fit      -0.020171
 3402 Fit      -0.019387
 3403 Fit      -0.018250
 3404 Fit      -0.016778
 3405 Fit      -0.014981
 3406 Fit      -0.012849
 3407 Fit      -0.010349
 3408 Fit      -0.007409
 3409 Fit      -0.003911
 3410 Fit       0.000316
 3411 Fit       0.010311
 3412 Fit       0.003774
 3413 Fit      -0.001422
 3414 Fit      -0.005658
 3415 Fit      -0.009172
 3416 Fit      -0.012117
 3417 Fit      -0.014580
 3418 Fit      -0.016608
 3419 Fit      -0.018220
 3420 Fit      -0.019423
 3421 Fit      -0.020216
 3422 Fit      -0.020600
 3423 Fit      -0.020581
 3424 Fit      -0.018970
 3425 Fit      -0.018178
 3426 Fit      -0.016997
 3427 Fit      -0.015446
 3428 Fit      -0.013528
 3429 Fit      -0.011226
 3430 Fit      -0.008489
 3431 Fit      -0.005224
 3432 Fit      -0.001286
 3433 Fit       0.008897
 3434 Fit       0.002720
 3435 Fit      -0.002242
 3436 Fit      -0.006298
 3437 Fit      -0.009652
 3438 Fit      -0.012435
 3439 Fit      -0.014718
 3440 Fit      -0.016538
 3441 Fit      -0.017908
 3442 Fit      -0.018833
 3443 Fit      -0.019313
 3444 Fit      -0.019354
 3445 Fit      -0.017489
 3446 Fit      -0.016667
 3447 Fit      -0.015395
 3448 Fit      -0.013689
 3449 Fit      -0.011544
 3450 Fit      -0.008925
 3451 Fit      -0.005757
 3452 Fit      -0.001912
 3453 Fit       0.009328
 3454 Fit       0.003165
 3455 Fit      -0.001854
 3456 Fit      -0.005956
 3457 Fit      -0.009319
 3458 Fit      -0.012061
 3459 Fit      -0.014249
 3460 Fit      -0.015911
 3461 Fit      -0.017061
 3462 Fit      -0.017702
 3463 Fit      -0.017840
 3464 Fit      -0.015729
 3465 Fit      -0.014878
 3466 Fit      -0.013503
 3467 Fit      -0.011613
 3468 Fit      -0.009194
 3469 Fit      -0.006196
 3470 Fit      -0.002526
 3471 Fit       0.001942
 3472 Fit       0.009247
 3473 Fit       0.003414
 3474 Fit      -0.001496
 3475 Fit      -0.005547
 3476 Fit      -0.008849
 3477 Fit      -0.011485
 3478 Fit      -0.013505
 3479 Fit      -0.014931
 3480 Fit      -0.015772
 3481 Fit      -0.016033
 3482 Fit      -0.013680
 3483 Fit      -0.012696
 3484 Fit      -0.010984
 3485 Fit      -0.008553
 3486 Fit      -0.005370
 3487 Fit      -0.001372
 3488 Fit       0.006995
 3489 Fit       0.001537
 3490 Fit      -0.003132
 3491 Fit      -0.006931
 3492 Fit      -0.009884
 3493 Fit      -0.012023
 3494 Fit      -0.013363
 3495 Fit      -0.013910
 3496 Fit      -0.011315
 3497 Fit      -0.010195
 3498 Fit      -0.008100
 3499 Fit      -0.005062
 3500 Fit      -0.001116
 3501 Fit       0.003585
 3502 Fit       0.003142
 3503 Fit      -0.001572
 3504 Fit      -0.005521
 3505 Fit      -0.008515
 3506 Fit      -0.010491
 3507 Fit      -0.011423
 3508 Fit      -0.008585
 3509 Fit      -0.007086
 3510 Fit      -0.004055
 3511 Fit       0.000149
 3512 Fit       0.005700
 3513 Fit       0.001360
 3514 Fit      -0.003082
 3515 Fit      -0.006504
 3516 Fit      -0.008396
 3517 Fit      -0.005407
 3518 Fit      -0.002925
 3519 Fit       0.001280
 3520 Fit       0.002831
 3521 Fit      -0.000235
 3522 Fit      -0.004232
 3523 Fit      -0.001658
 3524 Fit       0.013125
 3525 Fit       0.007460
 3526 Fit       0.011314
 3527 Fit       0.016950
 3528 Fit       0.018890
 3529 Fit       0.015204
 3530 Fit       0.009364
 3531 Fit       0.004691
 3532 Fit       0.009687
 3533 Fit       0.015578
 3534 Fit       0.022545
 3535 Fit       0.017670
 3536 Fit       0.011362
 3537 Fit       0.008190
 3538 Fit       0.013969
 3539 Fit       0.020685
 3540 Fit       0.014098
 3541 Fit       0.007510
 3542 Fit       0.007747
 3543 Fit       0.013635
 3544 Fit       0.012051
 3545 Fit       0.006418
 3546 Fit       0.011980
 3547 Fit       0.015464
 3548 Fit       0.007087
 3549 Fit       0.012693
 3550 Fit       0.002435
 3551 Fit       0.007819
 3552 Fit       0.013300
 3553 Fit       0.004254
 3554 Fit       0.009588
 3555 Fit       0.014972
 3556 Fit       0.006147
 3557 Fit       0.011301
 3558 Fit       0.016455
 3559 Fit       0.003932
 3560 Fit       0.008993
 3561 Fit       0.013981
 3562 Fit       0.003742
 3563 Fit       0.008863
 3564 Fit       0.013878
 3565 Fit       0.003742
 3566 Fit       0.008862
 3567 Fit       0.013878
 3568 Fit       0.003932
 3569 Fit       0.008993
 3570 Fit       0.013980
 3571 Fit       0.006146
 3572 Fit       0.011300
 3573 Fit       0.016454
 3574 Fit       0.004253
 3575 Fit       0.009587
 3576 Fit       0.014971
 3577 Fit       0.002433
 3578 Fit       0.007817
 3579 Fit       0.013298
 3580 Fit       0.007085
 3581 Fit       0.012690
 3582 Fit       0.006415
 3583 Fit       0.011978
 3584 Fit       0.015461
 3585 Fit       0.007744
 3586 Fit       0.013632
 3587 Fit       0.012048
 3588 Fit       0.008187
 3589 Fit       0.013966
 3590 Fit       0.020681
 3591 Fit       0.014095
 3592 Fit       0.007507
 3593 Fit       0.004688
 3594 Fit       0.009684
 3595 Fit       0.015574
 3596 Fit       0.022540
 3597 Fit       0.017666
 3598 Fit       0.011358
 3599 Fit       0.007457
 3600 Fit       0.011311
 3601 Fit       0.016946
 3602 Fit       0.018886
 3603 Fit       0.015200
 3604 Fit       0.009360
 3605 Fit       0.013121
 3606 Fit       0.026124
 3607 Fit       0.019076
 3608 Fit       0.019842
 3609 Fit       0.021453
 3610 Fit       0.019475
 3611 Fit       0.021059
 3612 Fit       0.022046
 3613 Fit       0.022515
 3614 Fit       0.022476
 3615 Fit       0.021881
 3616 Fit       0.020639
 3617 Fit       0.018596
 3618 Fit       0.015498
 3619 Fit       0.019475
 3620 Fit       0.021059
 3621 Fit       0.022046
 3622 Fit       0.022516
 3623 Fit       0.022476
 3624 Fit       0.021881
 3625 Fit       0.020639
 3626 Fit       0.018596
 3627 Fit       0.015498
 3628 Fit       0.019841
 3629 Fit       0.021453
 3630 Fit       0.019076
 3631 Fit       0.026121
 3632 Fit       0.026124
 3633 Fit       0.018772
 3634 Fit       0.020723
 3635 Fit       0.022034
 3636 Fit       0.018406
 3637 Fit       0.020346
 3638 Fit       0.021617
 3639 Fit       0.022340
 3640 Fit       0.022558
 3641 Fit       0.022249
 3642 Fit       0.021345
 3643 Fit       0.019726
 3644 Fit       0.017195
 3645 Fit       0.018406
 3646 Fit       0.020346
 3647 Fit       0.021617
 3648 Fit       0.022340
 3649 Fit       0.022558
 3650 Fit       0.022249
 3651 Fit       0.021345
 3652 Fit       0.019726
 3653 Fit       0.017195
 3654 Fit       0.018771
 3655 Fit       0.020723
 3656 Fit       0.022034
 3657 Fit       0.026121
 3658 Fit       0.013124
 3659 Fit       0.018890
 3660 Fit       0.015204
 3661 Fit       0.009363
 3662 Fit       0.007459
 3663 Fit       0.011313
 3664 Fit       0.016949
 3665 Fit       0.022545
 3666 Fit       0.017671
 3667 Fit       0.011362
 3668 Fit       0.004689
 3669 Fit       0.009684
 3670 Fit       0.015576
 3671 Fit       0.020686
 3672 Fit       0.014100
 3673 Fit       0.007511
 3674 Fit       0.008187
 3675 Fit       0.013966
 3676 Fit       0.015767
 3677 Fit       0.004933
 3678 Fit       0.010647
 3679 Fit       0.016687
 3680 Fit       0.011639
 3681 Fit       0.003722
 3682 Fit       0.009164
 3683 Fit       0.014856
 3684 Fit       0.004344
 3685 Fit       0.009860
 3686 Fit       0.015581
 3687 Fit       0.005113
 3688 Fit       0.010537
 3689 Fit       0.016106
 3690 Fit       0.004248
 3691 Fit       0.009582
 3692 Fit       0.014967
 3693 Fit       0.003548
 3694 Fit       0.008722
 3695 Fit       0.013868
 3696 Fit       0.006467
 3697 Fit       0.011488
 3698 Fit       0.016449
 3699 Fit       0.006310
 3700 Fit       0.011377
 3701 Fit       0.016344
 3702 Fit       0.006309
 3703 Fit       0.011376
 3704 Fit       0.016344
 3705 Fit       0.006466
 3706 Fit       0.011488
 3707 Fit       0.016448
 3708 Fit       0.003547
 3709 Fit       0.008721
 3710 Fit       0.013867
 3711 Fit       0.004247
 3712 Fit       0.009581
 3713 Fit       0.014965
 3714 Fit       0.005112
 3715 Fit       0.010535
 3716 Fit       0.016104
 3717 Fit       0.004342
 3718 Fit       0.009858
 3719 Fit       0.015579
 3720 Fit       0.011636
 3721 Fit       0.003720
 3722 Fit       0.009161
 3723 Fit       0.014853
 3724 Fit       0.015763
 3725 Fit       0.004931
 3726 Fit       0.010644
 3727 Fit       0.016683
 3728 Fit       0.020682
 3729 Fit       0.014096
 3730 Fit       0.007508
 3731 Fit       0.008184
 3732 Fit       0.013962
 3733 Fit       0.022540
 3734 Fit       0.017667
 3735 Fit       0.011359
 3736 Fit       0.004685
 3737 Fit       0.009681
 3738 Fit       0.015572
 3739 Fit       0.018885
 3740 Fit       0.015199
 3741 Fit       0.009360
 3742 Fit       0.007456
 3743 Fit       0.011309
 3744 Fit       0.016944
 3745 Fit       0.013120
 3746 Fit      -0.001656
 3747 Fit       0.002833
 3748 Fit      -0.000234
 3749 Fit      -0.004231
 3750 Fit      -0.005406
 3751 Fit      -0.002924
 3752 Fit       0.001281
 3753 Fit       0.005703
 3754 Fit       0.001363
 3755 Fit      -0.003080
 3756 Fit      -0.006502
 3757 Fit      -0.008395
 3758 Fit      -0.008585
 3759 Fit      -0.007086
 3760 Fit      -0.004055
 3761 Fit       0.000149
 3762 Fit       0.003145
 3763 Fit      -0.001570
 3764 Fit      -0.005520
 3765 Fit      -0.008514
 3766 Fit      -0.010490
 3767 Fit      -0.011423
 3768 Fit      -0.011315
 3769 Fit      -0.010195
 3770 Fit      -0.008101
 3771 Fit      -0.005063
 3772 Fit      -0.001117
 3773 Fit       0.003585
 3774 Fit       0.004186
 3775 Fit      -0.000903
 3776 Fit      -0.005138
 3777 Fit      -0.008509
 3778 Fit      -0.011053
 3779 Fit      -0.012792
 3780 Fit      -0.013735
 3781 Fit      -0.013891
 3782 Fit      -0.013280
 3783 Fit      -0.011930
 3784 Fit      -0.009860
 3785 Fit      -0.007060
 3786 Fit      -0.003479
 3787 Fit       0.000949
 3788 Fit       0.006220
 3789 Fit       0.000848
 3790 Fit      -0.003619
 3791 Fit      -0.007283
 3792 Fit      -0.010244
 3793 Fit      -0.012569
 3794 Fit      -0.014291
 3795 Fit      -0.015424
 3796 Fit      -0.015974
 3797 Fit      -0.015951
 3798 Fit      -0.015371
 3799 Fit      -0.014256
 3800 Fit      -0.012623
 3801 Fit      -0.010473
 3802 Fit      -0.007774
 3803 Fit      -0.004454
 3804 Fit      -0.000402
 3805 Fit       0.006093
 3806 Fit       0.000531
 3807 Fit      -0.004004
 3808 Fit      -0.007719
 3809 Fit      -0.010761
 3810 Fit      -0.013220
 3811 Fit      -0.015143
 3812 Fit      -0.016549
 3813 Fit      -0.017445
 3814 Fit      -0.017833
 3815 Fit      -0.017725
 3816 Fit      -0.017136
 3817 Fit      -0.016087
 3818 Fit      -0.014598
 3819 Fit      -0.012674
 3820 Fit      -0.010299
 3821 Fit      -0.007419
 3822 Fit      -0.003932
 3823 Fit       0.000314
 3824 Fit       0.012579
 3825 Fit       0.005637
 3826 Fit       0.000112
 3827 Fit      -0.004365
 3828 Fit      -0.008051
 3829 Fit      -0.011107
 3830 Fit      -0.013634
 3831 Fit      -0.015683
 3832 Fit      -0.017278
 3833 Fit      -0.018426
 3834 Fit      -0.019128
 3835 Fit      -0.019388
 3836 Fit      -0.019215
 3837 Fit      -0.018625
 3838 Fit      -0.017636
 3839 Fit      -0.016269
 3840 Fit      -0.014535
 3841 Fit      -0.012430
 3842 Fit      -0.009919
 3843 Fit      -0.006934
 3844 Fit      -0.003354
 3845 Fit       0.000992
 3846 Fit       0.010316
 3847 Fit       0.003778
 3848 Fit      -0.001419
 3849 Fit      -0.005655
 3850 Fit      -0.009170
 3851 Fit      -0.012115
 3852 Fit      -0.014579
 3853 Fit      -0.016607
 3854 Fit      -0.018219
 3855 Fit      -0.019422
 3856 Fit      -0.020216
 3857 Fit      -0.020600
 3858 Fit      -0.020581
 3859 Fit      -0.020172
 3860 Fit      -0.019388
 3861 Fit      -0.018252
 3862 Fit      -0.016780
 3863 Fit      -0.014983
 3864 Fit      -0.012852
 3865 Fit      -0.010352
 3866 Fit      -0.007412
 3867 Fit      -0.003915
 3868 Fit       0.000311
 3869 Fit       0.007799
 3870 Fit       0.001894
 3871 Fit      -0.002876
 3872 Fit      -0.006817
 3873 Fit      -0.010128
 3874 Fit      -0.012934
 3875 Fit      -0.015308
 3876 Fit      -0.017289
 3877 Fit      -0.018895
 3878 Fit      -0.020128
 3879 Fit      -0.020988
 3880 Fit      -0.021474
 3881 Fit      -0.021588
 3882 Fit      -0.021340
 3883 Fit      -0.020744
 3884 Fit      -0.019817
 3885 Fit      -0.018579
 3886 Fit      -0.017046
 3887 Fit      -0.015224
 3888 Fit      -0.013103
 3889 Fit      -0.010648
 3890 Fit      -0.007791
 3891 Fit      -0.004423
 3892 Fit      -0.000386
 3893 Fit       0.010645
 3894 Fit       0.004266
 3895 Fit      -0.000880
 3896 Fit      -0.005121
 3897 Fit      -0.008681
 3898 Fit      -0.011707
 3899 Fit      -0.014292
 3900 Fit      -0.016489
 3901 Fit      -0.018325
 3902 Fit      -0.019809
 3903 Fit      -0.020943
 3904 Fit      -0.021723
 3905 Fit      -0.022150
 3906 Fit      -0.022225
 3907 Fit      -0.021958
 3908 Fit      -0.021361
 3909 Fit      -0.020453
 3910 Fit      -0.019253
 3911 Fit      -0.017776
 3912 Fit      -0.016031
 3913 Fit      -0.014013
 3914 Fit      -0.011696
 3915 Fit      -0.009026
 3916 Fit      -0.005912
 3917 Fit      -0.002221
 3918 Fit       0.010789
 3919 Fit       0.004332
 3920 Fit      -0.000891
 3921 Fit      -0.005196
 3922 Fit      -0.008808
 3923 Fit      -0.011877
 3924 Fit      -0.014500
 3925 Fit      -0.016730
 3926 Fit      -0.018594
 3927 Fit      -0.020101
 3928 Fit      -0.021252
 3929 Fit      -0.022044
 3930 Fit      -0.022475
 3931 Fit      -0.022549
 3932 Fit      -0.022274
 3933 Fit      -0.021664
 3934 Fit      -0.020737
 3935 Fit      -0.019515
 3936 Fit      -0.018013
 3937 Fit      -0.016241
 3938 Fit      -0.014194
 3939 Fit      -0.011847
 3940 Fit      -0.009143
 3941 Fit      -0.005988
 3942 Fit      -0.002242
 3943 Fit       0.010789
 3944 Fit       0.004332
 3945 Fit      -0.000891
 3946 Fit      -0.005196
 3947 Fit      -0.008808
 3948 Fit      -0.011877
 3949 Fit      -0.014500
 3950 Fit      -0.016730
 3951 Fit      -0.018594
 3952 Fit      -0.020101
 3953 Fit      -0.021252
 3954 Fit      -0.022044
 3955 Fit      -0.022475
 3956 Fit      -0.022549
 3957 Fit      -0.022274
 3958 Fit      -0.021664
 3959 Fit      -0.020737
 3960 Fit      -0.019515
 3961 Fit      -0.018013
 3962 Fit      -0.016241
 3963 Fit      -0.014194
 3964 Fit      -0.011847
 3965 Fit      -0.009143
 3966 Fit      -0.005988
 3967 Fit      -0.002242
 3968 Fit       0.010645
 3969 Fit       0.004266
 3970 Fit      -0.000880
 3971 Fit      -0.005121
 3972 Fit      -0.008681
 3973 Fit      -0.011707
 3974 Fit      -0.014292
 3975 Fit      -0.016489
 3976 Fit      -0.018325
 3977 Fit      -0.019810
 3978 Fit      -0.020943
 3979 Fit      -0.021724
 3980 Fit      -0.022150
 3981 Fit      -0.022225
 3982 Fit      -0.021958
 3983 Fit      -0.021361
 3984 Fit      -0.020454
 3985 Fit      -0.019253
 3986 Fit      -0.017776
 3987 Fit      -0.016031
 3988 Fit      -0.014013
 3989 Fit      -0.011696
 3990 Fit      -0.009026
 3991 Fit      -0.005913
 3992 Fit      -0.002222
 3993 Fit       0.007799
 3994 Fit       0.001894
 3995 Fit      -0.002876
 3996 Fit      -0.006817
 3997 Fit      -0.010128
 3998 Fit      -0.012934
 3999 Fit      -0.015308
 4000 Fit      -0.017290
 4001 Fit      -0.018895
 4002 Fit      -0.020128
 4003 Fit      -0.020988
 4004 Fit      -0.021474
 4005 Fit      -0.021589
 4006 Fit      -0.021340
 4007 Fit      -0.020744
 4008 Fit      -0.019817
 4009 Fit      -0.018579
 4010 Fit      -0.017046
 4011 Fit      -0.015224
 4012 Fit      -0.013103
 4013 Fit      -0.010648
 4014 Fit      -0.007792
 4015 Fit      -0.004424
 4016 Fit      -0.000387
 4017 Fit       0.010315
 4018 Fit       0.003777
 4019 Fit      -0.001420
 4020 Fit      -0.005655
 4021 Fit      -0.009171
 4022 Fit      -0.012116
 4023 Fit      -0.014579
 4024 Fit      -0.016607
 4025 Fit      -0.018220
 4026 Fit      -0.019423
 4027 Fit      -0.020216
 4028 Fit      -0.020601
 4029 Fit      -0.020582
 4030 Fit      -0.020172
 4031 Fit      -0.019389
 4032 Fit      -0.018252
 4033 Fit      -0.016781
 4034 Fit      -0.014984
 4035 Fit      -0.012852
 4036 Fit      -0.010353
 4037 Fit      -0.007413
 4038 Fit      -0.003916
 4039 Fit       0.000310
 4040 Fit       0.012578
 4041 Fit       0.005635
 4042 Fit       0.000111
 4043 Fit      -0.004367
 4044 Fit      -0.008052
 4045 Fit      -0.011108
 4046 Fit      -0.013635
 4047 Fit      -0.015684
 4048 Fit      -0.017279
 4049 Fit      -0.018426
 4050 Fit      -0.019129
 4051 Fit      -0.019389
 4052 Fit      -0.019216
 4053 Fit      -0.018625
 4054 Fit      -0.017637
 4055 Fit      -0.016270
 4056 Fit      -0.014536
 4057 Fit      -0.012431
 4058 Fit      -0.009920
 4059 Fit      -0.006935
 4060 Fit      -0.003355
 4061 Fit       0.000990
 4062 Fit       0.006091
 4063 Fit       0.000529
 4064 Fit      -0.004005
 4065 Fit      -0.007720
 4066 Fit      -0.010762
 4067 Fit      -0.013221
 4068 Fit      -0.015144
 4069 Fit      -0.016550
 4070 Fit      -0.017446
 4071 Fit      -0.017834
 4072 Fit      -0.017726
 4073 Fit      -0.017137
 4074 Fit      -0.016088
 4075 Fit      -0.014599
 4076 Fit      -0.012675
 4077 Fit      -0.010301
 4078 Fit      -0.007420
 4079 Fit      -0.003933
 4080 Fit       0.000312
 4081 Fit       0.006218
 4082 Fit       0.000846
 4083 Fit      -0.003621
 4084 Fit      -0.007285
 4085 Fit      -0.010245
 4086 Fit      -0.012570
 4087 Fit      -0.014292
 4088 Fit      -0.015425
 4089 Fit      -0.015975
 4090 Fit      -0.015952
 4091 Fit      -0.015372
 4092 Fit      -0.014257
 4093 Fit      -0.012625
 4094 Fit      -0.010474
 4095 Fit      -0.007776
 4096 Fit      -0.004456
 4097 Fit      -0.000404
 4098 Fit       0.004184
 4099 Fit      -0.000905
 4100 Fit      -0.005139
 4101 Fit      -0.008511
 4102 Fit      -0.011054
 4103 Fit      -0.012793
 4104 Fit      -0.013736
 4105 Fit      -0.013892
 4106 Fit      -0.013282
 4107 Fit      -0.011932
 4108 Fit      -0.009862
 4109 Fit      -0.007062
 4110 Fit      -0.003481
 4111 Fit       0.000947
 4112 Fit       0.003142
 4113 Fit      -0.001572
 4114 Fit      -0.005521
 4115 Fit      -0.008516
 4116 Fit      -0.010491
 4117 Fit      -0.011424
 4118 Fit      -0.011317
 4119 Fit      -0.010197
 4120 Fit      -0.008102
 4121 Fit      -0.005065
 4122 Fit      -0.001119
 4123 Fit       0.003582
 4124 Fit       0.005700
 4125 Fit       0.001360
 4126 Fit      -0.003082
 4127 Fit      -0.006504
 4128 Fit      -0.008397
 4129 Fit      -0.008587
 4130 Fit      -0.007088
 4131 Fit      -0.004057
 4132 Fit       0.000146
 4133 Fit       0.002830
 4134 Fit      -0.000236
 4135 Fit      -0.004233
 4136 Fit      -0.005408
 4137 Fit      -0.002927
 4138 Fit       0.001278
 4139 Fit      -0.001659
 4140 Fit       0.022540
 4141 Fit       0.022025
 4142 Fit       0.021124
 4143 Fit       0.019734
 4144 Fit       0.017687
 4145 Fit       0.021083
 4146 Fit       0.021551
 4147 Fit       0.021670
 4148 Fit       0.021469
 4149 Fit       0.020934
 4150 Fit       0.020014
 4151 Fit       0.018620
 4152 Fit       0.016606
 4153 Fit       0.013753
 4154 Fit       0.018954
 4155 Fit       0.020102
 4156 Fit       0.020764
 4157 Fit       0.021044
 4158 Fit       0.020987
 4159 Fit       0.020593
 4160 Fit       0.019832
 4161 Fit       0.018641
 4162 Fit       0.016922
 4163 Fit       0.014539
 4164 Fit       0.019055
 4165 Fit       0.020025
 4166 Fit       0.020567
 4167 Fit       0.020745
 4168 Fit       0.020581
 4169 Fit       0.020067
 4170 Fit       0.019172
 4171 Fit       0.017848
 4172 Fit       0.016038
 4173 Fit       0.013721
 4174 Fit       0.018220
 4175 Fit       0.019396
 4176 Fit       0.020155
 4177 Fit       0.020550
 4178 Fit       0.020611
 4179 Fit       0.020345
 4180 Fit       0.019749
 4181 Fit       0.018812
 4182 Fit       0.017541
 4183 Fit       0.015998
 4184 Fit       0.014394
 4185 Fit       0.018078
 4186 Fit       0.019240
 4187 Fit       0.020057
 4188 Fit       0.020522
 4189 Fit       0.020649
 4190 Fit       0.020447
 4191 Fit       0.019931
 4192 Fit       0.019136
 4193 Fit       0.018160
 4194 Fit       0.017234
 4195 Fit       0.016826
 4196 Fit       0.020342
 4197 Fit       0.017672
 4198 Fit       0.018456
 4199 Fit       0.019364
 4200 Fit       0.020122
 4201 Fit       0.020610
 4202 Fit       0.020792
 4203 Fit       0.020672
 4204 Fit       0.020292
 4205 Fit       0.019758
 4206 Fit       0.019297
 4207 Fit       0.019309
 4208 Fit       0.021965
 4209 Fit       0.024060
 4210 Fit       0.026740
 4211 Fit       0.028901
 4212 Fit       0.029459
 4213 Fit       0.028061
 4214 Fit       0.025352
 4215 Fit       0.022484
 4216 Fit       0.020451
 4217 Fit       0.019620
 4218 Fit       0.019713
 4219 Fit       0.020210
 4220 Fit       0.020710
 4221 Fit       0.021007
 4222 Fit       0.021044
 4223 Fit       0.020882
 4224 Fit       0.020719
 4225 Fit       0.020925
 4226 Fit       0.022832
 4227 Fit       0.024599
 4228 Fit       0.026143
 4229 Fit       0.026119
 4230 Fit       0.024431
 4231 Fit       0.022377
 4232 Fit       0.021187
 4233 Fit       0.020997
 4234 Fit       0.021242
 4235 Fit       0.021457
 4236 Fit       0.021557
 4237 Fit       0.021844
 4238 Fit       0.023116
 4239 Fit       0.024247
 4240 Fit       0.023634
 4241 Fit       0.022271
 4242 Fit       0.021953
 4243 Fit       0.022231
 4244 Fit       0.022914
 4245 Fit       0.022915
 4246 Fit       0.023117
 4247 Fit       0.024248
 4248 Fit       0.023635
 4249 Fit       0.022272
 4250 Fit       0.021954
 4251 Fit       0.022232
 4252 Fit       0.022833
 4253 Fit       0.024601
 4254 Fit       0.026144
 4255 Fit       0.026120
 4256 Fit       0.024432
 4257 Fit       0.022377
 4258 Fit       0.021188
 4259 Fit       0.020998
 4260 Fit       0.021243
 4261 Fit       0.021458
 4262 Fit       0.021558
 4263 Fit       0.021846
 4264 Fit       0.021967
 4265 Fit       0.024062
 4266 Fit       0.026742
 4267 Fit       0.028902
 4268 Fit       0.029460
 4269 Fit       0.028062
 4270 Fit       0.025352
 4271 Fit       0.022485
 4272 Fit       0.020451
 4273 Fit       0.019621
 4274 Fit       0.019714
 4275 Fit       0.020210
 4276 Fit       0.020711
 4277 Fit       0.021008
 4278 Fit       0.021045
 4279 Fit       0.020883
 4280 Fit       0.020721
 4281 Fit       0.020927
 4282 Fit       0.020345
 4283 Fit       0.017672
 4284 Fit       0.018456
 4285 Fit       0.019365
 4286 Fit       0.020122
 4287 Fit       0.020611
 4288 Fit       0.020793
 4289 Fit       0.020673
 4290 Fit       0.020293
 4291 Fit       0.019760
 4292 Fit       0.019299
 4293 Fit       0.019312
 4294 Fit       0.018078
 4295 Fit       0.019241
 4296 Fit       0.020057
 4297 Fit       0.020523
 4298 Fit       0.020650
 4299 Fit       0.020448
 4300 Fit       0.019932
 4301 Fit       0.019137
 4302 Fit       0.018162
 4303 Fit       0.017237
 4304 Fit       0.016829
 4305 Fit       0.018220
 4306 Fit       0.019396
 4307 Fit       0.020156
 4308 Fit       0.020551
 4309 Fit       0.020611
 4310 Fit       0.020346
 4311 Fit       0.019750
 4312 Fit       0.018814
 4313 Fit       0.017543
 4314 Fit       0.016001
 4315 Fit       0.014397
 4316 Fit       0.019055
 4317 Fit       0.020025
 4318 Fit       0.020568
 4319 Fit       0.020746
 4320 Fit       0.020581
 4321 Fit       0.020068
 4322 Fit       0.019174
 4323 Fit       0.017849
 4324 Fit       0.016040
 4325 Fit       0.013724
 4326 Fit       0.018954
 4327 Fit       0.020102
 4328 Fit       0.020764
 4329 Fit       0.021045
 4330 Fit       0.020988
 4331 Fit       0.020594
 4332 Fit       0.019834
 4333 Fit       0.018642
 4334 Fit       0.016923
 4335 Fit       0.014542
 4336 Fit       0.021083
 4337 Fit       0.021551
 4338 Fit       0.021670
 4339 Fit       0.021470
 4340 Fit       0.020935
 4341 Fit       0.020016
 4342 Fit       0.018621
 4343 Fit       0.016608
 4344 Fit       0.013756
 4345 Fit       0.022541
 4346 Fit       0.022026
 4347 Fit       0.021125
 4348 Fit       0.019736
 4349 Fit       0.017689
 4350 Fit       0.022676
 4351 Fit       0.022330
 4352 Fit       0.021632
 4353 Fit       0.020503
 4354 Fit       0.018812
 4355 Fit       0.021086
 4356 Fit       0.021554
 4357 Fit       0.021673
 4358 Fit       0.021472
 4359 Fit       0.020937
 4360 Fit       0.020018
 4361 Fit       0.018624
 4362 Fit       0.016611
 4363 Fit       0.013760
 4364 Fit       0.019601
 4365 Fit       0.020488
 4366 Fit       0.020951
 4367 Fit       0.021060
 4368 Fit       0.020837
 4369 Fit       0.020265
 4370 Fit       0.019299
 4371 Fit       0.017859
 4372 Fit       0.015828
 4373 Fit       0.013057
 4374 Fit       0.018378
 4375 Fit       0.019602
 4376 Fit       0.020348
 4377 Fit       0.020702
 4378 Fit       0.020708
 4379 Fit       0.020372
 4380 Fit       0.019673
 4381 Fit       0.018571
 4382 Fit       0.017011
 4383 Fit       0.014946
 4384 Fit       0.017460
 4385 Fit       0.018867
 4386 Fit       0.019826
 4387 Fit       0.020399
 4388 Fit       0.020624
 4389 Fit       0.020521
 4390 Fit       0.020092
 4391 Fit       0.019327
 4392 Fit       0.018220
 4393 Fit       0.016799
 4394 Fit       0.015185
 4395 Fit       0.017387
 4396 Fit       0.018703
 4397 Fit       0.019695
 4398 Fit       0.020335
 4399 Fit       0.020630
 4400 Fit       0.020591
 4401 Fit       0.020229
 4402 Fit       0.019567
 4403 Fit       0.018663
 4404 Fit       0.017672
 4405 Fit       0.016928
 4406 Fit       0.018024
 4407 Fit       0.018919
 4408 Fit       0.019774
 4409 Fit       0.020405
 4410 Fit       0.020742
 4411 Fit       0.020770
 4412 Fit       0.020512
 4413 Fit       0.020036
 4414 Fit       0.019501
 4415 Fit       0.019214
 4416 Fit       0.019666
 4417 Fit       0.021392
 4418 Fit       0.019622
 4419 Fit       0.019715
 4420 Fit       0.020211
 4421 Fit       0.020712
 4422 Fit       0.021009
 4423 Fit       0.021046
 4424 Fit       0.020884
 4425 Fit       0.020721
 4426 Fit       0.020927
 4427 Fit       0.021966
 4428 Fit       0.024061
 4429 Fit       0.026741
 4430 Fit       0.028901
 4431 Fit       0.029459
 4432 Fit       0.028061
 4433 Fit       0.025352
 4434 Fit       0.022484
 4435 Fit       0.020452
 4436 Fit       0.021189
 4437 Fit       0.020998
 4438 Fit       0.021244
 4439 Fit       0.021459
 4440 Fit       0.021559
 4441 Fit       0.021846
 4442 Fit       0.022833
 4443 Fit       0.024600
 4444 Fit       0.026143
 4445 Fit       0.026119
 4446 Fit       0.024431
 4447 Fit       0.022378
 4448 Fit       0.022272
 4449 Fit       0.021954
 4450 Fit       0.022232
 4451 Fit       0.023117
 4452 Fit       0.024248
 4453 Fit       0.023635
 4454 Fit       0.022915
 4455 Fit       0.022916
 4456 Fit       0.022273
 4457 Fit       0.021955
 4458 Fit       0.022233
 4459 Fit       0.023118
 4460 Fit       0.024249
 4461 Fit       0.023636
 4462 Fit       0.021190
 4463 Fit       0.020999
 4464 Fit       0.021245
 4465 Fit       0.021460
 4466 Fit       0.021560
 4467 Fit       0.021847
 4468 Fit       0.022835
 4469 Fit       0.024602
 4470 Fit       0.026145
 4471 Fit       0.026121
 4472 Fit       0.024433
 4473 Fit       0.022379
 4474 Fit       0.019623
 4475 Fit       0.019716
 4476 Fit       0.020213
 4477 Fit       0.020713
 4478 Fit       0.021010
 4479 Fit       0.021047
 4480 Fit       0.020885
 4481 Fit       0.020723
 4482 Fit       0.020929
 4483 Fit       0.021969
 4484 Fit       0.024063
 4485 Fit       0.026743
 4486 Fit       0.028903
 4487 Fit       0.029460
 4488 Fit       0.028062
 4489 Fit       0.025353
 4490 Fit       0.022486
 4491 Fit       0.020453
 4492 Fit       0.018026
 4493 Fit       0.018920
 4494 Fit       0.019775
 4495 Fit       0.020406
 4496 Fit       0.020743
 4497 Fit       0.020771
 4498 Fit       0.020513
 4499 Fit       0.020038
 4500 Fit       0.019503
 4501 Fit       0.019216
 4502 Fit       0.019668
 4503 Fit       0.021395
 4504 Fit       0.017388
 4505 Fit       0.018704
 4506 Fit       0.019696
 4507 Fit       0.020336
 4508 Fit       0.020631
 4509 Fit       0.020592
 4510 Fit       0.020231
 4511 Fit       0.019568
 4512 Fit       0.018665
 4513 Fit       0.017674
 4514 Fit       0.016931
 4515 Fit       0.017460
 4516 Fit       0.018867
 4517 Fit       0.019827
 4518 Fit       0.020399
 4519 Fit       0.020625
 4520 Fit       0.020522
 4521 Fit       0.020093
 4522 Fit       0.019328
 4523 Fit       0.018222
 4524 Fit       0.016801
 4525 Fit       0.015188
 4526 Fit       0.018379
 4527 Fit       0.019603
 4528 Fit       0.020348
 4529 Fit       0.020703
 4530 Fit       0.020709
 4531 Fit       0.020373
 4532 Fit       0.019674
 4533 Fit       0.018572
 4534 Fit       0.017012
 4535 Fit       0.014948
 4536 Fit       0.019602
 4537 Fit       0.020489
 4538 Fit       0.020951
 4539 Fit       0.021060
 4540 Fit       0.020837
 4541 Fit       0.020266
 4542 Fit       0.019301
 4543 Fit       0.017860
 4544 Fit       0.015830
 4545 Fit       0.013059
 4546 Fit       0.021087
 4547 Fit       0.021554
 4548 Fit       0.021674
 4549 Fit       0.021473
 4550 Fit       0.020938
 4551 Fit       0.020019
 4552 Fit       0.018626
 4553 Fit       0.016613
 4554 Fit       0.013761
 4555 Fit       0.022676
 4556 Fit       0.022331
 4557 Fit       0.021632
 4558 Fit       0.020504
 4559 Fit       0.018813
 -----------------------------------------------------------------
 Leave Link  602 at Sat Sep 14 21:02:09 2024, MaxMem=  4294967296 cpu:              10.1 elap:               1.0
 (Enter /home/appl/Gaussian/g16/l9999.exe)

 Test job not archived.
 1\1\GINC-VODKA\SP\RHF\6-31G(d)\C4H4N2\SASAKIRAK\14-Sep-2024\0\\#P hf/6
 -31g(d) pop(mk) IOP(6/33=2, 6/42=6)\\Gaussian input prepared by ASE\\0
 ,1\N,0,7.558446,6.866407,3.896444\C,0,8.159201,7.466387,3.121818\C,0,8
 .934248,8.240456,2.15701\C,0,9.899027,9.208154,2.869825\C,0,10.674045,
 9.982416,1.905106\N,0,11.274882,10.582522,1.130636\H,0,9.342449,9.8981
 8,3.50806\H,0,10.588631,8.653914,3.51054\H,0,8.244729,8.794686,1.51619
 \H,0,9.490851,7.550369,1.518872\\Version=ES64L-G16RevC.01\State=1-A\HF
 =-262.6886399\RMSD=2.180e-09\Dipole=-0.0000399,-0.0001914,-0.0001417\Q
 uadrupole=-0.8464779,-0.8396722,1.68615,-8.0007087,7.255007,7.2542447\
 PG=C01 [X(C4H4N2)]\\@


      THE ONE-EYED VIEW OF OUR UNIVERSE SAYS YOU MUST NOT LOOK
      FAR AFIELD FOR PROBLEMS.  SUCH PROBLEMS MAY NEVER ARRIVE. 
      INSTEAD, TEND TO THE WOLF WITHIN YOUR FENCES.
      THE PACKS RANGING OUTSIDE MAY NOT EVEN EXIST.

                              -- THE AZHAR BOOK SHAMRA I:4
                                 CHILDREN OF DUNE, BY FRANK HERBERT
 Job cpu time:       0 days  0 hours  5 minutes  8.9 seconds.
 Elapsed time:       0 days  0 hours  0 minutes 31.1 seconds.
 File lengths (MBytes):  RWF=     10 Int=      0 D2E=      0 Chk=      2 Scr=      1
 Normal termination of Gaussian 16 at Sat Sep 14 21:02:09 2024.
